 vasp.6.3.0 20Jan22 (build Apr  1 2022 16:44:48) complex
 executed on        HPECrayEX_GCC date 2023.02.14  19:30:07

 INCAR:
   SYSTEM = MgO-rocksalt
   ISMEAR = 0
   SIGMA = 0.05
   EDIFF = 1E-7
   ALGO = ALL
   ISTART = 0
   IBRION = 2
   NSW = 1000
   ISYM = 0
   ISIF = 2
   EDIFFG = -0.01
   DIPOL = 0.5 0.5 0.5
   IDIPOL = 3
   LDIPOL = .TRUE.
   GGA = RE
   IVDW = 13
   VDW_S8 = 1.7468
   VDW_A1 = 0.5363
   VDW_A2 = 3.0726
   ENCUT = 600
   PREC = Accurate
   LASPH = .TRUE.
   LREAL = .FALSE.
   ISPIN = 1
   NELM = 200
   NELMIN = 8
   NCORE = 8
   KPAR = 1
   LWAVE = .FALSE.
   LCHARG = .FALSE.

 POTCAR:    PAW_PBE N 08Apr2002
 POTCAR:    PAW_PBE H 15Jun2001
 POTCAR:    PAW_PBE Mg_pv 13Apr2007
 POTCAR:    PAW_PBE O 08Apr2002
 POTCAR:    PAW_PBE N 08Apr2002
   VRHFIN =N: s2p3

   TITEL  = PAW_PBE N 08Apr2002
   POMASS =   14.001; ZVAL   =    5.000    mass and valenz
   ENMAX  =  400.000; ENMIN  =  300.000 eV

   TITEL  = PAW_PBE H 15Jun2001
   POMASS =    1.000; ZVAL   =    1.000    mass and valenz
   ENMAX  =  250.000; ENMIN  =  200.000 eV

   TITEL  = PAW_PBE Mg_pv 13Apr2007
   POMASS =   24.305; ZVAL   =    8.000    mass and valenz
   ENMAX  =  403.929; ENMIN  =  302.947 eV

   TITEL  = PAW_PBE O 08Apr2002
   POMASS =   16.000; ZVAL   =    6.000    mass and valenz
   ENMAX  =  400.000; ENMIN  =  300.000 eV

  PAW_PBE N 08Apr2002                   :
  PAW_PBE H 15Jun2001                   :
  PAW_PBE Mg_pv 13Apr2007               :
  PAW_PBE O 08Apr2002                   :

 POSCAR:  N  H Mg  O
  positions in direct lattice
|           W    W    AA    RRRRR   N    N  II  N    N   GGGG   !!!           |
|           W    W   A  A   R    R  NN   N  II  NN   N  G    G  !!!           |
|           W    W  A    A  R    R  N N  N  II  N N  N  G       !!!           |
|           W WW W  AAAAAA  RRRRR   N  N N  II  N  N N  G  GGG   !            |
|           WW  WW  A    A  R   R   N   NN  II  N   NN  G    G                |
|           W    W  A    A  R    R  N    N  II  N    N   GGGG   !!!           |
|     Specifying the vdW parameters                                           |
|     VDW_S8 = 1.747                                                          |
|     VDW_A1 = 0.536                                                          |
|     VDW_A2 = 3.073                                                          |
|     in the INCAR file will overwrite the defaults for revpbe. Please        |
|     make sure that is what you intended.                                    |

 ion  position               nearest neighbor table
   1  0.500  0.500  0.790-   2 1.02   3 1.02   4 1.02
   2  0.500  0.612  0.808-   1 1.02
   3  0.403  0.444  0.808-   1 1.02
   4  0.597  0.444  0.808-   1 1.02
   5  0.000  0.750  0.352-  37 2.11  39 2.11  40 2.11  47 2.11  56 2.11
   6  0.250  0.000  0.352-  38 2.11  39 2.11  40 2.11  48 2.11  55 2.11
   7  0.000  0.000  0.451-  39 2.11  38 2.11  37 2.11  45 2.11  54 2.11  43 2.12
   8  0.250  0.750  0.451-  40 2.11  38 2.11  37 2.11  46 2.11  53 2.11  44 2.12
   9  0.000  0.750  0.550-  43 2.11  44 2.11  51 2.11  60 2.11  37 2.13  41 2.15
  10  0.250  0.000  0.550-  43 2.11  44 2.11  52 2.11  59 2.11  38 2.13  42 2.15
  11  0.000  0.000  0.649-  41 2.11  42 2.11  49 2.11  58 2.11  43 2.11
  12  0.250  0.750  0.649-  41 2.11  42 2.11  50 2.11  57 2.11  44 2.11
  13  0.000  0.250  0.352-  45 2.11  39 2.11  47 2.11  48 2.11  64 2.11
  14  0.250  0.500  0.352-  46 2.11  40 2.11  47 2.11  48 2.11  63 2.11
  15  0.000  0.500  0.451-  47 2.11  45 2.11  46 2.11  37 2.11  62 2.11  51 2.12
  16  0.250  0.250  0.451-  48 2.11  45 2.11  46 2.11  38 2.11  61 2.11  52 2.12
  17  0.000  0.250  0.550-  43 2.11  51 2.11  52 2.11  68 2.11  45 2.13  49 2.15
  18  0.250  0.500  0.550-  44 2.11  51 2.11  52 2.11  67 2.11  46 2.13  50 2.15
  19  0.000  0.500  0.649-  41 2.11  49 2.11  50 2.11  66 2.11  51 2.11
  20  0.250  0.250  0.649-  42 2.11  49 2.11  50 2.11  65 2.11  52 2.11
  21  0.500  0.750  0.352-  53 2.11  40 2.11  55 2.11  56 2.11  63 2.11
  22  0.750  0.000  0.352-  54 2.11  39 2.11  55 2.11  56 2.11  64 2.11
  23  0.500  0.000  0.451-  55 2.11  53 2.11  54 2.11  38 2.11  61 2.11  59 2.12
  24  0.750  0.750  0.451-  56 2.11  53 2.11  54 2.11  37 2.11  62 2.11  60 2.12
  25  0.500  0.750  0.550-  44 2.11  59 2.11  60 2.11  67 2.11  53 2.13  57 2.15
  26  0.750  0.000  0.550-  43 2.11  59 2.11  60 2.11  68 2.11  54 2.13  58 2.15
  27  0.500  0.000  0.649-  42 2.11  57 2.11  58 2.11  65 2.11  59 2.11
  28  0.750  0.750  0.649-  41 2.11  57 2.11  58 2.11  66 2.11  60 2.11
  29  0.500  0.250  0.352-  61 2.11  55 2.11  48 2.11  63 2.11  64 2.11
  30  0.750  0.500  0.352-  62 2.11  56 2.11  47 2.11  63 2.11  64 2.11
  31  0.500  0.500  0.451-  63 2.11  53 2.11  61 2.11  62 2.11  46 2.11  67 2.12
  32  0.750  0.250  0.451-  64 2.11  54 2.11  61 2.11  62 2.11  45 2.11  68 2.12
  33  0.500  0.250  0.550-  52 2.11  59 2.11  67 2.11  68 2.11  61 2.13  65 2.15
  34  0.750  0.500  0.550-  51 2.11  60 2.11  67 2.11  68 2.11  62 2.13  66 2.15
  35  0.500  0.500  0.649-  50 2.11  57 2.11  65 2.11  66 2.11  67 2.11
  36  0.750  0.250  0.649-  49 2.11  58 2.11  65 2.11  66 2.11  68 2.11
  37  0.000  0.750  0.451-   5 2.11   7 2.11   8 2.11  15 2.11  24 2.11   9 2.13
  38  0.250  0.000  0.451-   6 2.11   7 2.11   8 2.11  16 2.11  23 2.11  10 2.13
  39  0.000  0.000  0.352-   7 2.11   6 2.11   5 2.11  13 2.11  22 2.11
  40  0.250  0.750  0.352-   8 2.11   6 2.11   5 2.11  14 2.11  21 2.11
  41  0.000  0.750  0.651-  11 2.11  12 2.11  19 2.11  28 2.11   9 2.15
  42  0.250  0.000  0.651-  11 2.11  12 2.11  20 2.11  27 2.11  10 2.15
  43  0.000  0.000  0.550-   9 2.11  10 2.11  17 2.11  26 2.11  11 2.11   7 2.12
  44  0.250  0.750  0.550-   9 2.11  10 2.11  18 2.11  25 2.11  12 2.11   8 2.12
  45  0.000  0.250  0.451-  13 2.11   7 2.11  15 2.11  16 2.11  32 2.11  17 2.13
  46  0.250  0.500  0.451-  14 2.11   8 2.11  15 2.11  16 2.11  31 2.11  18 2.13
  47  0.000  0.500  0.352-  15 2.11  13 2.11  14 2.11   5 2.11  30 2.11
  48  0.250  0.250  0.352-  16 2.11  13 2.11  14 2.11   6 2.11  29 2.11
  49  0.000  0.250  0.651-  11 2.11  19 2.11  20 2.11  36 2.11  17 2.15
  50  0.250  0.500  0.651-  12 2.11  19 2.11  20 2.11  35 2.11  18 2.15
  51  0.000  0.500  0.550-   9 2.11  17 2.11  18 2.11  34 2.11  19 2.11  15 2.12
  52  0.250  0.250  0.550-  10 2.11  17 2.11  18 2.11  33 2.11  20 2.11  16 2.12
  53  0.500  0.750  0.451-  21 2.11   8 2.11  23 2.11  24 2.11  31 2.11  25 2.13
  54  0.750  0.000  0.451-  22 2.11   7 2.11  23 2.11  24 2.11  32 2.11  26 2.13
  55  0.500  0.000  0.352-  23 2.11  21 2.11  22 2.11   6 2.11  29 2.11
  56  0.750  0.750  0.352-  24 2.11  21 2.11  22 2.11   5 2.11  30 2.11
  57  0.500  0.750  0.651-  12 2.11  27 2.11  28 2.11  35 2.11  25 2.15
  58  0.750  0.000  0.651-  11 2.11  27 2.11  28 2.11  36 2.11  26 2.15
  59  0.500  0.000  0.550-  10 2.11  25 2.11  26 2.11  33 2.11  27 2.11  23 2.12
  60  0.750  0.750  0.550-   9 2.11  25 2.11  26 2.11  34 2.11  28 2.11  24 2.12
  61  0.500  0.250  0.451-  29 2.11  23 2.11  16 2.11  31 2.11  32 2.11  33 2.13
  62  0.750  0.500  0.451-  30 2.11  24 2.11  15 2.11  31 2.11  32 2.11  34 2.13
  63  0.500  0.500  0.352-  31 2.11  21 2.11  29 2.11  30 2.11  14 2.11
  64  0.750  0.250  0.352-  32 2.11  22 2.11  29 2.11  30 2.11  13 2.11
  65  0.500  0.250  0.651-  20 2.11  27 2.11  35 2.11  36 2.11  33 2.15
  66  0.750  0.500  0.651-  19 2.11  28 2.11  35 2.11  36 2.11  34 2.15
  67  0.500  0.500  0.550-  18 2.11  25 2.11  33 2.11  34 2.11  35 2.11  31 2.12
  68  0.750  0.250  0.550-  17 2.11  26 2.11  33 2.11  34 2.11  36 2.11  32 2.12

IMPORTANT INFORMATION: All symmetrisations will be switched off!
NOSYMM: (Re-)initialisation of all symmetry stuff for point group C_1.

                                     Primitive cell

  volume of cell :    1519.8199

  direct lattice vectors                    reciprocal lattice vectors
     8.440984654  0.000000000  0.000000000     0.118469591  0.000000000  0.000000000
     0.000000000  8.440984654  0.000000000     0.000000000  0.118469591  0.000000000
     0.000000000  0.000000000 21.330738491     0.000000000  0.000000000  0.046880702

  length of vectors
     8.440984654  8.440984654 21.330738491     0.118469591  0.118469591  0.046880702

  position of ions in fractional coordinates (direct lattice)
     0.500000000  0.500000000  0.789503470
     0.500000000  0.611729980  0.807804905
     0.403238998  0.444135009  0.807804905
     0.596761002  0.444135009  0.807804905
     0.000000000  0.750000000  0.351605267
     0.250000000  0.000000000  0.351605267
     0.000000000  0.000000000  0.450535089
     0.250000000  0.750000000  0.450535089
     0.000000000  0.750000000  0.550171424
     0.250000000  0.000000000  0.550171424
     0.000000000  0.000000000  0.648861363
     0.250000000  0.750000000  0.648861363
     0.000000000  0.250000000  0.351605267
     0.250000000  0.500000000  0.351605267
     0.000000000  0.500000000  0.450535089
     0.250000000  0.250000000  0.450535089
     0.000000000  0.250000000  0.550171424
     0.250000000  0.500000000  0.550171424
     0.000000000  0.500000000  0.648861363
     0.250000000  0.250000000  0.648861363
     0.500000000  0.750000000  0.351605267
     0.750000000  0.000000000  0.351605267
     0.500000000  0.000000000  0.450535089
     0.750000000  0.750000000  0.450535089
     0.500000000  0.750000000  0.550171424
     0.750000000  0.000000000  0.550171424
     0.500000000  0.000000000  0.648861363
     0.750000000  0.750000000  0.648861363
     0.500000000  0.250000000  0.351605267
     0.750000000  0.500000000  0.351605267
     0.500000000  0.500000000  0.450535089
     0.750000000  0.250000000  0.450535089
     0.500000000  0.250000000  0.550171424
     0.750000000  0.500000000  0.550171424
     0.500000000  0.500000000  0.648861363
     0.750000000  0.250000000  0.648861363
     0.000000000  0.750000000  0.450535089
     0.250000000  0.000000000  0.450535089
     0.000000000  0.000000000  0.351605267
     0.250000000  0.750000000  0.351605267
     0.000000000  0.750000000  0.651006323
     0.250000000  0.000000000  0.651006323
     0.000000000  0.000000000  0.549890244
     0.250000000  0.750000000  0.549890244
     0.000000000  0.250000000  0.450535089
     0.250000000  0.500000000  0.450535089
     0.000000000  0.500000000  0.351605267
     0.250000000  0.250000000  0.351605267
     0.000000000  0.250000000  0.651006323
     0.250000000  0.500000000  0.651006323
     0.000000000  0.500000000  0.549890244
     0.250000000  0.250000000  0.549890244
     0.500000000  0.750000000  0.450535089
     0.750000000  0.000000000  0.450535089
     0.500000000  0.000000000  0.351605267
     0.750000000  0.750000000  0.351605267
     0.500000000  0.750000000  0.651006323
     0.750000000  0.000000000  0.651006323
     0.500000000  0.000000000  0.549890244
     0.750000000  0.750000000  0.549890244
     0.500000000  0.250000000  0.450535089
     0.750000000  0.500000000  0.450535089
     0.500000000  0.500000000  0.351605267
     0.750000000  0.250000000  0.351605267
     0.500000000  0.250000000  0.651006323
     0.750000000  0.500000000  0.651006323
[...]
   6.33073849  4.22049233 11.73556278
   4.22049233  4.22049233 13.84069205
   6.33073849  2.11024616 13.84069205
   0.00000000  6.33073849  9.61024616
   2.11024616  0.00000000  9.61024616
   0.00000000  0.00000000  7.50000000
   2.11024616  6.33073849  7.50000000
   0.00000000  6.33073849 13.88644563
   2.11024616  0.00000000 13.88644563
   0.00000000  0.00000000 11.72956500
   2.11024616  6.33073849 11.72956500
   0.00000000  2.11024616  9.61024616
   2.11024616  4.22049233  9.61024616
   0.00000000  4.22049233  7.50000000
   2.11024616  2.11024616  7.50000000
   0.00000000  2.11024616 13.88644563
   2.11024616  4.22049233 13.88644563
   0.00000000  4.22049233 11.72956500
   2.11024616  2.11024616 11.72956500
   4.22049233  6.33073849  9.61024616
   6.33073849  0.00000000  9.61024616
   4.22049233  0.00000000  7.50000000
   6.33073849  6.33073849  7.50000000
   4.22049233  6.33073849 13.88644563
   6.33073849  0.00000000 13.88644563
   4.22049233  0.00000000 11.72956500
   6.33073849  6.33073849 11.72956500
   4.22049233  2.11024616  9.61024616
   6.33073849  4.22049233  9.61024616
   4.22049233  4.22049233  7.50000000
   6.33073849  2.11024616  7.50000000
   4.22049233  2.11024616 13.88644563
   6.33073849  4.22049233 13.88644563
   4.22049233  4.22049233 11.72956500
   6.33073849  2.11024616 11.72956500

--------------------------------------- Iteration      FINAL  ---------------------------------------

--------------------OUTCAR has been truncated-------------------------

[...]

--------------------OUTCAR has been truncated-------------------------

  FORCE on cell =-STRESS in cart. coord.  units (eV):
  Direction    XX          YY          ZZ          XY          YZ          ZX
  Alpha Z   899.54725   899.54725   899.54725
  Ewald  159550.27078159547.74557************    -0.00005    -9.90923     0.00026
  Hartree169876.77898169876.94473************    -0.00001    -0.84255     0.00004
  E(xc)   -2496.66913 -2496.68245 -2504.75943     0.00000    -0.07568     0.00000
  Local  ************************339300.66263     0.00003     6.93093    -0.00023
  n-local -2817.18260 -2817.29136 -2838.74477     0.00000    -0.27983     0.00000
  augment  1047.69504  1047.73270  1038.83146    -0.00000     0.09698    -0.00000
  Kinetic  7431.88118  7433.21448  7489.91079    -0.00000     4.12980    -0.00006
  Fock        0.00000     0.00000     0.00000     0.00000     0.00000     0.00000
  vdW       -21.81882   -21.80893   -16.90999     0.00000     0.01133    -0.00000
  Total     -25.53592   -25.50227    -1.87556    -0.00002     0.06175     0.00001
  in kB     -26.91969   -26.88422    -1.97719    -0.00002     0.06509     0.00001

 VOLUME and BASIS-vectors are now :
  energy-cutoff  :      600.00
  volume of cell :     1519.82
      direct lattice vectors                 reciprocal lattice vectors
     8.440984654  0.000000000  0.000000000     0.118469591  0.000000000  0.000000000
     0.000000000  8.440984654  0.000000000     0.000000000  0.118469591  0.000000000
     0.000000000  0.000000000 21.330738491     0.000000000  0.000000000  0.046880702

  length of vectors
     8.440984654  8.440984654 21.330738491     0.118469591  0.118469591  0.046880702

 FORCES acting on ions:
    Electron-Ion                     Ewald-Force                    Non-Local-Force
   -.721E-04 0.806E+01 -.133E+04   0.922E-04 -.130E+02 0.131E+04   -.799E-04 0.493E+01 0.246E+02
   0.140E-03 -.699E+02 -.273E+03   -.154E-03 0.771E+02 0.274E+03   0.157E-04 -.720E+01 -.877E+00
   0.579E+02 0.279E+02 -.279E+03   -.638E+02 -.307E+02 0.282E+03   0.595E+01 0.283E+01 -.302E+01
   -.579E+02 0.279E+02 -.279E+03   0.638E+02 -.307E+02 0.282E+03   -.595E+01 0.283E+01 -.302E+01
   0.579E-05 0.440E-01 0.208E+04   -.611E-05 -.498E-01 -.207E+04   0.229E-06 0.412E-02 -.714E+01
   -.413E-01 -.187E-04 0.208E+04   0.470E-01 -.817E-04 -.207E+04   -.404E-02 0.850E-04 -.714E+01
   0.177E-04 -.413E-01 0.712E+03   -.191E-04 0.468E-01 -.713E+03   0.104E-05 -.403E-02 0.519E+00
   -.356E+00 0.356E+00 0.713E+03   0.422E+00 -.412E+00 -.713E+03   -.461E-01 0.388E-01 0.579E+00
   0.113E-04 -.276E+01 -.645E+03   -.995E-05 0.267E+01 0.645E+03   -.144E-05 0.834E-01 0.180E-01
   0.279E+01 -.236E+00 -.646E+03   -.271E+01 0.251E+00 0.646E+03   -.805E-01 -.150E-01 0.232E-01
   -.243E-04 -.950E+00 -.201E+04   0.243E-04 0.961E+00 0.200E+04   0.709E-07 -.116E-01 0.604E+01
   0.208E+02 -.199E+02 -.198E+04   -.210E+02 0.200E+02 0.198E+04   0.150E+00 -.789E-01 0.620E+01
   0.544E-05 -.442E-01 0.208E+04   -.576E-05 0.499E-01 -.207E+04   0.233E-06 -.396E-02 -.715E+01
   -.734E-01 -.309E-03 0.208E+04   0.853E-01 0.166E-03 -.207E+04   -.888E-02 0.107E-03 -.718E+01
   0.366E-04 0.327E-01 0.713E+03   -.399E-04 -.415E-01 -.713E+03   0.233E-05 0.625E-02 0.416E+00
   -.323E+00 -.365E+00 0.713E+03   0.367E+00 0.417E+00 -.713E+03   -.299E-01 -.361E-01 0.558E+00
   -.132E-04 0.275E+01 -.646E+03   0.122E-04 -.267E+01 0.646E+03   0.125E-05 -.838E-01 0.357E-01
   0.270E+01 0.233E+00 -.643E+03   -.237E+01 -.246E+00 0.644E+03   -.335E+00 0.135E-01 -.410E+00
   -.968E-04 0.107E+01 -.200E+04   0.939E-04 -.108E+01 0.199E+04   0.302E-05 0.121E-01 0.603E+01
   0.188E+02 0.193E+02 -.199E+04   -.188E+02 -.194E+02 0.198E+04   0.681E-01 0.867E-01 0.620E+01
   -.582E-05 0.761E-01 0.208E+04   0.612E-05 -.881E-01 -.207E+04   -.215E-06 0.897E-02 -.718E+01
   0.413E-01 -.184E-04 0.208E+04   -.470E-01 -.820E-04 -.207E+04   0.404E-02 0.850E-04 -.714E+01
   -.195E-04 0.742E-02 0.713E+03   0.209E-04 -.220E-01 -.713E+03   -.970E-06 0.105E-01 0.419E+00
   0.356E+00 0.356E+00 0.713E+03   -.422E+00 -.412E+00 -.713E+03   0.461E-01 0.388E-01 0.579E+00
   0.526E-07 -.248E+01 -.644E+03   0.470E-06 0.215E+01 0.645E+03   -.349E-06 0.331E+00 -.256E+00
   -.279E+01 -.236E+00 -.646E+03   0.271E+01 0.251E+00 0.646E+03   0.805E-01 -.150E-01 0.232E-01
   0.797E-05 -.264E+01 -.200E+04   -.806E-05 0.268E+01 0.199E+04   0.534E-06 -.335E-01 0.602E+01
   -.208E+02 -.199E+02 -.198E+04   0.210E+02 0.200E+02 0.198E+04   -.150E+00 -.789E-01 0.620E+01
   -.561E-05 -.765E-01 0.208E+04   0.592E-05 0.883E-01 -.207E+04   -.226E-06 -.878E-02 -.717E+01
   0.734E-01 -.310E-03 0.208E+04   -.853E-01 0.166E-03 -.207E+04   0.888E-02 0.107E-03 -.718E+01
   -.378E-04 -.138E-01 0.711E+03   0.418E-04 0.246E-01 -.711E+03   -.275E-05 -.806E-02 0.653E+00
   0.323E+00 -.365E+00 0.713E+03   -.367E+00 0.417E+00 -.713E+03   0.299E-01 -.361E-01 0.558E+00
   -.835E-05 0.267E+01 -.643E+03   0.892E-05 -.235E+01 0.643E+03   -.171E-06 -.326E+00 -.474E+00
   -.270E+01 0.233E+00 -.643E+03   0.237E+01 -.246E+00 0.644E+03   0.335E+00 0.135E-01 -.410E+00
   0.144E-03 0.593E+01 -.192E+04   -.136E-03 -.624E+01 0.192E+04   -.709E-05 0.305E+00 0.103E+01
   -.188E+02 0.193E+02 -.199E+04   0.188E+02 -.194E+02 0.198E+04   -.681E-01 0.867E-01 0.620E+01
   0.179E-04 -.383E-01 0.535E+03   -.183E-04 0.181E-01 -.534E+03   0.552E-06 0.295E-01 -.200E-01
   0.425E-01 0.543E-02 0.534E+03   -.203E-01 -.149E-02 -.534E+03   -.321E-01 -.573E-02 -.322E-01
   0.347E-05 -.243E-02 0.156E+04   -.374E-05 0.350E-02 -.157E+04   0.367E-06 -.150E-02 0.342E+01
   -.494E-01 0.495E-01 0.156E+04   0.596E-01 -.585E-01 -.157E+04   -.143E-01 0.126E-01 0.341E+01
   -.394E-04 -.750E+01 -.153E+04   0.386E-04 0.736E+01 0.153E+04   0.149E-05 0.148E+00 -.495E+01
   0.757E+01 -.130E+01 -.153E+04   -.742E+01 0.129E+01 0.154E+04   -.160E+00 0.166E-01 -.495E+01
   0.161E-05 -.244E+00 -.481E+03   -.116E-05 0.249E+00 0.481E+03   -.326E-06 -.479E-02 0.320E+00
   0.186E+01 -.186E+01 -.475E+03   -.185E+01 0.184E+01 0.474E+03   -.103E-01 0.235E-01 0.556E+00
   0.136E-04 0.310E-01 0.534E+03   -.140E-04 -.656E-02 -.534E+03   0.490E-06 -.351E-01 -.392E-01
   -.106E+00 -.136E-01 0.533E+03   0.586E-01 0.150E-01 -.533E+03   0.607E-01 -.125E-02 -.186E+00
   0.515E-05 0.256E-02 0.156E+04   -.566E-05 -.352E-02 -.157E+04   0.713E-06 0.133E-02 0.341E+01
   -.448E-01 -.493E-01 0.156E+04   0.529E-01 0.585E-01 -.157E+04   -.112E-01 -.128E-01 0.341E+01
   -.390E-04 0.741E+01 -.153E+04   0.380E-04 -.726E+01 0.154E+04   0.171E-05 -.148E+00 -.494E+01
   0.255E+02 0.180E+01 -.149E+04   -.248E+02 -.179E+01 0.150E+04   -.717E+00 -.109E-01 -.485E+01
   -.541E-05 0.247E+00 -.475E+03   0.521E-05 -.251E+00 0.474E+03   0.356E-06 0.457E-02 0.404E+00
   0.194E+01 0.186E+01 -.476E+03   -.191E+01 -.184E+01 0.475E+03   -.300E-01 -.244E-01 0.495E+00
   -.173E-04 0.113E+00 0.533E+03   0.180E-04 -.639E-01 -.533E+03   -.998E-06 -.632E-01 -.195E+00
   -.425E-01 0.544E-02 0.534E+03   0.203E-01 -.150E-02 -.534E+03   0.321E-01 -.573E-02 -.322E-01
   -.353E-05 0.224E-02 0.156E+04   0.379E-05 -.332E-02 -.157E+04   -.368E-06 0.151E-02 0.341E+01
   0.494E-01 0.495E-01 0.156E+04   -.596E-01 -.585E-01 -.157E+04   0.143E-01 0.126E-01 0.341E+01
   0.269E-04 -.259E+02 -.149E+04   -.254E-04 0.250E+02 0.150E+04   -.121E-05 0.860E+00 -.469E+01
   -.757E+01 -.130E+01 -.153E+04   0.742E+01 0.129E+01 0.154E+04   0.160E+00 0.166E-01 -.495E+01
   -.106E-04 -.103E+00 -.474E+03   0.107E-04 0.109E+00 0.474E+03   -.746E-07 -.610E-02 0.409E+00
   -.186E+01 -.186E+01 -.475E+03   0.185E+01 0.184E+01 0.474E+03   0.103E-01 0.235E-01 0.556E+00
   -.168E-04 -.124E+00 0.533E+03   0.174E-04 0.798E-01 -.533E+03   -.771E-06 0.566E-01 -.171E+00
   0.106E+00 -.137E-01 0.533E+03   -.586E-01 0.150E-01 -.533E+03   -.607E-01 -.125E-02 -.186E+00
   -.525E-05 -.202E-02 0.156E+04   0.574E-05 0.323E-02 -.157E+04   -.668E-06 -.170E-02 0.339E+01
   0.448E-01 -.493E-01 0.156E+04   -.529E-01 0.585E-01 -.157E+04   0.112E-01 -.128E-01 0.341E+01
   0.410E-04 0.249E+02 -.150E+04   -.407E-04 -.243E+02 0.150E+04   -.581E-06 -.608E+00 -.491E+01
   -.255E+02 0.180E+01 -.149E+04   0.248E+02 -.179E+01 0.150E+04   0.717E+00 -.109E-01 -.485E+01
   0.178E-05 -.517E-01 -.489E+03   -.150E-05 0.439E-01 0.490E+03   -.319E-06 0.821E-02 -.114E+01
   -.194E+01 0.186E+01 -.476E+03   0.191E+01 -.184E+01 0.475E+03   0.300E-01 -.244E-01 0.495E+00
   0.894E-04 -.393E+01 0.347E+01   0.206E-12 -.142E-13 0.273E-11   -.899E-04 0.393E+01 -.346E+01

 POSITION                                       TOTAL-FORCE (eV/Angst)
      4.22049      4.35146     16.21984        -0.000059      0.001458     -0.004360
      4.22049      5.36059     16.38069         0.000002      0.004562      0.002103
      3.39386      3.96214     16.67352        -0.004946      0.000030      0.004073
      5.04713      3.96214     16.67352         0.004999      0.000006      0.004099
      0.00000      6.33074      7.50000        -0.000000     -0.001640      0.334984
      2.11025      0.00000      7.50000         0.001637      0.000009      0.335831
      0.00000      0.00000      9.61025        -0.000000      0.001446      0.056872
      2.11025      6.33074      9.61025         0.018939     -0.016668      0.070031
      0.00000      6.32807     11.72963        -0.000000     -0.001264     -0.002057
      2.11247     -0.00009     11.72996         0.001152      0.000311     -0.002303
      0.00000     -0.00039     13.83033         0.000000      0.000106      0.007395
      2.10755      6.33104     13.82325         0.003409     -0.003185      0.000454
      0.00000      2.11025      7.50000        -0.000000      0.001640      0.336505
      2.11025      4.22049      7.50000         0.002885     -0.000016      0.342107
      0.00000      4.22049      9.61025        -0.000001     -0.002495      0.091940
      2.11025      2.11025      9.61025         0.013233      0.015326      0.070053
     -0.00000      2.11218     11.73005         0.000000      0.001018     -0.002732
      2.12092      4.21971     11.74367        -0.001285      0.000031      0.000384
      0.00000      4.21955     13.82633         0.000000      0.000262      0.001078
      2.10919      2.10798     13.82556         0.003613      0.003460      0.000005
      4.22049      6.33074      7.50000         0.000000     -0.002881      0.342645
      6.33074      0.00000      7.50000        -0.001637      0.000009      0.335831
      4.22049      0.00000      9.61025         0.000000     -0.004004      0.091673
      6.33074      6.33074      9.61025        -0.018939     -0.016668      0.070032
      4.22049      6.31967     11.74432         0.000000      0.001350      0.000476
      6.32851     -0.00009     11.72996        -0.001152      0.000311     -0.002303
      4.22049      0.00195     13.82613         0.000000      0.000579      0.001199
      6.33344      6.33104     13.82325        -0.003409     -0.003184      0.000454
      4.22049      2.11025      7.50000         0.000000      0.002892      0.341357
      6.33074      4.22049      7.50000        -0.002885     -0.000016      0.342108
      4.22049      4.22049      9.61025         0.000001      0.002706      0.114383
      6.33074      2.11025      9.61025        -0.013233      0.015326      0.070054
      4.22049      2.12028     11.74270         0.000000     -0.001303      0.000376
      6.32007      4.21971     11.74367         0.001285      0.000030      0.000385
      4.22049      4.20900     13.97009         0.000000      0.000835      0.003948
      6.33179      2.10798     13.82556        -0.003613      0.003459      0.000005
      0.00000      6.33074      9.61025         0.000000      0.009465      0.076672
      2.11025      0.00000      9.61025        -0.010020     -0.001762      0.074490
      0.00000      0.00000      7.50000         0.000000     -0.000408     -0.497305
      2.11025      6.33074      7.50000        -0.004094      0.003624     -0.500761
     -0.00000      6.33485     13.88845         0.000001      0.001043     -0.001532
      2.10521     -0.00079     13.88916        -0.001067      0.000619     -0.001737
     -0.00000     -0.00057     11.72652         0.000000     -0.000139      0.004366
      2.10968      6.33156     11.72946        -0.000327      0.000358     -0.001006
      0.00000      2.11025      9.61025         0.000000     -0.010799      0.072715
      2.11025      4.22049      9.61025         0.013195      0.000036      0.096718
      0.00000      4.22049      7.50000         0.000000      0.000389     -0.501354
      2.11025      2.11025      7.50000        -0.003205     -0.003664     -0.500861
      0.00000      2.10487     13.88974         0.000001     -0.000543     -0.001646
      2.08807      4.21988     13.88908        -0.002955      0.000111     -0.006013
      0.00000      4.22031     11.72488         0.000000      0.000258      0.002643
      2.10871      2.10857     11.72879        -0.000368     -0.000248     -0.000866
      4.22049      6.33074      9.61025        -0.000000     -0.013780      0.096654
      6.33074      0.00000      9.61025         0.010020     -0.001762      0.074491
      4.22049      0.00000      7.50000        -0.000000      0.000459     -0.501300
      6.33074      6.33074      7.50000         0.004094      0.003624     -0.500761
      4.22049      6.35537     13.89666         0.000000      0.002990     -0.006397
      6.33577     -0.00079     13.88916         0.001067      0.000620     -0.001738
      4.22049     -0.00109     11.72498         0.000000      0.000073      0.002496
      6.33130      6.33156     11.72946         0.000328      0.000359     -0.001007
      4.22049      2.11025      9.61025        -0.000000      0.012286      0.096863
      6.33074      4.22049      9.61025        -0.013194      0.000036      0.096719
      4.22049      4.22049      7.50000        -0.000000     -0.000485     -0.507634
      6.33074      2.11025      7.50000         0.003205     -0.003665     -0.500862
      4.22049      2.08771     13.88457        -0.000000     -0.003228     -0.006006
      6.35291      4.21988     13.88908         0.002955      0.000111     -0.006012
      4.22049      4.22084     11.74772        -0.000000      0.000433     -0.008246
      6.33227      2.10857     11.72879         0.000368     -0.000247     -0.000867
    total drift:                               -0.000001     -0.001278      0.013942

  FREE ENERGIE OF THE ION-ELECTRON SYSTEM (eV)
  free  energy   TOTEN  =      -391.42183653 eV

  energy  without entropy=     -391.42183653  energy(sigma->0) =     -391.42183653

 d Force = 0.2908832E-04[ 0.228E-04, 0.354E-04]  d Energy = 0.2934903E-04-0.261E-06
 d Force =-0.2953705E+00[-0.295E+00,-0.296E+00]  d Ewald  =-0.2953699E+00-0.592E-06

 Conjugate gradient step on ions:
 trial-energy change:   -0.000029  1 .order   -0.000029   -0.000035   -0.000023
  (g-gl).g = 0.649E-04      g.g   = 0.641E-04  gl.gl    = 0.426E-03
 g(Force)  = 0.641E-04   g(Stress)= 0.000E+00 ortho     = 0.698E-05
 gamma     =   0.15240
 trial     =   0.54317
 opt step  =   1.52270  (harmonic =   1.52270) maximal distance =0.00382924
 next E    =  -391.421857   (d E  =  -0.00005)

 reached required accuracy - stopping structural energy minimisation