 vasp.6.3.0 20Jan22 (build Apr  1 2022 16:44:48) complex
 executed on        HPECrayEX_GCC date 2023.02.07  23:03:53

 INCAR:
   SYSTEM = MgO-rocksalt
   ISMEAR = 0
   SIGMA = 0.05
   EDIFF = 1E-7
   ALGO = ALL
   ISTART = 0
   IBRION = 5
   POTIM = 0.01
   NFREE = 2
   ISYM = 0
   DIPOL = 0.5 0.5 0.5
   IDIPOL = 3
   LDIPOL = .TRUE.
   GGA = MK
   LUSE_VDW = .TRUE.
   PARAM1 = 0.1234
   PARAM2 = 0.711357
   ZAB_VDW = -1.8867
   AGGAC = 0.0
   ENCUT = 600
   PREC = Accurate
   LASPH = .TRUE.
   LREAL = .FALSE.
   ISPIN = 1
   NELM = 200
   NELMIN = 8
   NCORE = 8
   KPAR = 1
   LWAVE = .FALSE.
   LCHARG = .FALSE.

 POTCAR:    PAW_PBE C 08Apr2002
 POTCAR:    PAW_PBE H 15Jun2001
 POTCAR:    PAW_PBE Mg_pv 13Apr2007
 POTCAR:    PAW_PBE O 08Apr2002
|               ----> ADVICE to this user running VASP <----                  |
|     You have switched on vdW-DFT.                                           |
|     This routine was written and supplied by Jiri Klimes. We recommend      |
|     that you carefully read and cite the following publications:            |
|       J. Klimes, D.R. Bowler, A. Michelides                                 |
|          J. Phys.: Cond Matt. 22 022201 (2010)                              |
|       J. Klimes, D.R. Bowler, A. Michelides                                 |
|          Phys. Rev. B. 83, 195131 (2011)                                    |
|     and references therein.                                                 |

   TITEL  = PAW_PBE C 08Apr2002
   POMASS =   12.011; ZVAL   =    4.000    mass and valenz
   ENMAX  =  400.000; ENMIN  =  300.000 eV

   TITEL  = PAW_PBE H 15Jun2001
   POMASS =    1.000; ZVAL   =    1.000    mass and valenz
   ENMAX  =  250.000; ENMIN  =  200.000 eV

   TITEL  = PAW_PBE Mg_pv 13Apr2007
   POMASS =   24.305; ZVAL   =    8.000    mass and valenz
   ENMAX  =  403.929; ENMIN  =  302.947 eV

   TITEL  = PAW_PBE O 08Apr2002
   POMASS =   16.000; ZVAL   =    6.000    mass and valenz
   ENMAX  =  400.000; ENMIN  =  300.000 eV

  PAW_PBE C 08Apr2002                   :
  PAW_PBE H 15Jun2001                   :
  PAW_PBE Mg_pv 13Apr2007               :
  PAW_PBE O 08Apr2002                   :

 POSCAR:  C  H Mg  O
  positions in direct lattice
 exchange correlation table for  LEXCH =       43
   RHO(1)=    0.500       N(1)  =     2000
   RHO(2)=  100.500       N(2)  =     4000

 ion  position               nearest neighbor table
   1  0.500  0.500  0.797-   5 1.10   6 1.10   8 1.10   7 1.10
   2  0.000  0.500  0.797-   9 1.10  10 1.10  11 1.10  12 1.10
   3  0.500  0.000  0.797-  13 1.10  14 1.10  15 1.10  16 1.10
   4  0.000  0.000  0.797-  17 1.10  18 1.10  19 1.10  20 1.10
   5  0.500  0.607  0.827-   1 1.10
   6  0.500  0.393  0.827-   1 1.10
   7  0.607  0.500  0.768-   1 1.10
   8  0.393  0.500  0.768-   1 1.10
   9  0.893  0.500  0.827-   2 1.10
  10  0.107  0.500  0.827-   2 1.10
  11  0.000  0.607  0.768-   2 1.10
  12  0.000  0.393  0.768-   2 1.10
  13  0.393  0.000  0.827-   3 1.10
  14  0.607  0.000  0.827-   3 1.10
  15  0.500  0.107  0.768-   3 1.10
  16  0.500  0.893  0.768-   3 1.10
  17  0.000  0.107  0.827-   4 1.10
  18  0.000  0.893  0.827-   4 1.10
  19  0.107  0.000  0.768-   4 1.10
  20  0.893  0.000  0.768-   4 1.10
  21  0.250  0.000  0.352-  53 2.11  55 2.11  56 2.11  63 2.11  72 2.11
  22  0.500  0.250  0.352-  54 2.11  55 2.11  56 2.11  64 2.11  71 2.11
  23  0.250  0.250  0.451-  55 2.11  54 2.11  53 2.11  61 2.11  70 2.11  59 2.12
  24  0.500  0.000  0.451-  56 2.11  54 2.11  53 2.11  62 2.11  69 2.11  60 2.12
  25  0.250  1.000  0.550-  76 2.11  60 2.11  67 2.11  59 2.11  53 2.12  57 2.14
  26  0.500  0.250  0.550-  68 2.11  75 2.11  59 2.11  60 2.11  54 2.12  58 2.14
  27  0.250  0.250  0.648-  59 2.10  74 2.11  57 2.11  65 2.11  58 2.11
  28  0.500  0.000  0.649-  60 2.11  57 2.11  73 2.11  58 2.11  66 2.11
  29  0.250  0.500  0.352-  61 2.11  55 2.11  63 2.11  64 2.11  80 2.11
  30  0.500  0.750  0.352-  62 2.11  56 2.11  63 2.11  64 2.11  79 2.11
  31  0.250  0.750  0.451-  63 2.11  61 2.11  62 2.11  53 2.11  78 2.11  67 2.12
  32  0.500  0.500  0.451-  64 2.11  61 2.11  62 2.11  54 2.11  77 2.11  68 2.12
  33  0.250  0.500  0.550-  68 2.11  67 2.11  59 2.11  84 2.11  61 2.12  65 2.14
  34  0.500  0.750  0.550-  68 2.11  67 2.11  83 2.11  60 2.11  62 2.12  66 2.14
  35  0.250  0.750  0.648-  67 2.10  82 2.11  57 2.11  65 2.11  66 2.11
  36  0.500  0.500  0.649-  68 2.11  65 2.11  81 2.11  58 2.11  66 2.11
  37  0.750  0.000  0.352-  69 2.11  56 2.11  71 2.11  72 2.11  79 2.11
  38  0.000  0.250  0.352-  70 2.11  55 2.11  71 2.11  72 2.11  80 2.11
  39  0.750  0.250  0.451-  71 2.11  69 2.11  70 2.11  54 2.11  77 2.11  75 2.12
  40  0.000  0.000  0.451-  72 2.11  69 2.11  70 2.11  53 2.11  78 2.11  76 2.12
  41  0.750  0.000  0.550-  76 2.11  60 2.11  75 2.11  83 2.11  69 2.12  73 2.14
  42  1.000  0.250  0.550-  84 2.11  75 2.11  59 2.11  76 2.11  70 2.12  74 2.14
  43  0.750  0.250  0.648-  75 2.10  74 2.11  73 2.11  81 2.11  58 2.11
  44  1.000  0.000  0.649-  76 2.11  74 2.11  82 2.11  57 2.11  73 2.11
  45  0.750  0.500  0.352-  77 2.11  71 2.11  64 2.11  79 2.11  80 2.11
  46  0.000  0.750  0.352-  78 2.11  72 2.11  63 2.11  79 2.11  80 2.11
  47  0.750  0.750  0.451-  79 2.11  69 2.11  77 2.11  78 2.11  62 2.11  83 2.12
  48  0.000  0.500  0.451-  80 2.11  70 2.11  77 2.11  78 2.11  61 2.11  84 2.12
  49  0.750  0.500  0.550-  68 2.11  75 2.11  83 2.11  84 2.11  77 2.12  81 2.14
  50  1.000  0.750  0.550-  84 2.11  83 2.11  67 2.11  76 2.11  78 2.12  82 2.14
  51  0.750  0.750  0.648-  83 2.10  82 2.11  73 2.11  81 2.11  66 2.11
  52  1.000  0.500  0.649-  84 2.11  74 2.11  82 2.11  81 2.11  65 2.11
  53  0.250  0.000  0.451-  21 2.11  23 2.11  24 2.11  31 2.11  40 2.11  25 2.12
  54  0.500  0.250  0.451-  22 2.11  23 2.11  24 2.11  32 2.11  39 2.11  26 2.12
  55  0.250  0.250  0.352-  23 2.11  22 2.11  21 2.11  29 2.11  38 2.11
  56  0.500  0.000  0.352-  24 2.11  22 2.11  21 2.11  30 2.11  37 2.11
  57  0.250  1.000  0.650-  44 2.11  28 2.11  35 2.11  27 2.11  25 2.14
  58  0.500  0.250  0.650-  36 2.11  28 2.11  43 2.11  27 2.11  26 2.14
  59  0.250  0.250  0.550-  27 2.10  33 2.11  42 2.11  26 2.11  25 2.11  23 2.12
  60  0.500  0.000  0.550-  28 2.11  41 2.11  25 2.11  26 2.11  34 2.11  24 2.12
[...]
  70  0.000  0.250  0.451-  38 2.11  23 2.11  39 2.11  40 2.11  48 2.11  42 2.12
  71  0.750  0.250  0.352-  39 2.11  37 2.11  38 2.11  22 2.11  45 2.11
  72  0.000  0.000  0.352-  40 2.11  37 2.11  38 2.11  21 2.11  46 2.11
  73  0.750  0.000  0.650-  44 2.11  28 2.11  51 2.11  43 2.11  41 2.14
  74  1.000  0.250  0.650-  44 2.11  27 2.11  43 2.11  52 2.11  42 2.14
  75  0.750  0.250  0.550-  43 2.10  49 2.11  42 2.11  26 2.11  41 2.11  39 2.12
  76  1.000  0.000  0.550-  44 2.11  41 2.11  25 2.11  50 2.11  42 2.11  40 2.12
  77  0.750  0.500  0.451-  45 2.11  39 2.11  32 2.11  47 2.11  48 2.11  49 2.12
  78  0.000  0.750  0.451-  46 2.11  40 2.11  31 2.11  47 2.11  48 2.11  50 2.12
  79  0.750  0.750  0.352-  47 2.11  37 2.11  45 2.11  46 2.11  30 2.11
  80  0.000  0.500  0.352-  48 2.11  38 2.11  45 2.11  46 2.11  29 2.11
  81  0.750  0.500  0.650-  36 2.11  52 2.11  43 2.11  51 2.11  49 2.14
  82  1.000  0.750  0.650-  44 2.11  51 2.11  35 2.11  52 2.11  50 2.14
  83  0.750  0.750  0.550-  51 2.10  49 2.11  50 2.11  34 2.11  41 2.11  47 2.12
  84  1.000  0.500  0.550-  52 2.11  42 2.11  50 2.11  49 2.11  33 2.11  48 2.12

IMPORTANT INFORMATION: All symmetrisations will be switched off!
NOSYMM: (Re-)initialisation of all symmetry stuff for point group C_1.

                                     Primitive cell

  volume of cell :    1519.6535

  direct lattice vectors                    reciprocal lattice vectors
     8.440582262  0.000000000  0.000000000     0.118475239  0.000000000  0.000000000
     0.000000000  8.440582262  0.000000000     0.000000000  0.118475239  0.000000000
     0.000000000  0.000000000 21.330436697     0.000000000  0.000000000  0.046881366

  length of vectors
     8.440582262  8.440582262 21.330436697     0.118475239  0.118475239  0.046881366

  position of ions in fractional coordinates (direct lattice)
     0.500000041  0.500000012  0.797463966
     0.000000064  0.500000032  0.797469534
     0.500000061  0.000000028  0.797469977
     0.000000043  0.000000009  0.797468452
     0.500000076  0.606527698  0.827014036
     0.500000030  0.393472277  0.827014013
     0.607160848  0.500000008  0.768063393
     0.392839224  0.500000054  0.768063405
     0.893474994  0.500000065  0.827023092
     0.106525184  0.500000018  0.827023070
     0.000000069  0.607136159  0.768056454
     0.000000025  0.392863885  0.768056466
     0.393472316  0.000000062  0.827022297
     0.606527859  0.000000015  0.827022273
     0.500000066  0.107134068  0.768055281
     0.500000019  0.892865967  0.768055292
     0.000000077  0.106527370  0.827020479
     0.000000030  0.893472597  0.827020454
     0.107142160  0.000000008  0.768058096
     0.892857903  0.000000052  0.768058108
     0.250000000  0.000000000  0.351610242
     0.500000000  0.250000000  0.351610242
     0.250000000  0.250000000  0.450536747
     0.500000000  0.000000000  0.450536747
     0.249998874  0.999999996  0.549984610
     0.500000002  0.250034006  0.550000018
     0.249975469  0.249984441  0.648007833
     0.499999989  0.000000012  0.648561969
     0.250000000  0.500000000  0.351610242
     0.500000000  0.750000000  0.351610242
     0.250000000  0.750000000  0.450536747
     0.500000000  0.500000000  0.450536747
     0.250036621  0.500000001  0.550021839
     0.499999998  0.749965991  0.550000023
     0.249975484  0.750015560  0.648007846
     0.499999988  0.499999999  0.648632446
     0.750000000  0.000000000  0.351610242
     0.000000000  0.250000000  0.351610242
     0.750000000  0.250000000  0.450536747
     0.000000000  0.000000000  0.450536747
     0.750001109  0.000000006  0.549984610
     0.999999991  0.250007392  0.549987069
     0.750024506  0.249984464  0.648007854
     0.999999994  0.000000010  0.648589343
     0.750000000  0.500000000  0.351610242
     0.000000000  0.750000000  0.351610242
     0.750000000  0.750000000  0.450536747
     0.000000000  0.500000000  0.450536747
     0.749963380  0.499999995  0.550021839
     0.999999993  0.749992618  0.549987075
     0.750024508  0.750015549  0.648007843
     0.999999991  0.499999993  0.648616023
     0.250000000  0.000000000  0.450536747
     0.500000000  0.250000000  0.450536747
     0.250000000  0.250000000  0.351610242
     0.500000000  0.000000000  0.351610242
     0.249998653  0.999999998  0.650198881
     0.499999990  0.250012714  0.650224644
     0.249999823  0.250012693  0.549692047
     0.500000000  0.000000009  0.549706576
[...]
     0.000000000  0.250000000  0.450536747
     0.750000000  0.250000000  0.351610242
     0.000000000  0.000000000  0.351610242
     0.750001332  0.000000005  0.650198888
     0.999999989  0.249973249  0.650194937
     0.750000173  0.250012701  0.549692048
     0.999999990  0.000000005  0.549711691
     0.750000000  0.500000000  0.450536747
     0.000000000  0.750000000  0.450536747
     0.750000000  0.750000000  0.351610242
[...]
 18Z    -0.000009   -0.002340   -0.008471    0.000012    0.002043   -0.074642   -0.000010    0.005508   -0.002593    0.000019  -11.704036   12.220167   -0.000002   -0.001304   -0.003745   -0.000002   -0.000320   -0.001244    0.005618    0.001385    0.005388   -0.005623    0.001386    0.005385   -0.002308    0.001304   -0.004709    0.002310    0.001304   -0.004712    0.000004    0.027898    0.049276    0.000005   -0.023598    0.031341   -0.001745   -0.003371   -0.004779    0.001742   -0.003370   -0.004778   -0.000003    0.006175    0.001096   -0.000005   -0.003849    0.005696    0.000007    1.453992   -1.135150    0.000001   12.877048  -13.023232    0.167858   -1.294426    0.981841   -0.167852   -1.294417    0.981839
 19X    -0.000739   -0.000188   -0.005272   -0.003005   -0.000704    0.002584    0.009961    0.000134   -0.017691   20.576081    0.005068  -11.372156   -0.001036   -0.000430    0.005190   -0.001035    0.000208    0.005219   -0.000249   -0.000108   -0.002316   -0.000792   -0.000108   -0.001703   -0.001670   -0.000198    0.005512    0.001515   -0.000198    0.002921    0.003825    0.006048   -0.006037    0.003825   -0.006180   -0.005963    0.040260    0.000007    0.025734    0.004823    0.000004    0.024177   -0.000045    0.005311   -0.005081   -0.000043   -0.005333   -0.005050   -0.093424   -0.015731    0.163232   -0.093410    0.015433    0.164186  -22.262468    0.000183   12.304802    1.700473    0.000208   -1.475894
 19Y    -0.000238   -0.003678   -0.000232    0.000196    0.012593   -0.000014   -0.000446   -0.004384   -0.000401    0.001009    3.912760    0.001451   -0.006330   -0.000950   -0.001705    0.006255   -0.000711    0.001634   -0.000007   -0.004492   -0.000020   -0.000017    0.008389    0.000014    0.000227   -0.019217   -0.000044   -0.000239    0.005899   -0.000134    0.018319    0.001153   -0.003404   -0.018271    0.001012    0.003436    0.000500   -0.023628   -0.000180    0.000425    0.020957    0.000246    0.018198    0.003680   -0.002082   -0.018418    0.003838    0.002040   -2.085961   -0.052094    1.292257    2.085438   -0.047109   -1.296517   -0.002903   -4.035917    0.002052    0.001892    0.214969    0.001730
 19Z    -0.003313   -0.000278   -0.004178   -0.000876   -0.000349    0.001175    0.017565    0.000245   -0.059843  -11.223153    0.001671   11.922565    0.002601   -0.003638    0.005398    0.002601    0.003625    0.005281   -0.002201   -0.000087   -0.000483    0.001839   -0.000072   -0.003617    0.006409   -0.000091    0.001116   -0.001670   -0.000089    0.005824   -0.002119   -0.004697   -0.004168   -0.002144    0.005482   -0.003677    0.020120    0.000002    0.049197   -0.021819    0.000016    0.031053   -0.002750   -0.005436   -0.003863   -0.002788    0.005309   -0.003989   -1.328339   -0.150671    0.982562   -1.328932    0.149465    0.983203   12.299729    0.001408  -12.839225    1.475627   -0.000074   -1.197626
 20X    -0.001274   -0.000001    0.005611   -0.002556   -0.000010   -0.002987    0.010041   -0.000001    0.018053   20.577263   -0.000003   11.375446   -0.001163   -0.000012   -0.005561   -0.001164    0.000010   -0.005560   -0.000746    0.000001    0.001455   -0.000451   -0.000000    0.002147    0.001793   -0.000001   -0.003255   -0.002024   -0.000000   -0.006054    0.003927   -0.006144    0.005614    0.003927    0.006145    0.005615    0.006098   -0.000002   -0.025316    0.039317    0.000000   -0.026435   -0.000102   -0.005097    0.004722   -0.000101    0.005099    0.004724   -0.093211    0.015002   -0.165827   -0.093210   -0.015027   -0.165803    1.697151   -0.000014    1.480406  -22.260865    0.000011  -12.305813
 20Y    -0.000192   -0.003701    0.000200    0.000020    0.013164   -0.000033    0.000358   -0.004467    0.000180    0.000132    3.910710   -0.000842    0.006227   -0.000661   -0.001651   -0.006368   -0.000946    0.001645   -0.000049    0.008396   -0.000077    0.000009   -0.004507    0.000016   -0.000409    0.005999    0.000161    0.000173   -0.019132    0.000058   -0.018396    0.001080   -0.003400    0.018241    0.001634    0.003517    0.000376    0.020939   -0.000314    0.000328   -0.023675    0.000013   -0.018286    0.003700   -0.002071    0.018373    0.003676    0.001991    2.085325   -0.047383    1.295883   -2.085698   -0.051563   -1.292707    0.001677    0.215109   -0.001752    0.002171   -4.034460    0.000461
 20Z     0.003298   -0.000187   -0.004151    0.000888   -0.000231    0.001211   -0.017570    0.000150   -0.059836   11.223107    0.001655   11.922480   -0.002603   -0.003618    0.005411   -0.002603    0.003624    0.005313   -0.001837   -0.000047   -0.003604    0.002196   -0.000063   -0.000469    0.001663   -0.000065    0.005848   -0.006400   -0.000066    0.001136    0.002123   -0.004685   -0.004144    0.002150    0.005470   -0.003674    0.021796   -0.000009    0.031079   -0.020071   -0.000020    0.049236    0.002746   -0.005448   -0.003852    0.002785    0.005301   -0.003970    1.328349   -0.150768    0.982551    1.328909    0.149550    0.983168   -1.475768   -0.000078   -1.197559  -12.299736    0.001314  -12.839348

 Eigenvectors and eigenvalues of the dynamical matrix

   1 f  =   91.611736 THz   575.613514 2PiTHz 3055.838583 cm-1   378.875526 meV
             X         Y         Z           dx          dy          dz
      4.220291  4.220291 17.010255    -0.002639   -0.255564    0.000456
      0.000001  4.220291 17.010373     0.049351   -0.007658    0.000040
      4.220292  0.000000 17.010383    -0.037942    0.011793    0.000054
      0.000000  0.000000 17.010350     0.002053    0.147832   -0.000242
      4.220292  5.119447 17.640571    -0.000275    0.460478    0.334519
      4.220291  3.321135 17.640570    -0.000327    0.461774   -0.335346
      5.124791  4.220291 16.383128     0.005606   -0.017509   -0.003921
      3.315792  4.220292 16.383128     0.004371   -0.017520    0.003166
      7.541449  4.220292 17.640764    -0.088994   -0.000934    0.064652
      0.899135  4.220291 17.640763    -0.089104   -0.000938   -0.064694
      0.000001  5.124583 16.382980     0.003401    0.014672   -0.010504
      0.000000  3.316000 16.382980     0.003391    0.014565    0.010441
      3.321135  0.000001 17.640747     0.068566    0.001178   -0.049817
      5.119448  0.000000 17.640746     0.068356    0.001183    0.049634
      4.220292  0.904274 16.382955    -0.002622   -0.022335    0.015859
      4.220291  7.536309 16.382955    -0.002617   -0.022427   -0.015922
      0.000001  0.899153 17.640708     0.000248   -0.266423   -0.193573
      0.000000  7.541429 17.640707     0.000265   -0.267103    0.193999
      0.904342  0.000000 16.383015    -0.004229    0.010170    0.002985
      7.536241  0.000000 16.383015    -0.003557    0.010173   -0.002573
      2.110146  0.000000  7.500000            0           0           0
      4.220291  2.110146  7.500000            0           0           0
      2.110146  2.110146  9.610146            0           0           0
      4.220291  0.000000  9.610146            0           0           0
      2.110136  8.440582 11.731412            0           0           0
      4.220291  2.110433 11.731741            0           0           0
      2.109939  2.110014 13.822290            0           0           0
      4.220291  0.000000 13.834110            0           0           0
      2.110146  4.220291  7.500000            0           0           0
      4.220291  6.330437  7.500000            0           0           0
      2.110146  6.330437  9.610146            0           0           0
      4.220291  4.220291  9.610146            0           0           0
      2.110455  4.220291 11.732206            0           0           0
      4.220291  6.330150 11.731741            0           0           0
      2.109939  6.330568 13.822290            0           0           0
      4.220291  4.220291 13.835613            0           0           0
      6.330437  0.000000  7.500000            0           0           0
      0.000000  2.110146  7.500000            0           0           0
      6.330437  2.110146  9.610146            0           0           0
      0.000000  0.000000  9.610146            0           0           0
      6.330446  0.000000 11.731412            0           0           0
      8.440582  2.110208 11.731464            0           0           0
      6.330644  2.110014 13.822291            0           0           0
      8.440582  0.000000 13.834694            0           0           0
      6.330437  4.220291  7.500000            0           0           0
      0.000000  6.330437  7.500000            0           0           0
      6.330437  6.330437  9.610146            0           0           0
      0.000000  4.220291  9.610146            0           0           0
      6.330128  4.220291 11.732206            0           0           0
      8.440582  6.330374 11.731464            0           0           0
      6.330644  6.330568 13.822290            0           0           0
      8.440582  4.220291 13.835263            0           0           0
      2.110146  0.000000  9.610146            0           0           0
      4.220291  2.110146  9.610146            0           0           0
      2.110146  2.110146  7.500000            0           0           0
      4.220291  0.000000  7.500000            0           0           0
      2.110134  8.440582 13.869026            0           0           0
      4.220291  2.110253 13.869576            0           0           0
      2.110144  2.110253 11.725171            0           0           0
      4.220291  0.000000 11.725481            0           0           0
[...]
      0.000000  2.110146  9.610146            0           0           0
      6.330437  2.110146  7.500000            0           0           0
      0.000000  0.000000  7.500000            0           0           0
      6.330448  0.000000 13.869026            0           0           0
      8.440582  2.109920 13.868942            0           0           0
      6.330438  2.110253 11.725171            0           0           0
      8.440582  0.000000 11.725590            0           0           0
      6.330437  4.220291  9.610146            0           0           0
      0.000000  6.330437  9.610146            0           0           0
      6.330437  6.330437  7.500000            0           0           0
      0.000000  4.220291  7.500000            0           0           0
      6.330162  4.220291 13.870264            0           0           0
      8.440582  6.330663 13.868942            0           0           0
      6.330438  6.330330 11.725171            0           0           0
      8.440582  4.220291 11.726145            0           0           0

[...]

  60 f  =    0.382485 THz     2.403227 2PiTHz   12.758342 cm-1     1.581832 meV
             X         Y         Z           dx          dy          dz
      4.220291  4.220291 17.010255    -0.110046    0.285853    0.007142
      0.000001  4.220291 17.010373    -0.086268   -0.468899   -0.006380
      4.220292  0.000000 17.010383     0.099737    0.547755    0.006633
      0.000000  0.000000 17.010350     0.143883   -0.241949   -0.006605
      4.220292  5.119447 17.640571    -0.037728    0.133132   -0.070213
      4.220291  3.321135 17.640570    -0.036698    0.133164    0.074386
      5.124791  4.220291 16.383128    -0.025885    0.032631    0.010505
      3.315792  4.220292 16.383128    -0.025807    0.031594   -0.006491
      7.541449  4.220292 17.640764    -0.035605   -0.166699   -0.017145
      0.899135  4.220291 17.640763    -0.035570   -0.161559    0.013408
      0.000001  5.124583 16.382980    -0.016808   -0.105161    0.041473
      0.000000  3.316000 16.382980    -0.011783   -0.105206   -0.045102
      3.321135  0.000001 17.640747     0.042477    0.194147    0.021472
      5.119448  0.000000 17.640746     0.042445    0.188837   -0.017592
      4.220292  0.904274 16.382955     0.017801    0.123101   -0.048317
      4.220291  7.536309 16.382955     0.012621    0.123128    0.052114
      0.000001  0.899153 17.640708     0.052495   -0.110693    0.056423
      0.000000  7.541429 17.640707     0.046446   -0.110721   -0.060285
      0.904342  0.000000 16.383015     0.033131   -0.032162   -0.013971
      7.536241  0.000000 16.383015     0.033071   -0.026202    0.010243
      2.110146  0.000000  7.500000            0           0           0
      4.220291  2.110146  7.500000            0           0           0
      2.110146  2.110146  9.610146            0           0           0
      4.220291  0.000000  9.610146            0           0           0
      2.110136  8.440582 11.731412            0           0           0
      4.220291  2.110433 11.731741            0           0           0
      2.109939  2.110014 13.822290            0           0           0
      4.220291  0.000000 13.834110            0           0           0
      2.110146  4.220291  7.500000            0           0           0
      4.220291  6.330437  7.500000            0           0           0
      2.110146  6.330437  9.610146            0           0           0
      4.220291  4.220291  9.610146            0           0           0
      2.110455  4.220291 11.732206            0           0           0
      4.220291  6.330150 11.731741            0           0           0
      2.109939  6.330568 13.822290            0           0           0
      4.220291  4.220291 13.835613            0           0           0
      6.330437  0.000000  7.500000            0           0           0
      0.000000  2.110146  7.500000            0           0           0
      6.330437  2.110146  9.610146            0           0           0
      0.000000  0.000000  9.610146            0           0           0
      6.330446  0.000000 11.731412            0           0           0
      8.440582  2.110208 11.731464            0           0           0
      6.330644  2.110014 13.822291            0           0           0
      8.440582  0.000000 13.834694            0           0           0
      6.330437  4.220291  7.500000            0           0           0
      0.000000  6.330437  7.500000            0           0           0
      6.330437  6.330437  9.610146            0           0           0
      0.000000  4.220291  9.610146            0           0           0
      6.330128  4.220291 11.732206            0           0           0
      8.440582  6.330374 11.731464            0           0           0
      6.330644  6.330568 13.822290            0           0           0
      8.440582  4.220291 13.835263            0           0           0
      2.110146  0.000000  9.610146            0           0           0
      4.220291  2.110146  9.610146            0           0           0
      2.110146  2.110146  7.500000            0           0           0
      4.220291  0.000000  7.500000            0           0           0
      2.110134  8.440582 13.869026            0           0           0
      4.220291  2.110253 13.869576            0           0           0
      2.110144  2.110253 11.725171            0           0           0
      4.220291  0.000000 11.725481            0           0           0
[...]
      0.000000  2.110146  9.610146            0           0           0
      6.330437  2.110146  7.500000            0           0           0
      0.000000  0.000000  7.500000            0           0           0
      6.330448  0.000000 13.869026            0           0           0
      8.440582  2.109920 13.868942            0           0           0
      6.330438  2.110253 11.725171            0           0           0
      8.440582  0.000000 11.725590            0           0           0
      6.330437  4.220291  9.610146            0           0           0
      0.000000  6.330437  9.610146            0           0           0
      6.330437  6.330437  7.500000            0           0           0
      0.000000  4.220291  7.500000            0           0           0
      6.330162  4.220291 13.870264            0           0           0
      8.440582  6.330663 13.868942            0           0           0
      6.330438  6.330330 11.725171            0           0           0
      8.440582  4.220291 11.726145            0           0           0

 Finite differences POTIM=   1.0000000000000000E-002