 vasp.6.3.0 20Jan22 (build Dec 25 2023 18:06:01) complex
 executed on        HPECrayEX_GCC date 2024.02.07  21:58:37

 INCAR:
   SYSTEM = TiO2
   ISMEAR = 0
   SIGMA = 0.05
   EDIFF = 1E-4
   ALGO = ALL
   ICHARG = 1
   IBRION = -1
   NSW = 0
   ISYM = 0
   ISIF = 2
   EDIFFG = -0.01
   DIPOL = 0.5 0.5 0.5
   IDIPOL = 3
   LDIPOL = .TRUE.
   LHFCALC = .TRUE.
   HFSCREEN = 0.2
   GGA = PE
   IVDW = 13
   VDW_S8 = 1.19528249
   VDW_A1 = 0.38663183
   VDW_A2 = 5.19133469
   ENCUT = 520
   PREC = Normal
   PRECFOCK = Fast
   LASPH = .TRUE.
   LREAL = .FALSE.
   ISPIN = 1
   NELM = 200
   NELMIN = 8
   NCORE = 4
   KPAR = 1
   NKREDX = 2
   NKREDY = 2
   LWAVE = .FALSE.
   LCHARG = .FALSE.

 POTCAR:    PAW_PBE H 15Jun2001
 POTCAR:    PAW_PBE O 08Apr2002
 POTCAR:    PAW_PBE Ti 08Apr2002
 POTCAR:    PAW_PBE O 08Apr2002
 POTCAR:    PAW_PBE H 15Jun2001
   VRHFIN =H: ultrasoft test

   TITEL  = PAW_PBE H 15Jun2001
   POMASS =    1.000; ZVAL   =    1.000    mass and valenz
   ENMAX  =  250.000; ENMIN  =  200.000 eV

   TITEL  = PAW_PBE O 08Apr2002
   POMASS =   16.000; ZVAL   =    6.000    mass and valenz
   ENMAX  =  400.000; ENMIN  =  300.000 eV

[...]

   TITEL  = PAW_PBE O 08Apr2002
   POMASS =   16.000; ZVAL   =    6.000    mass and valenz
   ENMAX  =  400.000; ENMIN  =  300.000 eV

  PAW_PBE H 15Jun2001                   :
  PAW_PBE O 08Apr2002                   :
  PAW_PBE Ti 08Apr2002                  :
  PAW_PBE O 08Apr2002                   :

 POSCAR:  H  O Ti  O
  positions in direct lattice
|           W    W    AA    RRRRR   N    N  II  N    N   GGGG   !!!           |
|           W    W   A  A   R    R  NN   N  II  NN   N  G    G  !!!           |
|           W    W  A    A  R    R  N N  N  II  N N  N  G       !!!           |
|           W WW W  AAAAAA  RRRRR   N  N N  II  N  N N  G  GGG   !            |
|           WW  WW  A    A  R   R   N   NN  II  N   NN  G    G                |
|           W    W  A    A  R    R  N    N  II  N    N   GGGG   !!!           |
|     Specifying the vdW parameters                                           |
|     VDW_S8 = 1.195                                                          |
|     VDW_A1 = 0.387                                                          |
|     VDW_A2 = 5.191                                                          |
|     in the INCAR file will overwrite the defaults for hse06. Please         |
|     make sure that is what you intended.                                    |

 ion  position               nearest neighbor table
   1  0.514  0.549  0.801-   3 0.97
   2  0.617  0.497  0.781-   3 0.99
   3  0.540  0.492  0.781-   1 0.97   2 0.99  83 2.17
   4  0.750  0.625  0.287-  85 1.95 145 1.95 144 1.95  84 1.95  87 1.97 166 1.97  14 2.96  34 2.96

   5  0.000  0.750  0.287-  86 1.95  87 1.95 106 1.95 107 1.95  88 1.97  35 2.96  15 2.96
   6  0.000  0.625  0.394-  88 1.95  89 1.95 148 1.95 149 1.95  90 1.97  91 1.97  16 2.96  36 2.96

[...]

  84  0.750  0.750  0.246-   4 1.95  14 1.95
  85  0.750  0.750  0.329-   4 1.95  14 1.95   7 1.97
  86  0.098  0.625  0.287-   5 1.95  35 1.95  44 1.97
  87  0.902  0.625  0.287-   5 1.95  35 1.95   4 1.97
  88  0.000  0.750  0.352-   6 1.95  16 1.95   5 1.97
  89  0.000  0.750  0.435-   6 1.95  16 1.95   9 1.97
  90  0.848  0.625  0.394-   7 1.95  37 1.95   6 1.97
  91  0.152  0.625  0.394-  47 1.95  77 1.95   6 1.97
  92  0.750  0.750  0.458-   8 1.95  18 1.95   7 1.97
  93  0.750  0.750  0.542-   8 1.95  18 1.95  11 2.08
  94  0.098  0.625  0.500-   9 1.95  39 1.95  48 1.97
  95  0.902  0.625  0.500-   9 1.95  39 1.95   8 1.97
  96  0.000  0.750  0.565-  20 1.90  10 1.90   9 1.99
  97  0.999  0.750  0.649-  13 1.81  10 2.01  20 2.01
  98  0.850  0.625  0.606-  10 1.94  41 1.97  11 1.97
  99  0.150  0.625  0.607-  10 1.95  51 1.97  81 1.97
 100  0.754  0.751  0.671-  11 1.88  12 2.06  22 2.09
 101  0.749  0.749  0.755-  12 1.83  22 1.84
 102  0.095  0.625  0.718-  43 1.94  13 1.94  52 2.03
 103  0.907  0.624  0.719-  43 1.95  13 1.95  12 2.02
 104  0.750  0.000  0.246-  14 1.95  24 1.95
 105  0.750  0.000  0.329-  14 1.95  24 1.95  17 1.97
 106  0.098  0.875  0.287-   5 1.95  15 1.95  54 1.97
 107  0.902  0.875  0.287-   5 1.95  15 1.95  14 1.97
 108  0.000  0.000  0.352-  16 1.95  26 1.95  15 1.97
 109  0.000  0.000  0.435-  16 1.95  26 1.95  19 1.97
 110  0.848  0.875  0.394-   7 1.95  17 1.95  16 1.97
 111  0.152  0.875  0.394-  47 1.95  57 1.95  16 1.97
 112  0.750  0.000  0.458-  18 1.95  28 1.95  17 1.97
 113  0.750  0.000  0.542-  18 1.95  28 1.95  21 2.09
 114  0.098  0.875  0.500-   9 1.95  19 1.95  58 1.97
 115  0.902  0.875  0.500-   9 1.95  19 1.95  18 1.97
 116  0.000  1.000  0.565-  30 1.90  20 1.90  19 1.99
 117  1.000  0.000  0.649-  23 1.81  20 2.01  30 2.01
 118  0.850  0.875  0.607-  20 1.95  21 1.97  11 1.97
 119  0.150  0.875  0.607-  20 1.95  61 1.97  51 1.97
 120  0.751  1.000  0.671-  21 1.88  32 2.08  22 2.08
 121  0.751  1.000  0.755-  32 1.83  22 1.83
 122  0.095  0.875  0.718-  13 1.94  23 1.94  62 2.04
 123  0.907  0.875  0.719-  13 1.94  23 1.94  22 2.03
 124  0.750  0.250  0.246-  24 1.95  34 1.95
 125  0.750  0.250  0.329-  24 1.95  34 1.95  27 1.97
 126  0.098  0.125  0.287-  15 1.95  25 1.95  64 1.97
 127  0.902  0.125  0.287-  15 1.95  25 1.95  24 1.97
 128  0.000  0.250  0.352-  26 1.95  36 1.95  25 1.97
 129  0.000  0.250  0.435-  26 1.95  36 1.95  29 1.97
 130  0.848  0.125  0.394-  17 1.95  27 1.95  26 1.97
 131  0.152  0.125  0.394-  57 1.95  67 1.95  26 1.97
 132  0.750  0.250  0.458-  28 1.95  38 1.95  27 1.97
 133  0.750  0.250  0.542-  28 1.95  38 1.95  31 2.08
 134  0.098  0.125  0.500-  19 1.95  29 1.95  68 1.97
 135  0.902  0.125  0.500-  19 1.95  29 1.95  28 1.97
 136  0.000  0.250  0.565-  30 1.90  40 1.90  29 1.99
 137  1.000  0.250  0.649-  33 1.81  40 2.01  30 2.01
 138  0.850  0.125  0.607-  30 1.95  21 1.97  31 1.97
 139  0.150  0.125  0.607-  30 1.95  61 1.97  71 1.97
 140  0.753  0.250  0.671-  31 1.88  42 2.06  32 2.09
 141  0.750  0.251  0.755-  42 1.82  32 1.84
 142  0.094  0.125  0.718-  33 1.94  23 1.94  72 2.04
 143  0.907  0.125  0.719-  33 1.94  23 1.94  32 2.03
[...]
 229  0.500  0.500  0.435-  46 1.95  76 1.95  79 1.97
 230  0.348  0.375  0.394-  67 1.95  77 1.95  76 1.97
 231  0.652  0.375  0.394-  27 1.95  37 1.95  76 1.97
 232  0.250  0.500  0.458-  48 1.95  78 1.95  77 1.97
 233  0.250  0.500  0.542-  48 1.95  78 1.95  81 2.09
 234  0.598  0.375  0.500-  69 1.95  79 1.95  38 1.97
 235  0.402  0.375  0.500-  69 1.95  79 1.95  78 1.97
 236  0.501  0.500  0.565-  50 1.90  80 1.90  79 2.00
 237  0.499  0.500  0.649-  83 1.91  50 1.98  80 1.98
 238  0.350  0.375  0.607-  80 1.95  71 1.97  81 1.97
 239  0.651  0.375  0.608-  80 1.96  31 1.97  41 1.97
 240  0.251  0.500  0.671-  81 1.87  52 2.09  82 2.09
 241  0.252  0.500  0.755-  82 1.83  52 1.83
 242  0.597  0.371  0.714-  73 1.92  83 1.96  42 2.02
 243  0.407  0.374  0.718-  73 1.93  83 1.94  82 2.03

IMPORTANT INFORMATION: All symmetrisations will be switched off!
NOSYMM: (Re-)initialisation of all symmetry stuff for point group C_1.

                                     Primitive cell

  volume of cell :    4687.8040

  direct lattice vectors                    reciprocal lattice vectors
    12.981773603  0.000000000  0.000000000     0.077031077  0.000000000  0.000000000
     0.000000000 11.829932295  0.000000000     0.000000000  0.084531338  0.000000000
     0.000000000  0.000000000 30.524823105     0.000000000  0.000000000  0.032760223

  length of vectors
    12.981773603 11.829932295 30.524823105     0.077031077  0.084531338  0.032760223

  position of ions in fractional coordinates (direct lattice)
     0.513595840  0.548629554  0.800827429
     0.616511101  0.496671650  0.780657142
     0.540023538  0.492134456  0.780937476
     0.750000000  0.625000000  0.287357103
     0.000000000  0.750000000  0.287357103
     0.000000000  0.625000000  0.393678552
     0.750000000  0.750000000  0.393678552
     0.750000000  0.625000000  0.500000000
     0.000000000  0.750000000  0.500000000
     0.000211700  0.625057327  0.604115026
     0.750279003  0.750110161  0.609702264
     0.751615237  0.626170440  0.718437362
     0.000654728  0.750203895  0.708173326
     0.750000000  0.875000000  0.287357103
     0.000000000  0.000000000  0.287357103
     0.000000000  0.875000000  0.393678552
     0.750000000  0.000000000  0.393678552
     0.750000000  0.875000000  0.500000000
     0.000000000  0.000000000  0.500000000
     0.000011051  0.875026199  0.604229157
     0.749789769  0.000019713  0.609994467
     0.750502303  0.875268176  0.719525304
     0.000710856  0.999975342  0.708143533
     0.750000000  0.125000000  0.287357103
     0.000000000  0.250000000  0.287357103
     0.000000000  0.125000000  0.393678552
     0.750000000  0.250000000  0.393678552
     0.750000000  0.125000000  0.500000000
     0.000000000  0.250000000  0.500000000
     0.999967139  0.124948831  0.604201001
     0.750080171  0.249882947  0.609696278
     0.750345617  0.124543583  0.719521991
     0.000598786  0.249766106  0.708164569
     0.750000000  0.375000000  0.287357103
     0.000000000  0.500000000  0.287357103
     0.000000000  0.375000000  0.393678552
     0.750000000  0.500000000  0.393678552
     0.750000000  0.375000000  0.500000000
     0.000000000  0.500000000  0.500000000
     0.000117269  0.374964558  0.604123314
     0.750836674  0.500002331  0.609889288
     0.751912218  0.373617296  0.718509257
     0.001555925  0.500065338  0.708084294
     0.250000000  0.625000000  0.287357103
     0.500000000  0.750000000  0.287357103
     0.500000000  0.625000000  0.393678552
     0.250000000  0.750000000  0.393678552
     0.250000000  0.625000000  0.500000000
     0.500000000  0.750000000  0.500000000
     0.500159670  0.622876273  0.605277785
     0.250378258  0.749910103  0.610014681
     0.251362989  0.625174817  0.719603145
     0.501116565  0.750385290  0.706989256
     0.250000000  0.875000000  0.287357103
     0.500000000  0.000000000  0.287357103
     0.500000000  0.875000000  0.393678552
     0.250000000  0.000000000  0.393678552
     0.250000000  0.875000000  0.500000000
     0.500000000  0.000000000  0.500000000
     0.499659620  0.874183586  0.603248878
[...]
     0.500000000  0.500000000  0.435333986
     0.347946921  0.375000000  0.393678552
     0.652053079  0.375000000  0.393678552
     0.250000000  0.500000000  0.458344566
     0.250000000  0.500000000  0.541655434
     0.597946921  0.375000000  0.500000000
     0.402053079  0.375000000  0.500000000
     0.500502999  0.499800468  0.565358617
     0.498951037  0.500394648  0.649361059
     0.349724181  0.374971404  0.606814886
     0.650595140  0.375040517  0.607508947
     0.250702613  0.500381002  0.671355078
     0.251934872  0.499937446  0.754894042
     0.597085752  0.371302987  0.713632499
     0.407398304  0.373948546  0.717858986

  ion indices of the primitive-cell ions
   primitive index   ion index
                 1           1
                 2           2
                 3           3
                 4           4
                 5           5
                 6           6
                 7           7
[...]
   6.49088680  0.00000000  8.77152475
   6.49088680 10.35119076 12.01696815
   3.24544340  0.00000000 12.01696815
   3.24544340 10.35119076 15.26241155
   6.49088680  0.00000000 15.26241155
   6.48646807 10.34153263 18.41406530
[...]
   6.49088680  5.91496615 13.28849290
   4.51696815  4.43622461 12.01696815
   8.46480545  4.43622461 12.01696815
   3.24544340  5.91496615 13.99088680
   3.24544340  5.91496615 16.53393630
   7.76241155  4.43622461 15.26241155
   5.21936205  4.43622461 15.26241155
   6.49741662  5.91260569 17.25747176
   6.47726940  5.91963481 19.82163147
   4.54004014  4.43588632 18.52291706
   8.44587881  4.43670392 18.54410315
   3.25456456  5.91947338 20.49299499
   3.27056148  5.91422614 23.04300708
   7.75123205  4.39248920 21.78350580
   5.28875255  4.42378599 21.91251856

--------------------------------------- Iteration      FINAL  ---------------------------------------

--------------------OUTCAR has been truncated-------------------------

[...]

--------------------OUTCAR has been truncated-------------------------

  FORCE on cell =-STRESS in cart. coord.  units (eV):
  Direction    XX          YY          ZZ          XY          YZ          ZX
  Alpha Z  2962.40876  2962.40876  2962.40876
  Ewald  515476.48391520457.22913************   -22.82051    40.79734   -51.40310
  Hartree536692.10384537895.56613************    -4.68832     7.93159   -29.11307
  E(xc)   -4665.21232 -4713.66626 -4665.87145    -0.01237     0.10300    -0.04332
  Local  ************************************    21.40252   -36.91419    75.13877
  n-local -2916.08726 -2816.54480 -2971.43368    -0.20016    -0.21701     0.07155
  augment  1343.88260  1324.76776  1349.71244     0.40280    -0.78351     0.27209
  Kinetic 23489.40480 22960.53837 23557.63297     5.90013   -10.95938     4.85247
  Fock    -2138.09879 -2162.45859 -2140.29230     0.02038    -0.03744     0.14938
  vdW       -49.79016   -49.84256   -43.39969     0.00356    -0.00240    -0.00272
  Total     -37.12410  -113.31057   -74.15362     0.00804    -0.08200    -0.07795
  in kB     -12.68811   -38.72679   -25.34390     0.00275    -0.02803    -0.02664

 VOLUME and BASIS-vectors are now :
  energy-cutoff  :      520.00
  volume of cell :     4687.80
      direct lattice vectors                 reciprocal lattice vectors
    12.981773603  0.000000000  0.000000000     0.077031077  0.000000000  0.000000000
     0.000000000 11.829932295  0.000000000     0.000000000  0.084531338  0.000000000
     0.000000000  0.000000000 30.524823105     0.000000000  0.000000000  0.032760223

  length of vectors
    12.981773603 11.829932295 30.524823105     0.077031077  0.084531338  0.032760223

 FORCES acting on ions:
    Electron-Ion                     Ewald-Force                    Non-Local-Force
   0.351E+02 -.600E+02 -.346E+03   -.383E+02 0.658E+02 0.352E+03   0.316E+01 -.567E+01 -.531E+01
   -.628E+02 -.213E+01 -.317E+03   0.704E+02 0.233E+01 0.317E+03   -.752E+01 -.208E+00 0.138E+00
   0.625E+02 0.371E+02 -.185E+04   -.805E+02 -.690E+02 0.183E+04   0.159E+02 0.281E+02 0.126E+02
   -.449E-01 -.105E-01 0.110E+04   0.424E-01 0.106E-01 -.110E+04   -.303E-03 0.256E-04 -.121E+01
   -.172E-01 -.160E-01 0.117E+04   0.182E-01 0.161E-01 -.117E+04   0.312E-03 0.498E-04 -.179E+01
   -.642E-01 -.312E-01 0.567E+03   0.691E-01 0.308E-01 -.567E+03   0.157E-02 -.372E-04 0.175E+00
   -.118E+00 -.365E-01 0.564E+03   0.111E+00 0.368E-01 -.565E+03   -.159E-02 0.228E-03 -.170E+00
   -.277E+00 -.161E+00 0.428E+01   0.245E+00 0.148E+00 -.384E+01   -.108E-01 -.707E-02 0.166E+00
   -.239E+00 -.249E+00 0.398E+01   0.258E+00 0.253E+00 -.462E+01   -.135E-03 -.199E-02 -.810E-01
   -.222E+01 -.689E+00 -.548E+03   0.223E+01 0.688E+00 0.548E+03   0.386E-02 -.588E-02 -.494E-01
   -.160E+01 -.284E+01 -.557E+03   0.162E+01 0.285E+01 0.556E+03   -.227E-01 -.445E-02 0.687E-01
   -.284E+02 -.744E+01 -.107E+04   0.285E+02 0.708E+01 0.107E+04   0.156E+00 0.677E-01 0.866E-01
   -.201E+01 -.116E+01 -.111E+04   0.201E+01 0.109E+01 0.111E+04   -.351E-01 -.117E-01 0.692E+00
   -.464E-01 -.119E-01 0.110E+04   0.438E-01 0.120E-01 -.110E+04   -.292E-03 0.111E-03 -.121E+01
   -.163E-01 -.695E-03 0.117E+04   0.174E-01 0.748E-03 -.117E+04   0.265E-03 0.125E-04 -.179E+01
   -.544E-01 -.345E-01 0.567E+03   0.592E-01 0.341E-01 -.567E+03   0.154E-02 -.953E-04 0.174E+00
   -.134E+00 -.443E-02 0.564E+03   0.127E+00 0.428E-02 -.564E+03   -.177E-02 -.997E-04 -.171E+00
   -.528E+00 -.221E+00 0.378E+01   0.504E+00 0.239E+00 -.334E+01   -.746E-02 0.103E-01 0.168E+00
   -.160E+00 -.103E-01 0.364E+01   0.177E+00 0.890E-02 -.427E+01   0.561E-03 0.113E-03 -.800E-01
   -.141E+01 -.568E+00 -.549E+03   0.142E+01 0.566E+00 0.550E+03   0.233E-03 -.586E-02 -.443E-01
   -.947E+00 0.803E-01 -.562E+03   0.968E+00 -.839E-01 0.561E+03   -.262E-01 0.216E-03 0.770E-01
   -.633E+01 -.613E+01 -.109E+04   0.633E+01 0.607E+01 0.109E+04   0.259E-01 0.954E-02 -.295E-01
   -.187E+01 0.770E-01 -.111E+04   0.186E+01 -.771E-01 0.111E+04   0.169E-01 -.134E-02 0.719E+00
   -.460E-01 0.105E-01 0.110E+04   0.434E-01 -.106E-01 -.110E+04   -.294E-03 -.721E-04 -.121E+01
   -.172E-01 0.160E-01 0.117E+04   0.183E-01 -.161E-01 -.117E+04   0.314E-03 -.390E-04 -.179E+01
   -.543E-01 0.316E-01 0.567E+03   0.592E-01 -.312E-01 -.567E+03   0.154E-02 0.550E-04 0.174E+00
   -.113E+00 0.367E-01 0.564E+03   0.106E+00 -.369E-01 -.565E+03   -.157E-02 -.212E-03 -.170E+00
   -.514E+00 0.194E+00 0.378E+01   0.490E+00 -.214E+00 -.334E+01   -.661E-02 -.113E-01 0.167E+00
   -.235E+00 0.258E+00 0.399E+01   0.254E+00 -.261E+00 -.463E+01   0.391E-03 0.192E-02 -.810E-01
   -.121E+01 0.552E+00 -.549E+03   0.121E+01 -.549E+00 0.550E+03   0.185E-03 0.690E-02 -.460E-01
   -.183E+01 0.278E+01 -.557E+03   0.186E+01 -.278E+01 0.556E+03   -.259E-01 0.166E-02 0.647E-01
   -.632E+01 0.614E+01 -.109E+04   0.632E+01 -.607E+01 0.109E+04   0.266E-01 -.538E-02 -.336E-01
   -.191E+01 0.113E+01 -.111E+04   0.191E+01 -.106E+01 0.111E+04   -.330E-01 0.107E-01 0.692E+00
   -.445E-01 0.119E-01 0.110E+04   0.420E-01 -.120E-01 -.110E+04   -.306E-03 -.633E-04 -.121E+01
   -.180E-01 0.701E-03 0.117E+04   0.191E-01 -.750E-03 -.117E+04   0.361E-03 -.249E-04 -.179E+01
   -.643E-01 0.341E-01 0.567E+03   0.693E-01 -.337E-01 -.567E+03   0.159E-02 0.761E-04 0.175E+00
   -.966E-01 0.427E-02 0.564E+03   0.906E-01 -.412E-02 -.565E+03   -.159E-02 0.631E-04 -.170E+00
   -.258E+00 0.188E+00 0.426E+01   0.225E+00 -.173E+00 -.382E+01   -.111E-01 0.814E-02 0.166E+00
   -.292E+00 0.151E-02 0.434E+01   0.311E+00 -.177E-02 -.498E+01   -.370E-03 -.102E-03 -.847E-01
   -.219E+01 0.699E+00 -.548E+03   0.221E+01 -.697E+00 0.548E+03   0.101E-02 0.445E-02 -.464E-01
   -.183E+01 -.408E-01 -.554E+03   0.183E+01 0.427E-01 0.553E+03   -.447E-01 -.345E-03 0.761E-01
   -.285E+02 0.710E+01 -.107E+04   0.285E+02 -.669E+01 0.107E+04   0.131E+00 -.827E-01 0.825E-01
   -.326E+01 -.334E-01 -.111E+04   0.320E+01 0.307E-01 0.111E+04   0.366E-01 0.195E-02 0.656E+00
   0.451E-01 -.927E-02 0.110E+04   -.426E-01 0.923E-02 -.110E+04   0.295E-03 0.139E-04 -.121E+01
   0.169E-01 -.136E-01 0.117E+04   -.180E-01 0.139E-01 -.117E+04   -.319E-03 0.116E-03 -.179E+01
   0.589E-01 0.925E-02 0.567E+03   -.632E-01 -.190E-02 -.567E+03   -.166E-02 0.206E-02 0.182E+00
   0.123E+00 -.221E-01 0.564E+03   -.117E+00 0.222E-01 -.564E+03   0.150E-02 0.942E-04 -.167E+00
   0.562E+00 -.776E-01 0.362E+01   -.532E+00 0.700E-01 -.314E+01   0.599E-02 -.404E-02 0.182E+00
   0.352E+00 -.230E+00 0.543E+01   -.356E+00 0.178E+00 -.596E+01   -.850E-02 0.882E-02 -.795E-01
   0.688E+00 -.366E+01 -.544E+03   -.683E+00 0.390E+01 0.544E+03   0.182E-01 -.100E+00 -.291E-01
   0.400E+01 -.195E+01 -.561E+03   -.402E+01 0.196E+01 0.560E+03   -.952E-02 0.683E-02 0.864E-01
   0.140E+02 -.531E+01 -.108E+04   -.140E+02 0.529E+01 0.108E+04   0.477E-01 0.154E-02 -.649E-01
   0.809E+01 -.220E+02 -.109E+04   -.810E+01 0.221E+02 0.109E+04   -.118E+00 -.268E-01 0.795E+00
   0.467E-01 -.106E-01 0.110E+04   -.440E-01 0.107E-01 -.110E+04   0.298E-03 0.793E-04 -.121E+01
   0.161E-01 -.130E-02 0.117E+04   -.172E-01 0.135E-02 -.117E+04   -.287E-03 -.214E-04 -.179E+01
   0.499E-01 -.781E-02 0.568E+03   -.541E-01 0.857E-02 -.567E+03   -.163E-02 -.493E-03 0.182E+00
   0.139E+00 -.486E-02 0.564E+03   -.132E+00 0.479E-02 -.564E+03   0.156E-02 -.739E-05 -.167E+00
   0.742E+00 -.105E+00 0.337E+01   -.723E+00 0.109E+00 -.289E+01   0.514E-02 0.123E-02 0.181E+00
   0.212E+00 -.544E-01 0.597E+01   -.217E+00 0.539E-01 -.667E+01   -.536E-02 -.116E-02 -.138E+00
   -.605E+00 -.396E+01 -.539E+03   0.629E+00 0.408E+01 0.540E+03   0.117E-01 -.202E-01 -.163E+00
[...]
   -.247E+02 0.180E-01 0.848E+03   0.289E+02 -.188E-01 -.848E+03   -.334E+01 0.915E-03 0.180E+00
   0.248E+02 0.285E-01 0.848E+03   -.290E+02 -.294E-01 -.848E+03   0.335E+01 0.107E-02 0.188E+00
   0.365E+00 0.229E-01 0.359E+03   -.347E+00 -.234E-01 -.363E+03   -.216E-01 0.963E-03 0.398E+01
   0.180E+01 0.163E+00 -.353E+03   -.177E+01 -.162E+00 0.360E+03   -.450E-01 -.167E-02 -.666E+01
   -.240E+02 -.627E-01 0.849E+01   0.290E+02 0.577E-01 -.869E+01   -.481E+01 0.228E-01 0.231E+00
   0.246E+02 -.118E+00 0.807E+01   -.296E+02 0.111E+00 -.827E+01   0.487E+01 0.266E-01 0.236E+00
   0.168E+00 0.122E+00 -.470E+03   -.203E-01 -.229E+00 0.463E+03   -.130E+00 0.933E-01 0.642E+01
   0.949E+01 -.116E+01 -.116E+04   -.101E+02 0.122E+01 0.116E+04   0.533E+00 -.602E-01 -.166E+01
   -.620E+01 0.203E+01 -.823E+03   0.945E+01 -.219E+01 0.822E+03   -.289E+01 0.139E+00 0.104E+01
   0.965E+01 0.284E+01 -.825E+03   -.130E+02 -.284E+01 0.824E+03   0.298E+01 -.657E-02 0.488E+00
   0.139E+02 -.604E+00 -.131E+04   -.138E+02 0.598E+00 0.131E+04   -.633E-01 0.575E-02 -.208E+01
   0.370E+02 0.682E+00 -.191E+04   -.369E+02 -.750E+00 0.193E+04   -.611E-01 0.599E-01 -.196E+02
   -.142E+02 0.467E+02 -.159E+04   0.208E+02 -.466E+02 0.159E+04   -.580E+01 -.133E+00 -.350E+00
   0.327E+02 0.317E+02 -.165E+04   -.393E+02 -.316E+02 0.166E+04   0.587E+01 -.269E-01 -.313E+01
   -.124E+02 -.263E+02 0.776E+02   0.301E-11 0.568E-13 0.455E-11   0.105E+02 0.226E+02 -.725E+02

 POSITION                                       TOTAL-FORCE (eV/Angst)
      6.66738      6.49025     24.44512         0.060454     -0.125319     -0.122833
      8.00341      5.87559     23.82942        -0.175415     -0.020825      0.010864
      7.01046      5.82192     23.83798         0.100485      0.153421      0.082449
      9.73633      7.39371      8.77152        -0.003104      0.000121     -3.914767
      0.00000      8.87245      8.77152         0.001177      0.000137      3.235323
      0.00000      7.39371     12.01697         0.006399     -0.000459      0.574421
      9.73633      8.87245     12.01697        -0.008730      0.000588     -0.862775
      9.73633      7.39371     15.26241        -0.044317     -0.021605      0.638819
      0.00000      8.87245     15.26241         0.020538      0.002593     -0.809823
      0.00275      7.39439     18.44050         0.006524     -0.002719     -0.004995
      9.73995      8.87375     18.61105        -0.001501      0.001598      0.075674
      9.75730      7.40755     21.93017        -0.000922     -0.043271     -0.212205
      0.00850      8.87486     21.61687        -0.000898     -0.006991     -0.008817
      9.73633     10.35119      8.77152        -0.003247      0.000311     -3.914825
      0.00000      0.00000      8.77152         0.001068      0.000056      3.235087
      0.00000     10.35119     12.01697         0.006235     -0.000500      0.574028
      9.73633      0.00000     12.01697        -0.009115     -0.000279     -0.863086
      9.73633     10.35119     15.26241        -0.033752      0.030264      0.646310
      0.00000      0.00000     15.26241         0.020134     -0.001496     -0.804772
      0.00014     10.35150     18.44399         0.002384     -0.001675     -0.014755
      9.73360      0.00023     18.61997        -0.005864      0.000564      0.085266
      9.74285     10.35436     21.96338        -0.005406     -0.006288     -0.250621
      0.00923     11.82964     21.61596         0.000660     -0.000264     -0.013446
      9.73633      1.47874      8.77152        -0.003231     -0.000270     -3.914997
      0.00000      2.95748      8.77152         0.001195     -0.000143      3.235169
      0.00000      1.47874     12.01697         0.006333      0.000381      0.573863
      9.73633      2.95748     12.01697        -0.008508     -0.000574     -0.863370
      9.73633      1.47874     15.26241        -0.033030     -0.033409      0.644193
      0.00000      2.95748     15.26241         0.021856     -0.000799     -0.810860
     12.98135      1.47814     18.44313         0.001893      0.001670     -0.012592
      9.73737      2.95610     18.61087        -0.000973     -0.001981      0.078133
      9.74082      1.47334     21.96328        -0.004315      0.003314     -0.251204
      0.00777      2.95472     21.61660         0.000086      0.005229     -0.008647
      9.73633      4.43622      8.77152        -0.003080     -0.000206     -3.914958
      0.00000      5.91497      8.77152         0.001180     -0.000089      3.235397
      0.00000      4.43622     12.01697         0.006516      0.000531      0.574358
      9.73633      5.91497     12.01697        -0.008163      0.000208     -0.862947
      9.73633      4.43622     15.26241        -0.045669      0.024605      0.637492
      0.00000      5.91497     15.26241         0.021137     -0.000369     -0.814262
      0.00152      4.43581     18.44076         0.004634      0.003147     -0.006003
      9.74719      5.91499     18.61676        -0.004387     -0.000214      0.091047
      9.76115      4.41987     21.93237         0.001860      0.044178     -0.216102
      0.02020      5.91574     21.61415        -0.008658      0.001355      0.000516
      3.24544      7.39371      8.77152         0.002564     -0.000047     -3.912029
      6.49089      8.87245      8.77152        -0.001700      0.000396      3.241914
      6.49089      7.39371     12.01697        -0.006550      0.010167      0.597155
      3.24544      8.87245     12.01697         0.007681      0.000302     -0.843099
      3.24544      7.39371     15.26241         0.037615     -0.012273      0.700486
      6.49089      8.87245     15.26241        -0.010593     -0.046409     -0.674758
      6.49296      7.36858     18.47600         0.006084     -0.032788      0.002655
      3.25035      8.87139     18.62059         0.003304     -0.002638      0.084120
      3.26314      7.39578     21.96576        -0.012520     -0.002793     -0.244419
      6.50538      8.87701     21.58072         0.008175      0.008088      0.004289
      3.24544     10.35119      8.77152         0.002683      0.000272     -3.912117
      6.49089      0.00000      8.77152        -0.001684      0.000020      3.242044
      6.49089     10.35119     12.01697        -0.006362      0.000392      0.600101
      3.24544      0.00000     12.01697         0.008060     -0.000095     -0.843671
      3.24544     10.35119     15.26241         0.025244      0.004817      0.695836
      6.49089      0.00000     15.26241        -0.009237     -0.001763     -0.878788
      6.48647     10.34153     18.41407        -0.005978     -0.011519     -0.002236
[...]
      6.49089      5.91497     13.28849         0.002281     -0.000663     -0.260006
      4.51697      4.43622     12.01697         0.355930      0.000267      0.056495
      8.46481      4.43622     12.01697        -0.349034      0.000410      0.058879
      3.24544      5.91497     13.99089        -0.006766      0.000691      0.032154
      3.24544      5.91497     16.53394        -0.017379     -0.001661     -0.132123
      7.76241      4.43622     15.26241        -0.570873      0.021843      0.070446
      5.21936      4.43622     15.26241         0.606992      0.023458      0.078383
      6.49742      5.91261     17.25747        -0.002886      0.000223      0.141199
      6.47727      5.91963     19.82163         0.013455     -0.004729     -0.081676
      4.54004      4.43589     18.52292        -0.060018      0.001743      0.018121
      8.44588      4.43670     18.54410         0.067122     -0.005820      0.003451
      3.25456      5.91947     20.49299         0.003185      0.000240      0.019587
      3.27056      5.91423     23.04301         0.001223      0.001707     -0.032118
      7.75123      4.39249     21.78351        -0.120533      0.023937      0.010076
      5.28875      4.42379     21.91252         0.114947      0.030135     -0.019305
    total drift:                                0.068489      0.002727     -0.025447

  FREE ENERGIE OF THE ION-ELECTRON SYSTEM (eV)
  free  energy   TOTEN  =     -2636.34878597 eV

  energy  without entropy=    -2636.34878597  energy(sigma->0) =    -2636.34878597