 vasp.6.3.0 20Jan22 (build Apr  1 2022 16:44:48) complex
 executed on        HPECrayEX_GCC date 2022.10.25  02:10:04

 INCAR:
   SYSTEM = MgO-rocksalt
   ISMEAR = 0
   SIGMA = 0.05
   EDIFF = 1E-6
   ALGO = ALL
   ISTART = 0
   IBRION = -1
   NSW = 0
   ISYM = 0
   DIPOL = 0.5 0.5 0.5
   IDIPOL = 3
   LDIPOL = .TRUE.
   LHFCALC = .TRUE.
   GGA = B5
   AEXX = 0.2
   AGGAX = 0.72
   AGGAC = 0.81
   ALDAC = 0.19
   IVDW = 1
   VDW_S6 = 1.05
   VDW_C6 = 0.63 0.70
   VDW_R0 = 1.243 1.342
   ENCUT = 600
   PREC = Accurate
   LASPH = .TRUE.
   LREAL = .FALSE.
   ISPIN = 1
   NELM = 200
   NELMIN = 8
   NCORE = 8
   KPAR = 1
   LWAVE = .FALSE.
   LCHARG = .FALSE.

 POTCAR:    PAW_PBE Mg_pv 13Apr2007
 POTCAR:    PAW_PBE O 08Apr2002
 POTCAR:    PAW_PBE Mg_pv 13Apr2007
   VRHFIN =Mg: p6s2

   TITEL  = PAW_PBE Mg_pv 13Apr2007
   POMASS =   24.305; ZVAL   =    8.000    mass and valenz
   ENMAX  =  403.929; ENMIN  =  302.947 eV

   TITEL  = PAW_PBE O 08Apr2002
   POMASS =   16.000; ZVAL   =    6.000    mass and valenz
   ENMAX  =  400.000; ENMIN  =  300.000 eV

  PAW_PBE Mg_pv 13Apr2007               :
  PAW_PBE O 08Apr2002                   :

 POSCAR: Mg  O
  positions in direct lattice
 exchange correlation table for  LEXCH =       12
   RHO(1)=    0.500       N(1)  =     2000
   RHO(2)=  100.500       N(2)  =     4000

 ion  position               nearest neighbor table
   1  0.000  0.750  0.350-  33 2.14  35 2.14  36 2.14  43 2.14  52 2.14
   2  0.250  0.000  0.350-  34 2.14  35 2.14  36 2.14  44 2.14  51 2.14
   3  0.000  0.000  0.450-  35 2.14  34 2.14  33 2.14  41 2.14  50 2.14  39 2.14
   4  0.250  0.750  0.450-  36 2.14  34 2.14  33 2.14  42 2.14  49 2.14  40 2.14
   5  0.000  0.750  0.550-  40 2.14  56 2.14  39 2.14  47 2.14  33 2.15  37 2.16
   6  0.250  0.000  0.550-  55 2.14  48 2.14  40 2.14  39 2.14  34 2.15  38 2.16
   7  1.000  1.000  0.650-  39 2.13  54 2.14  38 2.14  37 2.14  45 2.14
   8  0.250  0.750  0.650-  40 2.13  53 2.14  38 2.14  46 2.14  37 2.14
   9  0.000  0.250  0.350-  41 2.14  35 2.14  43 2.14  44 2.14  60 2.14
  10  0.250  0.500  0.350-  42 2.14  36 2.14  43 2.14  44 2.14  59 2.14
  11  0.000  0.500  0.450-  43 2.14  41 2.14  42 2.14  33 2.14  58 2.14  47 2.14
  12  0.250  0.250  0.450-  44 2.14  41 2.14  42 2.14  34 2.14  57 2.14  48 2.14
  13  0.000  0.250  0.550-  48 2.14  64 2.14  39 2.14  47 2.14  41 2.15  45 2.16
  14  0.250  0.500  0.550-  47 2.14  48 2.14  40 2.14  63 2.14  42 2.15  46 2.16
  15  0.000  0.500  0.650-  47 2.13  46 2.14  62 2.14  37 2.14  45 2.14
  16  0.250  0.250  0.650-  48 2.13  61 2.14  38 2.14  46 2.14  45 2.14
  17  0.500  0.750  0.350-  49 2.14  36 2.14  51 2.14  52 2.14  59 2.14
  18  0.750  0.000  0.350-  50 2.14  35 2.14  51 2.14  52 2.14  60 2.14
  19  0.500  0.000  0.450-  51 2.14  49 2.14  50 2.14  34 2.14  57 2.14  55 2.14
  20  0.750  0.750  0.450-  52 2.14  49 2.14  50 2.14  33 2.14  58 2.14  56 2.14
  21  0.500  0.750  0.550-  55 2.14  63 2.14  40 2.14  56 2.14  49 2.15  53 2.16
  22  0.750  0.000  0.550-  55 2.14  64 2.14  56 2.14  39 2.14  50 2.15  54 2.16
  23  0.500  1.000  0.650-  55 2.13  53 2.14  61 2.14  54 2.14  38 2.14
  24  0.750  0.750  0.650-  56 2.13  53 2.14  54 2.14  62 2.14  37 2.14
  25  0.500  0.250  0.350-  57 2.14  51 2.14  44 2.14  59 2.14  60 2.14
  26  0.750  0.500  0.350-  58 2.14  52 2.14  43 2.14  59 2.14  60 2.14
  27  0.500  0.500  0.450-  59 2.14  49 2.14  57 2.14  58 2.14  42 2.14  63 2.14
  28  0.750  0.250  0.450-  60 2.14  50 2.14  57 2.14  58 2.14  41 2.14  64 2.14
  29  0.500  0.250  0.550-  55 2.14  63 2.14  48 2.14  64 2.14  57 2.15  61 2.16
  30  0.750  0.500  0.550-  47 2.14  64 2.14  56 2.14  63 2.14  58 2.15  62 2.16
  31  0.500  0.500  0.650-  63 2.13  53 2.14  61 2.14  46 2.14  62 2.14
  32  0.750  0.250  0.650-  64 2.13  61 2.14  54 2.14  62 2.14  45 2.14
  33  0.000  0.750  0.450-   1 2.14   3 2.14   4 2.14  11 2.14  20 2.14   5 2.15
  34  0.250  0.000  0.450-   2 2.14   3 2.14   4 2.14  12 2.14  19 2.14   6 2.15
  35  0.000  0.000  0.350-   3 2.14   2 2.14   1 2.14   9 2.14  18 2.14
  36  0.250  0.750  0.350-   4 2.14   2 2.14   1 2.14  10 2.14  17 2.14
  37  0.000  0.750  0.652-  15 2.14   7 2.14   8 2.14  24 2.14   5 2.16
  38  0.250  1.000  0.652-   8 2.14  16 2.14  23 2.14   7 2.14   6 2.16
  39  0.000  0.000  0.550-   7 2.13  13 2.14   5 2.14   6 2.14  22 2.14   3 2.14
  40  0.250  0.750  0.550-   8 2.13   5 2.14   6 2.14  14 2.14  21 2.14   4 2.14
  41  0.000  0.250  0.450-   9 2.14   3 2.14  11 2.14  12 2.14  28 2.14  13 2.15
  42  0.250  0.500  0.450-  10 2.14   4 2.14  11 2.14  12 2.14  27 2.14  14 2.15
  43  0.000  0.500  0.350-  11 2.14   9 2.14  10 2.14   1 2.14  26 2.14
  44  0.250  0.250  0.350-  12 2.14   9 2.14  10 2.14   2 2.14  25 2.14
  45  1.000  0.250  0.652-  15 2.14   7 2.14  32 2.14  16 2.14  13 2.16
  46  0.250  0.500  0.651-  15 2.14   8 2.14  16 2.14  31 2.14  14 2.16
  47  0.000  0.500  0.550-  15 2.13  14 2.14  30 2.14  13 2.14   5 2.14  11 2.14
  48  0.250  0.250  0.550-  16 2.13  13 2.14   6 2.14  14 2.14  29 2.14  12 2.14
  49  0.500  0.750  0.450-  17 2.14   4 2.14  19 2.14  20 2.14  27 2.14  21 2.15
  50  0.750  0.000  0.450-  18 2.14   3 2.14  19 2.14  20 2.14  28 2.14  22 2.15
  51  0.500  0.000  0.350-  19 2.14  17 2.14  18 2.14   2 2.14  25 2.14
  52  0.750  0.750  0.350-  20 2.14  17 2.14  18 2.14   1 2.14  26 2.14
  53  0.500  0.750  0.651-  24 2.14   8 2.14  23 2.14  31 2.14  21 2.16
  54  0.750  1.000  0.652-  24 2.14  32 2.14  23 2.14   7 2.14  22 2.16
  55  0.500  0.000  0.550-  23 2.13  29 2.14  21 2.14   6 2.14  22 2.14  19 2.14
  56  0.750  0.750  0.550-  24 2.13   5 2.14  22 2.14  30 2.14  21 2.14  20 2.14
  57  0.500  0.250  0.450-  25 2.14  19 2.14  12 2.14  27 2.14  28 2.14  29 2.15
  58  0.750  0.500  0.450-  26 2.14  20 2.14  11 2.14  27 2.14  28 2.14  30 2.15
  59  0.500  0.500  0.350-  27 2.14  17 2.14  25 2.14  26 2.14  10 2.14
  60  0.750  0.250  0.350-  28 2.14  18 2.14  25 2.14  26 2.14   9 2.14
  61  0.500  0.250  0.651-  32 2.14  16 2.14  23 2.14  31 2.14  29 2.16
  62  0.750  0.500  0.651-  15 2.14  24 2.14  32 2.14  31 2.14  30 2.16
  63  0.500  0.500  0.550-  31 2.13  29 2.14  21 2.14  14 2.14  30 2.14  27 2.14
  64  0.750  0.250  0.550-  32 2.13  13 2.14  22 2.14  30 2.14  29 2.14  28 2.14

IMPORTANT INFORMATION: All symmetrisations will be switched off!
NOSYMM: (Re-)initialisation of all symmetry stuff for point group C_1.

                                     Primitive cell

  volume of cell :    1563.6717

  direct lattice vectors                    reciprocal lattice vectors
     8.546113626  0.000000000  0.000000000     0.117012252  0.000000000  0.000000000
     0.000000000  8.546113626  0.000000000     0.000000000  0.117012252  0.000000000
     0.000000000  0.000000000 21.409585219     0.000000000  0.000000000  0.046708051

  length of vectors
     8.546113626  8.546113626 21.409585219     0.117012252  0.117012252  0.046708051

  position of ions in fractional coordinates (direct lattice)
     0.000000000  0.750000000  0.350310383
     0.250000000  0.000000000  0.350310383
     0.000000000  0.000000000  0.450103461
     0.250000000  0.750000000  0.450103461
     0.000000010  0.750048803  0.550439856
     0.250007043  0.000000008  0.550439704
     0.999999995  0.999999990  0.649719877
     0.250129022  0.750046398  0.649515153
     0.000000000  0.250000000  0.350310383
     0.250000000  0.500000000  0.350310383
     0.000000000  0.500000000  0.450103461
     0.250000000  0.250000000  0.450103461
     0.000000008  0.249951191  0.550439878
     0.249952443  0.499999988  0.550416708
     0.000000008  0.500000002  0.649556603
     0.250129040  0.249953598  0.649515180
     0.500000000  0.750000000  0.350310383
     0.750000000  0.000000000  0.350310383
     0.500000000  0.000000000  0.450103461
     0.750000000  0.750000000  0.450103461
     0.499999994  0.750023873  0.550431636
     0.749992958  0.000000009  0.550439691
     0.500000007  0.999999987  0.649588587
     0.749870979  0.750046409  0.649515150
     0.500000000  0.250000000  0.350310383
     0.750000000  0.500000000  0.350310383
     0.500000000  0.500000000  0.450103461
     0.750000000  0.250000000  0.450103461
     0.499999994  0.249976122  0.550431644
     0.750047559  0.499999989  0.550416700
     0.500000000  0.500000010  0.649650227
     0.749870966  0.249953590  0.649515177
     0.000000000  0.750000000  0.450103461
     0.250000000  0.000000000  0.450103461
     0.000000000  0.000000000  0.350310383
     0.250000000  0.750000000  0.350310383
     0.000000003  0.749984296  0.651540068
     0.250006609  0.999999987  0.651525352
     0.000000004  0.000000004  0.550202403
     0.249933110  0.750006583  0.550136903
     0.000000000  0.250000000  0.450103461
     0.250000000  0.500000000  0.450103461
     0.000000000  0.500000000  0.350310383
     0.250000000  0.250000000  0.350310383
     0.999999998  0.250015696  0.651540104
     0.249804499  0.500000006  0.651481806
     0.000000005  0.499999989  0.550151038
     0.249933115  0.249993413  0.550136917
     0.500000000  0.750000000  0.450103461
     0.750000000  0.000000000  0.450103461
     0.500000000  0.000000000  0.350310383
     0.750000000  0.750000000  0.350310383
     0.500000003  0.750077766  0.651339700
     0.749993397  0.999999990  0.651525348
     0.499999997  0.000000005  0.550107257
     0.750066894  0.750006583  0.550136900
     0.500000000  0.250000000  0.450103461
     0.750000000  0.500000000  0.450103461
     0.500000000  0.500000000  0.350310383
     0.750000000  0.250000000  0.350310383
     0.500000003  0.249922229  0.651339732
     0.750195501  0.500000005  0.651481798
     0.499999996  0.499999991  0.550123034
     0.750066889  0.249993417  0.550136915

  ion indices of the primitive-cell ions
   primitive index   ion index
                 1           1
                 2           2
                 3           3
                 4           4
                 5           5
                 6           6
                 7           7
                 8           8
                 9           9
                10          10
                11          11
                12          12
                13          13
                14          14
                15          15
                16          16
                17          17
                18          18
                19          19
                20          20
                21          21
                22          22
                23          23
                24          24
                25          25
                26          26
                27          27
                28          28
                29          29
                30          30
                31          31
                32          32
                33          33
                34          34
                35          35
                36          36
                37          37
                38          38
                39          39
                40          40
                41          41
                42          42
                43          43
                44          44
[...]
   0.25000000  0.50000000  0.45010346
   0.00000000  0.50000000  0.35031038
   0.25000000  0.25000000  0.35031038
   1.00000000  0.25001570  0.65154010
   0.24980450  0.50000001  0.65148181
   0.00000001  0.49999999  0.55015104
   0.24993312  0.24999341  0.55013692
   0.50000000  0.75000000  0.45010346
   0.75000000  0.00000000  0.45010346
   0.50000000  0.00000000  0.35031038
   0.75000000  0.75000000  0.35031038
   0.50000000  0.75007777  0.65133970
   0.74999340  0.99999999  0.65152535
   0.50000000  0.00000000  0.55010726
   0.75006689  0.75000658  0.55013690
   0.50000000  0.25000000  0.45010346
   0.75000000  0.50000000  0.45010346
   0.50000000  0.50000000  0.35031038
   0.75000000  0.25000000  0.35031038
   0.50000000  0.24992223  0.65133973
   0.75019550  0.50000000  0.65148180
   0.50000000  0.49999999  0.55012303
   0.75006689  0.24999342  0.55013692

 position of ions in cartesian coordinates  (Angst):
   0.00000000  6.40958522  7.50000000
   2.13652841  0.00000000  7.50000000
   0.00000000  0.00000000  9.63652841
   2.13652841  6.40958522  9.63652841
   0.00000008  6.41000230 11.78468902
   2.13658859  0.00000007 11.78468576
   8.54611359  8.54611354 13.91023308
   2.13763104  6.40998174 13.90585001
   0.00000000  2.13652841  7.50000000
   2.13652841  4.27305681  7.50000000
   0.00000000  4.27305681  9.63652841
   2.13652841  2.13652841  9.63652841
   0.00000007  2.13611128 11.78468948
   2.13612198  4.27305671 11.78419342
   0.00000006  4.27305683 13.90673744
   2.13763120  2.13613185 13.90585060
   4.27305681  6.40958522  7.50000000
   6.40958522  0.00000000  7.50000000
   4.27305681  0.00000000  9.63652841
   6.40958522  6.40958522  9.63652841
   4.27305677  6.40978924 11.78451302
   6.40952503  0.00000008 11.78468547
   4.27305687  8.54611351 13.90742221
   6.40848259  6.40998183 13.90584995
   4.27305681  2.13652841  7.50000000
   6.40958522  4.27305681  7.50000000
   4.27305681  4.27305681  9.63652841
   6.40958522  2.13652841  9.63652841
   4.27305676  2.13632434 11.78451318
   6.40999167  4.27305672 11.78419325
   4.27305681  4.27305690 13.90874189
   6.40848248  2.13613178 13.90585053
   0.00000000  6.40958522  9.63652841
   2.13652841  0.00000000  9.63652841
   0.00000000  0.00000000  7.50000000
   2.13652841  6.40958522  7.50000000
   0.00000003  6.40945101 13.94920262
   2.13658489  8.54611351 13.94888755
   0.00000003  0.00000004 11.77960524
   2.13595676  6.40964148 11.77820290
   0.00000000  2.13652841  9.63652841
   2.13652841  4.27305681  9.63652841
   0.00000000  4.27305681  7.50000000
   2.13652841  2.13652841  7.50000000
   8.54611361  2.13666254 13.94920339
   2.13485764  4.27305686 13.94795524
   0.00000004  4.27305672 11.77850553
   2.13595680  2.13647211 11.77820321
   4.27305681  6.40958522  9.63652841
   6.40958522  0.00000000  9.63652841
   4.27305681  0.00000000  7.50000000
   6.40958522  6.40958522  7.50000000
   4.27305684  6.41024982 13.94491281
   6.40952879  8.54611354 13.94888747
   4.27305679  0.00000004 11.77756820
   6.41015690  6.40964148 11.77820283
   4.27305681  2.13652841  9.63652841
   6.40958522  4.27305681  9.63652841
   4.27305681  4.27305681  7.50000000
   6.40958522  2.13652841  7.50000000
   4.27305684  2.13586377 13.94491349
   6.41125599  4.27305685 13.94795507
   4.27305678  4.27305673 11.77790598
   6.41015686  2.13647215 11.77820317

--------------------------------------- Iteration      FINAL  ---------------------------------------

--------------------OUTCAR has been truncated-------------------------

[...]

--------------------OUTCAR has been truncated-------------------------

  DFT-D2 method for vdW energy calculation

  Parameters of vdW forcefield:
         C6(Jnm^6/mol)     R0(A)
   Mg       0.630          1.243
   O        0.700          1.342

  vdW correction parametrized for the method ãgÿ      

  IVDW =   1
  VDW_RADIUS =    50.000 A
  VDW_S6 =     1.050
  VDW_SR =     1.000
  VDW_D =    20.000
  LVDW_EWALD = F

  Number of pair interactions contributing to vdW energy:  705348
  Edisp (eV):   -4.83030

 VOLUME and BASIS-vectors are now :
  energy-cutoff  :      600.00
  volume of cell :     1563.67
      direct lattice vectors                 reciprocal lattice vectors
     8.546113626  0.000000000  0.000000000     0.117012252  0.000000000  0.000000000
     0.000000000  8.546113626  0.000000000     0.000000000  0.117012252  0.000000000
     0.000000000  0.000000000 21.409585219     0.000000000  0.000000000  0.046708051

  length of vectors
     8.546113626  8.546113626 21.409585219     0.117012252  0.117012252  0.046708051

 FORCES acting on ions:
    Electron-Ion                     Ewald-Force                    Non-Local-Force
   -.288E-04 -.754E-02 0.201E+04   0.124E-05 0.774E-02 -.200E+04   0.242E-04 -.134E-03 -.634E+01
   0.155E-01 -.395E-04 0.201E+04   -.155E-01 0.567E-05 -.200E+04   0.444E-04 0.250E-04 -.634E+01
   -.837E-05 -.191E-04 0.664E+03   0.911E-05 0.321E-04 -.665E+03   -.364E-05 -.578E-05 0.433E+00
   0.147E-01 -.588E-02 0.664E+03   -.174E-01 0.723E-02 -.665E+03   0.185E-02 -.880E-03 0.420E+00
   0.199E-04 -.400E-01 -.669E+03   -.277E-04 0.548E-01 0.670E+03   0.285E-05 -.134E-01 -.251E+00
   0.205E+00 -.131E-04 -.669E+03   -.225E+00 0.181E-04 0.669E+03   0.119E-01 -.310E-05 -.237E+00
   -.118E-04 -.804E-05 -.200E+04   0.819E-05 0.743E-05 0.199E+04   0.394E-05 -.406E-05 0.552E+01
   0.198E+00 0.282E+00 -.199E+04   -.227E+00 -.280E+00 0.199E+04   0.855E-02 -.557E-02 0.552E+01
   -.325E-04 0.755E-02 0.201E+04   0.126E-05 -.774E-02 -.200E+04   0.289E-04 0.131E-03 -.634E+01
   0.319E-02 0.239E-04 0.201E+04   -.328E-02 -.566E-05 -.200E+04   0.518E-04 -.176E-04 -.633E+01
   -.117E-04 0.212E-04 0.664E+03   0.363E-05 -.313E-04 -.665E+03   0.599E-05 0.442E-05 0.420E+00
   0.147E-01 0.588E-02 0.664E+03   -.174E-01 -.723E-02 -.665E+03   0.187E-02 0.883E-03 0.420E+00
   0.166E-04 0.400E-01 -.669E+03   -.177E-04 -.548E-01 0.670E+03   0.322E-06 0.134E-01 -.251E+00
   -.284E+00 0.204E-04 -.669E+03   0.273E+00 -.176E-04 0.669E+03   0.118E-01 -.266E-05 -.245E+00
   0.415E-04 0.860E-05 -.199E+04   -.442E-04 -.599E-05 0.199E+04   0.102E-05 -.674E-06 0.549E+01
   0.198E+00 -.282E+00 -.199E+04   -.227E+00 0.280E+00 0.199E+04   0.854E-02 0.557E-02 0.552E+01
   0.302E-04 0.449E-02 0.201E+04   -.126E-05 -.437E-02 -.200E+04   -.245E-04 -.790E-04 -.634E+01
   -.155E-01 -.217E-04 0.201E+04   0.155E-01 0.568E-05 -.200E+04   -.475E-04 0.911E-05 -.634E+01
   0.117E-04 -.262E-04 0.665E+03   -.936E-05 0.166E-04 -.665E+03   0.106E-06 0.827E-05 0.411E+00
   -.147E-01 -.588E-02 0.664E+03   0.174E-01 0.722E-02 -.665E+03   -.185E-02 -.881E-03 0.420E+00
   -.231E-04 0.291E+00 -.669E+03   0.248E-04 -.299E+00 0.669E+03   -.157E-06 0.259E-02 -.275E+00
   -.205E+00 -.170E-04 -.669E+03   0.225E+00 0.179E-04 0.669E+03   -.119E-01 0.101E-05 -.237E+00
   0.164E-05 -.945E-05 -.200E+04   0.236E-05 0.110E-04 0.199E+04   -.726E-06 0.215E-05 0.552E+01
   -.198E+00 0.282E+00 -.199E+04   0.227E+00 -.280E+00 0.199E+04   -.855E-02 -.557E-02 0.552E+01
   0.393E-04 -.449E-02 0.201E+04   -.124E-05 0.437E-02 -.200E+04   -.354E-04 0.816E-04 -.634E+01
   -.318E-02 0.223E-04 0.201E+04   0.328E-02 -.566E-05 -.200E+04   -.628E-04 -.994E-05 -.633E+01
   0.107E-04 0.314E-04 0.664E+03   -.357E-05 -.163E-04 -.665E+03   -.606E-05 -.746E-05 0.410E+00
   -.147E-01 0.588E-02 0.664E+03   0.174E-01 -.722E-02 -.665E+03   -.187E-02 0.879E-03 0.420E+00
   -.234E-04 -.291E+00 -.669E+03   0.244E-04 0.299E+00 0.669E+03   -.210E-05 -.259E-02 -.275E+00
   0.284E+00 0.100E-04 -.669E+03   -.273E+00 -.955E-05 0.669E+03   -.118E-01 0.310E-06 -.245E+00
   -.236E-04 0.141E-04 -.200E+04   0.274E-04 -.128E-04 0.199E+04   -.436E-05 -.534E-05 0.556E+01
   -.198E+00 -.282E+00 -.199E+04   0.227E+00 0.280E+00 0.199E+04   -.855E-02 0.557E-02 0.552E+01
   -.155E-04 -.329E-01 0.498E+03   0.481E-06 0.301E-01 -.498E+03   0.126E-04 0.332E-02 -.987E-01
   0.766E-01 -.267E-04 0.498E+03   -.747E-01 0.162E-04 -.498E+03   -.264E-02 0.134E-04 -.959E-01
   0.105E-04 0.775E-05 0.151E+04   0.132E-05 0.503E-05 -.151E+04   -.259E-05 -.934E-05 0.315E+01
   0.634E-02 -.138E-02 0.151E+04   -.650E-02 0.153E-02 -.151E+04   0.205E-03 -.177E-03 0.315E+01
   0.161E-04 0.154E-01 -.151E+04   -.214E-04 -.327E-01 0.152E+04   -.162E-05 0.212E-01 -.447E+01
   0.951E-01 -.635E-05 -.151E+04   -.122E+00 0.127E-04 0.152E+04   0.316E-01 0.411E-05 -.446E+01
   0.895E-05 -.217E-04 -.497E+03   -.107E-04 0.174E-04 0.497E+03   0.208E-05 0.385E-05 0.247E+00
   0.244E-02 0.630E-01 -.496E+03   -.417E-02 -.699E-01 0.496E+03   0.613E-02 0.750E-02 0.298E+00
   -.154E-04 0.329E-01 0.498E+03   0.115E-05 -.301E-01 -.498E+03   0.154E-04 -.332E-02 -.987E-01
   -.118E-01 0.266E-04 0.498E+03   0.141E-01 -.158E-04 -.498E+03   -.270E-02 -.153E-04 -.927E-01
   0.440E-05 -.124E-04 0.151E+04   0.825E-06 -.502E-05 -.151E+04   -.573E-06 0.105E-04 0.315E+01
   0.632E-02 0.137E-02 0.151E+04   -.650E-02 -.153E-02 -.151E+04   0.228E-03 0.181E-03 0.315E+01
   -.107E-05 -.154E-01 -.151E+04   -.320E-07 0.327E-01 0.152E+04   0.438E-05 -.212E-01 -.447E+01
   -.454E+00 0.359E-05 -.151E+04   0.425E+00 -.664E-05 0.152E+04   0.498E-01 -.477E-05 -.445E+01
   0.138E-04 0.187E-04 -.497E+03   -.184E-04 -.161E-04 0.496E+03   0.268E-05 -.332E-05 0.276E+00
   0.246E-02 -.631E-01 -.496E+03   -.419E-02 0.699E-01 0.496E+03   0.613E-02 -.750E-02 0.298E+00
   0.163E-04 0.401E-01 0.498E+03   -.121E-05 -.412E-01 -.498E+03   -.126E-04 0.109E-02 -.952E-01
   -.766E-01 -.246E-04 0.498E+03   0.747E-01 0.164E-04 -.498E+03   0.264E-02 0.110E-04 -.959E-01
   -.828E-05 -.121E-04 0.151E+04   -.132E-05 0.360E-05 -.151E+04   0.361E-05 0.153E-04 0.315E+01
   -.634E-02 -.139E-02 0.151E+04   0.650E-02 0.153E-02 -.151E+04   -.206E-03 -.176E-03 0.315E+01
   -.461E-05 0.397E+00 -.151E+04   0.715E-05 -.395E+00 0.152E+04   0.416E-05 -.831E-02 -.441E+01
   -.951E-01 -.231E-05 -.151E+04   0.122E+00 0.612E-05 0.152E+04   -.316E-01 -.411E-05 -.446E+01
   -.703E-05 -.898E-05 -.496E+03   0.960E-05 0.920E-05 0.496E+03   -.134E-05 0.327E-05 0.287E+00
   -.244E-02 0.631E-01 -.496E+03   0.417E-02 -.699E-01 0.496E+03   -.613E-02 0.750E-02 0.298E+00
   0.132E-04 -.401E-01 0.498E+03   -.897E-06 0.412E-01 -.498E+03   -.142E-04 -.109E-02 -.952E-01
   0.118E-01 0.264E-04 0.498E+03   -.141E-01 -.155E-04 -.498E+03   0.270E-02 -.118E-04 -.927E-01
   0.239E-05 0.113E-04 0.151E+04   -.819E-06 -.359E-05 -.151E+04   -.172E-05 -.104E-04 0.315E+01
   -.632E-02 0.138E-02 0.151E+04   0.650E-02 -.153E-02 -.151E+04   -.228E-03 0.175E-03 0.315E+01
   -.108E-04 -.397E+00 -.151E+04   0.110E-04 0.395E+00 0.152E+04   -.291E-05 0.831E-02 -.441E+01
   0.454E+00 -.401E-05 -.151E+04   -.425E+00 0.336E-05 0.152E+04   -.498E-01 0.256E-05 -.445E+01
   -.132E-04 0.108E-04 -.497E+03   0.171E-04 -.102E-04 0.496E+03   -.296E-05 -.398E-05 0.274E+00
   -.246E-02 -.630E-01 -.496E+03   0.419E-02 0.699E-01 0.496E+03   -.613E-02 -.751E-02 0.298E+00
   0.601E-05 -.155E-04 0.160E+02   0.174E-12 -.209E-13 -.568E-11   -.338E-04 0.744E-05 -.140E+02

 POSITION                                       TOTAL-FORCE (eV/Angst)
      0.00000      6.40959      7.50000        -0.000001      0.000043      0.628243
      2.13653      0.00000      7.50000        -0.000031     -0.000007      0.628008
      0.00000      0.00000      9.63653        -0.000002      0.000007      0.026022
      2.13653      6.40959      9.63653        -0.000611      0.000348      0.023616
      0.00000      6.41000     11.78469        -0.000005      0.000162     -0.003321
      2.13659      0.00000     11.78469        -0.006106      0.000002     -0.010308
      8.54611      8.54611     13.91023         0.000001     -0.000004     -0.273613
      2.13763      6.40998     13.90585        -0.018281     -0.004087     -0.254247
      0.00000      2.13653      7.50000        -0.000000     -0.000039      0.628136
      2.13653      4.27306      7.50000        -0.000033      0.000000      0.627988
      0.00000      4.27306      9.63653        -0.000001     -0.000005      0.024942
      2.13653      2.13653      9.63653        -0.000618     -0.000349      0.023619
      0.00000      2.13611     11.78469         0.000000     -0.000165     -0.003340
      2.13612      4.27306     11.78419         0.001653      0.000000     -0.006194
      0.00000      4.27306     13.90674        -0.000001      0.000002     -0.250649
      2.13763      2.13613     13.90585        -0.018275      0.004088     -0.254249
      4.27306      6.40959      7.50000         0.000003      0.000031      0.628091
      6.40959      0.00000      7.50000         0.000025     -0.000006      0.628090
      4.27306      0.00000      9.63653         0.000003      0.000000      0.022658
      6.40959      6.40959      9.63653         0.000607      0.000343      0.023599
      4.27306      6.40979     11.78451         0.000002     -0.004618     -0.016658
      6.40953      0.00000     11.78469         0.006106      0.000002     -0.010289
      4.27306      8.54611     13.90742         0.000003      0.000004     -0.266945
      6.40848      6.40998     13.90585         0.018279     -0.004087     -0.254238
      4.27306      2.13653      7.50000         0.000001     -0.000030      0.628085
      6.40959      4.27306      7.50000         0.000025      0.000005      0.628024
      4.27306      4.27306      9.63653         0.000001      0.000007      0.025067
      6.40959      2.13653      9.63653         0.000617     -0.000347      0.023614
      4.27306      2.13632     11.78451        -0.000001      0.004612     -0.016651
      6.40999      4.27306     11.78419        -0.001653      0.000001     -0.006181
      4.27306      4.27306     13.90874        -0.000001     -0.000004     -0.283285
      6.40848      2.13613     13.90585         0.018274      0.004087     -0.254253
      0.00000      6.40959      9.63653        -0.000000      0.001014      0.039826
      2.13653      0.00000      9.63653        -0.001138      0.000005      0.040735
      0.00000      0.00000      7.50000         0.000010      0.000003     -0.274163
      2.13653      6.40959      7.50000         0.000076     -0.000048     -0.274130
      0.00000      6.40945     13.94920        -0.000007      0.006879     -0.170982
      2.13658      8.54611     13.94889         0.009111      0.000011     -0.166431
      0.00000      0.00000     11.77961         0.000001      0.000000      0.005940
      2.13596      6.40964     11.77820         0.005389      0.001625      0.013569
      0.00000      2.13653      9.63653         0.000004     -0.001012      0.039820
      2.13653      4.27306      9.63653        -0.000746     -0.000006      0.039710
      0.00000      4.27306      7.50000         0.000005     -0.000006     -0.274125
      2.13653      2.13653      7.50000         0.000077      0.000053     -0.274127
      8.54611      2.13666     13.94920         0.000004     -0.006878     -0.170991
      2.13486      4.27306     13.94796         0.028232     -0.000008     -0.163580
      0.00000      4.27306     11.77851        -0.000001     -0.000001      0.007977
      2.13596      2.13647     11.77820         0.005388     -0.001627      0.013570
      4.27306      6.40959      9.63653         0.000002      0.000195      0.040228
      6.40959      0.00000      9.63653         0.001138      0.000005      0.040736
      4.27306      0.00000      7.50000        -0.000006      0.000009     -0.274172
      6.40959      6.40959      7.50000        -0.000076     -0.000059     -0.274094
      4.27306      6.41025     13.94491         0.000008     -0.008623     -0.145030
      6.40953      8.54611     13.94889        -0.009114     -0.000001     -0.166426
      4.27306      0.00000     11.77757         0.000001      0.000004      0.021240
      6.41016      6.40964     11.77820        -0.005383      0.001627      0.013576
      4.27306      2.13653      9.63653        -0.000003     -0.000199      0.040222
      6.40959      4.27306      9.63653         0.000747     -0.000002      0.039709
      4.27306      4.27306      7.50000        -0.000000     -0.000004     -0.274124
      6.40959      2.13653      7.50000        -0.000082      0.000055     -0.274108
      4.27306      2.13586     13.94491        -0.000003      0.008621     -0.145019
      6.41126      4.27306     13.94796        -0.028230      0.000003     -0.163578
      4.27306      4.27306     11.77791         0.000001     -0.000004      0.021275
      6.41016      2.13647     11.77820        -0.005387     -0.001625      0.013566
    total drift:                               -0.000028     -0.000007      0.001901

  FREE ENERGIE OF THE ION-ELECTRON SYSTEM (eV)
  free  energy   TOTEN  =      -437.15740990 eV

  energy  without entropy=     -437.15740990  energy(sigma->0) =     -437.15740990