 vasp.6.4.2 20Jul23 (build Nov 17 2023 15:39:20) complex
 executed on              LinuxNV date 2024.02.25  09:48:03
 OpenACC runtime initialized ...    4 GPUs detected

 INCAR:
   SYSTEM = Oxide-Surface
   ISMEAR = 0
   SIGMA = 0.05
   EDIFF = 1E-4
   ALGO = Normal
   ISTART = 2
   IBRION = -1
   NSW = 0
   ISYM = 0
   DIPOL = 0.5 0.5 0.5
   IDIPOL = 3
   LDIPOL = .TRUE.
   LHFCALC = .TRUE.
   HFSCREEN = 0.2
   GGA = PE
   ENCUT = 450
   PREC = Normal
   LASPH = .TRUE.
   LREAL = Auto
   ISPIN = 1
   NELM = 200
   NELMIN = 8
   NCORE = 1
   KPAR = 1
   LWAVE = .FALSE.
   LCHARG = .FALSE.

 POTCAR:    PAW_PBE C 08Apr2002
 POTCAR:    PAW_PBE O 08Apr2002
 POTCAR:    PAW_PBE Ti_pv 07Sep2000
 POTCAR:    PAW_PBE O 08Apr2002
 POTCAR:    PAW_PBE C 08Apr2002
   VRHFIN =C: s2p2

   TITEL  = PAW_PBE C 08Apr2002
   POMASS =   12.011; ZVAL   =    4.000    mass and valenz
   ENMAX  =  400.000; ENMIN  =  300.000 eV

[...]

   TITEL  = PAW_PBE Ti_pv 07Sep2000
   POMASS =   47.880; ZVAL   =   10.000    mass and valenz
   ENMAX  =  222.335; ENMIN  =  166.751 eV

   TITEL  = PAW_PBE O 08Apr2002
   POMASS =   16.000; ZVAL   =    6.000    mass and valenz
   ENMAX  =  400.000; ENMIN  =  300.000 eV

 Optimization of the real space projectors (new method)

 maximal supplied QI-value         = 25.13
 optimisation between [QCUT,QGAM] = [ 10.81, 21.61] = [ 32.71,130.83] Ry
 Optimized for a Real-space Cutoff    1.23 Angstroem

   l    n(q)    QCUT    max X(q) W(low)/X(q) W(high)/X(q)  e(spline)
   0      8    10.807   115.676    0.36E-03    0.72E-03    0.24E-06
   0      8    10.807    87.132    0.35E-03    0.71E-03    0.24E-06
   1      7    10.807     4.429    0.19E-03    0.39E-03    0.11E-06
   1      7    10.807     2.733    0.14E-03    0.28E-03    0.13E-06
 Optimization of the real space projectors (new method)

[...]

   l    n(q)    QCUT    max X(q) W(low)/X(q) W(high)/X(q)  e(spline)
   1      9    10.734     4.216    0.90E-04    0.17E-04    0.73E-07
   1      9    10.734     5.422    0.20E-03    0.95E-04    0.21E-06
   2      9    10.734    72.084    0.40E-03    0.60E-03    0.19E-06
   2      9    10.734    65.965    0.40E-03    0.59E-03    0.19E-06
   0      9    10.734    41.531    0.93E-04    0.36E-04    0.17E-06
   0      9    10.734    16.290    0.71E-04    0.26E-04    0.13E-06
 Optimization of the real space projectors (new method)

 maximal supplied QI-value         = 24.76
 optimisation between [QCUT,QGAM] = [ 10.64, 21.54] = [ 31.73,129.89] Ry
 Optimized for a Real-space Cutoff    1.23 Angstroem

   l    n(q)    QCUT    max X(q) W(low)/X(q) W(high)/X(q)  e(spline)
   0      8    10.645    20.381    0.38E-03    0.60E-03    0.15E-06
   0      8    10.645    15.268    0.40E-03    0.65E-03    0.17E-06
   1      7    10.645     5.964    0.30E-03    0.63E-03    0.18E-06
   1      7    10.645     5.382    0.24E-03    0.53E-03    0.16E-06
  PAW_PBE C 08Apr2002                   :
  PAW_PBE O 08Apr2002                   :
  PAW_PBE Ti_pv 07Sep2000               :
  PAW_PBE O 08Apr2002                   :

 POSCAR:  C  O Ti  O
  positions in direct lattice
 exchange correlation table for  LEXCH =        8
   RHO(1)=    0.500       N(1)  =     2000
   RHO(2)=  100.500       N(2)  =     4000

 ion  position               nearest neighbor table
   1  0.421  0.500  0.818-   2 1.17   3 1.19
   2  0.360  0.500  0.847-   1 1.17
   3  0.486  0.500  0.791-   1 1.19  83 2.50
   4  0.750  0.625  0.287-  85 1.95 145 1.95 144 1.95  84 1.95  87 1.98 166 1.98  14 2.96  34 2.96

   5  0.000  0.750  0.287-  86 1.95  87 1.95 106 1.95 107 1.95  88 1.98  35 2.96  15 2.96
   6  0.000  0.625  0.394-  88 1.95 148 1.95  89 1.95 149 1.95  90 1.98  91 1.98  16 2.96  36 2.96

[...]

  84  0.750  0.750  0.245-   4 1.95  14 1.95
  85  0.750  0.750  0.329-   4 1.95  14 1.95   7 1.98
  86  0.098  0.625  0.287-   5 1.95  35 1.95  44 1.98
  87  0.902  0.625  0.287-   5 1.95  35 1.95   4 1.98
  88  0.000  0.750  0.352-   6 1.95  16 1.95   5 1.98
  89  0.000  0.750  0.435-   6 1.95  16 1.95   9 1.98
  90  0.848  0.625  0.394-   7 1.95  37 1.95   6 1.98
  91  0.152  0.625  0.394-  47 1.95  77 1.95   6 1.98
  92  0.750  0.750  0.458-   8 1.95  18 1.95   7 1.98
  93  0.750  0.750  0.542-   8 1.95  18 1.95  11 2.11
  94  0.098  0.625  0.500-   9 1.95  39 1.95  48 1.98
  95  0.902  0.625  0.500-   9 1.95  39 1.95   8 1.98
  96  1.000  0.750  0.565-  20 1.89  10 1.90   9 2.00
  97  0.000  0.750  0.649-  13 1.81  10 2.02  20 2.02
  98  0.850  0.625  0.607-  10 1.95  11 1.97  41 1.97
  99  0.150  0.625  0.607-  10 1.95  51 1.97  81 1.97
 100  0.750  0.750  0.672-  11 1.86  22 2.10  12 2.10
 101  0.750  0.750  0.756-  12 1.83  22 1.83
 102  0.094  0.625  0.719-  43 1.95  13 1.95  52 2.02
 103  0.906  0.625  0.719-  43 1.94  13 1.95  12 2.03
 104  0.750  0.000  0.245-  14 1.95  24 1.95
 105  0.750  0.000  0.329-  14 1.95  24 1.95  17 1.98
 106  0.098  0.875  0.287-   5 1.95  15 1.95  54 1.98
 107  0.902  0.875  0.287-   5 1.95  15 1.95  14 1.98
 108  0.000  0.000  0.352-  16 1.95  26 1.95  15 1.98
 109  0.000  0.000  0.435-  16 1.95  26 1.95  19 1.98
 110  0.848  0.875  0.394-   7 1.95  17 1.95  16 1.98
 111  0.152  0.875  0.394-  47 1.95  57 1.95  16 1.98
 112  0.750  0.000  0.458-  18 1.95  28 1.95  17 1.98
 113  0.750  0.000  0.542-  18 1.95  28 1.95  21 2.11
 114  0.098  0.875  0.500-   9 1.95  19 1.95  58 1.98
 115  0.902  0.875  0.500-   9 1.95  19 1.95  18 1.98
 116  1.000  0.000  0.565-  30 1.90  20 1.90  19 2.00
 117  0.000  0.000  0.649-  23 1.81  30 2.02  20 2.02
 118  0.850  0.875  0.607-  20 1.95  21 1.97  11 1.98
 119  0.150  0.875  0.607-  20 1.95  61 1.97  51 1.97
 120  0.750  0.000  0.672-  21 1.86  32 2.10  22 2.10
 121  0.750  0.000  0.756-  32 1.83  22 1.83
 122  0.094  0.875  0.719-  13 1.95  23 1.95  62 2.03
 123  0.906  0.875  0.719-  13 1.94  23 1.95  22 2.03
 124  0.750  0.250  0.245-  24 1.95  34 1.95
 125  0.750  0.250  0.329-  24 1.95  34 1.95  27 1.98
 126  0.098  0.125  0.287-  15 1.95  25 1.95  64 1.98
 127  0.902  0.125  0.287-  15 1.95  25 1.95  24 1.98
 128  0.000  0.250  0.352-  26 1.95  36 1.95  25 1.98
 129  0.000  0.250  0.435-  26 1.95  36 1.95  29 1.98
 130  0.848  0.125  0.394-  17 1.95  27 1.95  26 1.98
 131  0.152  0.125  0.394-  57 1.95  67 1.95  26 1.98
 132  0.750  0.250  0.458-  28 1.95  38 1.95  27 1.98
 133  0.750  0.250  0.542-  28 1.95  38 1.95  31 2.11
 134  0.098  0.125  0.500-  19 1.95  29 1.95  68 1.98
 135  0.902  0.125  0.500-  19 1.95  29 1.95  28 1.98
 136  1.000  0.250  0.565-  30 1.89  40 1.90  29 2.00
 137  0.000  0.250  0.649-  33 1.81  40 2.02  30 2.02
 138  0.850  0.125  0.607-  30 1.95  21 1.97  31 1.98
 139  0.150  0.125  0.607-  30 1.95  61 1.97  71 1.97
 140  0.750  0.250  0.672-  31 1.86  32 2.10  42 2.10
 141  0.750  0.250  0.756-  42 1.83  32 1.83
 142  0.094  0.125  0.719-  33 1.95  23 1.95  72 2.03
 143  0.906  0.125  0.719-  33 1.94  23 1.95  32 2.03
[...]
 229  0.500  0.500  0.435-  46 1.95  76 1.95  79 1.98
 230  0.348  0.375  0.394-  67 1.95  77 1.95  76 1.98
 231  0.652  0.375  0.394-  27 1.95  37 1.95  76 1.98
 232  0.250  0.500  0.458-  48 1.95  78 1.95  77 1.98
 233  0.250  0.500  0.542-  48 1.95  78 1.95  81 2.10
 234  0.598  0.375  0.500-  69 1.95  79 1.95  38 1.98
 235  0.402  0.375  0.500-  69 1.95  79 1.95  78 1.98
 236  0.500  0.500  0.566-  50 1.90  80 1.90  79 2.00
 237  0.500  0.500  0.650-  83 1.83  80 2.01  50 2.01
 238  0.350  0.375  0.607-  80 1.95  81 1.97  71 1.97
 239  0.650  0.375  0.607-  80 1.95  31 1.97  41 1.97
 240  0.248  0.500  0.671-  81 1.86  82 2.10  52 2.10
 241  0.253  0.500  0.756-  52 1.84  82 1.84
 242  0.594  0.374  0.718-  73 1.94  83 1.95  42 2.02
 243  0.405  0.373  0.717-  73 1.93  83 1.95  82 2.03

IMPORTANT INFORMATION: All symmetrisations will be switched off!
NOSYMM: (Re-)initialisation of all symmetry stuff for point group C_1.

                                     Primitive cell

  volume of cell :    4700.2961

  direct lattice vectors                    reciprocal lattice vectors
    13.003980404  0.000000000  0.000000000     0.076899531  0.000000000  0.000000000
     0.000000000 11.830378115  0.000000000     0.000000000  0.084528152  0.000000000
     0.000000000  0.000000000 30.552748813     0.000000000  0.000000000  0.032730279

  length of vectors
    13.003980404 11.830378115 30.552748813     0.076899531  0.084528152  0.032730279

  position of ions in fractional coordinates (direct lattice)
     0.421224201  0.499999963  0.818387433
     0.360265699  0.499999957  0.846570376
     0.486261671  0.499999960  0.791204282
     0.750000000  0.625000000  0.287188045
     0.000000000  0.750000000  0.287188045
     0.000000000  0.625000000  0.393594023
     0.750000000  0.750000000  0.393594023
     0.750000000  0.625000000  0.500000000
     0.000000000  0.750000000  0.500000000
     0.000030263  0.625021955  0.604127154
     0.750032362  0.749971388  0.610746625
     0.749731784  0.625029289  0.720403779
     0.999935195  0.750136607  0.708197468
     0.750000000  0.875000000  0.287188045
     0.000000000  0.000000000  0.287188045
     0.000000000  0.875000000  0.393594023
     0.750000000  0.000000000  0.393594023
     0.750000000  0.875000000  0.500000000
     0.000000000  0.000000000  0.500000000
     0.999920704  0.875024125  0.604160308
     0.749949659  0.000000003  0.610754269
     0.749816754  0.875046716  0.720461943
     0.000203576  0.000000001  0.708205577
     0.750000000  0.125000000  0.287188045
     0.000000000  0.250000000  0.287188045
     0.000000000  0.125000000  0.393594023
     0.750000000  0.250000000  0.393594023
     0.750000000  0.125000000  0.500000000
     0.000000000  0.250000000  0.500000000
     0.999920802  0.124975870  0.604160311
     0.750032509  0.250028638  0.610746624
     0.749816769  0.124953279  0.720461940
     0.999935200  0.249863407  0.708197468
     0.750000000  0.375000000  0.287188045
     0.000000000  0.500000000  0.287188045
     0.000000000  0.375000000  0.393594023
     0.750000000  0.500000000  0.393594023
     0.750000000  0.375000000  0.500000000
     0.000000000  0.500000000  0.500000000
     0.000030398  0.374978044  0.604127149
     0.750097307  0.500000000  0.610773780
     0.749731785  0.374970706  0.720403779
     0.999542300  0.500000003  0.708167157
     0.250000000  0.625000000  0.287188045
     0.500000000  0.750000000  0.287188045
     0.500000000  0.625000000  0.393594023
     0.250000000  0.750000000  0.393594023
     0.250000000  0.625000000  0.500000000
     0.500000000  0.750000000  0.500000000
     0.500031638  0.624340840  0.604661207
     0.249948918  0.750119636  0.610607905
     0.249451412  0.625320990  0.719923266
     0.500143258  0.750053202  0.707770089
     0.250000000  0.875000000  0.287188045
     0.500000000  0.000000000  0.287188045
     0.500000000  0.875000000  0.393594023
     0.250000000  0.000000000  0.393594023
     0.250000000  0.875000000  0.500000000
     0.500000000  0.000000000  0.500000000
     0.500105643  0.874698160  0.603798456
[...]
     0.500000000  0.500000000  0.435304973
     0.347999548  0.375000000  0.393594023
     0.652000452  0.375000000  0.393594023
     0.250000000  0.500000000  0.458289049
[...]
   0.165E+03 0.242E-04 -.212E+04   -.211E+03 -.205E-04 0.217E+04   0.407E+02 0.680E-05 -.431E+02   0.132E-02 -.102E-04 -.184E+00
   -.201E+03 0.145E-04 -.232E+04   0.246E+03 -.116E-04 0.228E+04   -.404E+02 0.489E-05 0.347E+02   -.357E-02 -.744E-05 -.215E+00
   -.216E+00 -.803E-01 0.379E+04   0.215E+00 0.804E-01 -.380E+04   0.211E-03 -.259E-04 0.584E+00   0.109E-04 0.530E-04 0.330E+00
   0.143E+00 -.117E+00 0.397E+04   -.143E+00 0.117E+00 -.397E+04   0.129E-03 -.116E-04 -.420E+01   0.366E-04 -.114E-04 0.329E+00
   0.211E+00 -.120E+00 0.194E+04   -.215E+00 0.120E+00 -.194E+04   0.689E-03 -.123E-04 -.105E+00   0.102E-03 0.402E-04 0.219E+00
   -.315E+00 -.118E+00 0.193E+04   0.313E+00 0.118E+00 -.193E+04   0.560E-03 -.101E-03 0.230E+00   0.679E-04 0.233E-04 0.225E+00
   -.119E+01 -.429E+00 0.126E+02   0.118E+01 0.427E+00 -.117E+02   0.310E-02 0.252E-03 -.165E+00   0.270E-03 0.691E-04 0.508E-01
   0.842E+00 -.889E+00 0.233E+02   -.852E+00 0.895E+00 -.246E+02   0.238E-02 -.194E-02 0.392E+00   0.118E-03 0.513E-04 0.508E-01
   0.415E+01 -.268E+01 -.185E+04   -.415E+01 0.269E+01 0.185E+04   0.538E-05 -.258E-02 0.174E+00   0.181E-03 0.144E-03 -.141E+00
   -.807E+01 -.579E+01 -.191E+04   0.806E+01 0.579E+01 0.191E+04   -.226E-02 -.107E-02 -.260E+00   0.650E-03 0.432E-03 -.155E+00
   -.497E+02 -.200E+02 -.373E+04   0.497E+02 0.201E+02 0.373E+04   0.275E-01 -.850E-02 -.469E+00   0.166E-02 0.106E-02 -.311E+00
   0.938E+01 -.103E+02 -.376E+04   -.940E+01 0.103E+02 0.376E+04   0.213E-01 -.112E-01 0.124E+01   0.484E-03 0.401E-03 -.300E+00
   -.210E+00 -.801E-01 0.379E+04   0.210E+00 0.803E-01 -.380E+04   0.268E-03 -.536E-05 0.583E+00   -.355E-04 -.474E-04 0.330E+00
   0.135E+00 0.174E-04 0.397E+04   -.136E+00 -.766E-07 -.397E+04   0.123E-03 -.809E-06 -.420E+01   0.860E-04 -.189E-04 0.329E+00
   0.183E+00 -.121E+00 0.194E+04   -.186E+00 0.121E+00 -.194E+04   0.540E-03 -.268E-04 -.105E+00   0.979E-04 -.459E-04 0.219E+00
   -.351E+00 0.482E-05 0.193E+04   0.348E+00 0.164E-06 -.193E+04   0.682E-03 -.148E-05 0.230E+00   0.734E-04 -.291E-05 0.225E+00
   -.159E+01 -.428E+00 0.117E+02   0.159E+01 0.429E+00 -.108E+02   0.190E-02 -.811E-04 -.165E+00   0.280E-03 0.713E-04 0.509E-01
   0.629E+00 -.213E-04 0.223E+02   -.635E+00 -.489E-05 -.236E+02   0.129E-02 -.195E-05 0.391E+00   0.102E-03 0.326E-04 0.509E-01
   0.217E+01 -.257E+01 -.185E+04   -.217E+01 0.257E+01 0.185E+04   -.739E-03 -.461E-02 0.179E+00   0.149E-03 0.106E-03 -.141E+00
   -.628E+01 -.372E-04 -.192E+04   0.627E+01 0.150E-04 0.192E+04   0.865E-02 -.107E-05 -.252E+00   0.447E-03 0.255E-04 -.155E+00
   -.204E+02 -.143E+02 -.375E+04   0.204E+02 0.143E+02 0.375E+04   0.382E-01 0.241E-02 -.466E+00   0.678E-03 0.405E-03 -.310E+00
   0.610E+01 -.125E-05 -.377E+04   -.611E+01 0.162E-04 0.377E+04   -.178E-02 0.165E-05 0.126E+01   0.403E-03 -.188E-04 -.299E+00
   -.210E+00 0.801E-01 0.379E+04   0.210E+00 -.803E-01 -.380E+04   0.265E-03 0.963E-05 0.583E+00   -.442E-04 0.574E-04 0.330E+00
   0.143E+00 0.117E+00 0.397E+04   -.143E+00 -.117E+00 -.397E+04   0.130E-03 0.144E-04 -.420E+01   0.475E-04 0.402E-04 0.329E+00
   0.183E+00 0.121E+00 0.194E+04   -.186E+00 -.121E+00 -.194E+04   0.546E-03 0.281E-04 -.105E+00   0.756E-04 0.364E-04 0.219E+00
   -.315E+00 0.118E+00 0.193E+04   0.313E+00 -.118E+00 -.193E+04   0.557E-03 0.102E-03 0.230E+00   0.113E-03 -.558E-05 0.225E+00
   -.159E+01 0.428E+00 0.117E+02   0.159E+01 -.429E+00 -.108E+02   0.189E-02 0.832E-04 -.165E+00   0.300E-03 -.800E-04 0.509E-01
   0.842E+00 0.889E+00 0.233E+02   -.852E+00 -.895E+00 -.246E+02   0.238E-02 0.194E-02 0.392E+00   0.170E-03 -.796E-04 0.508E-01
   0.217E+01 0.257E+01 -.185E+04   -.217E+01 -.257E+01 0.185E+04   -.735E-03 0.461E-02 0.179E+00   0.125E-03 -.103E-03 -.141E+00
   -.807E+01 0.579E+01 -.191E+04   0.806E+01 -.579E+01 0.191E+04   -.226E-02 0.107E-02 -.260E+00   0.660E-03 -.440E-03 -.155E+00
   -.204E+02 0.143E+02 -.375E+04   0.204E+02 -.143E+02 0.375E+04   0.382E-01 -.241E-02 -.466E+00   0.660E-03 -.467E-03 -.310E+00
   0.938E+01 0.103E+02 -.376E+04   -.940E+01 -.103E+02 0.376E+04   0.213E-01 0.112E-01 0.124E+01   0.507E-03 -.378E-03 -.300E+00
   -.216E+00 0.803E-01 0.379E+04   0.215E+00 -.804E-01 -.380E+04   0.206E-03 0.214E-04 0.584E+00   0.258E-04 -.618E-04 0.330E+00
   0.150E+00 0.898E-05 0.397E+04   -.151E+00 0.795E-07 -.397E+04   0.136E-03 -.608E-06 -.420E+01   0.759E-05 -.848E-05 0.329E+00
   0.211E+00 0.120E+00 0.194E+04   -.215E+00 -.120E+00 -.194E+04   0.693E-03 0.116E-04 -.105E+00   0.690E-04 -.308E-04 0.219E+00
   -.280E+00 0.126E-04 0.193E+04   0.278E+00 -.137E-06 -.193E+04   0.386E-03 -.245E-06 0.230E+00   0.960E-04 -.147E-04 0.225E+00
   -.119E+01 0.429E+00 0.126E+02   0.118E+01 -.427E+00 -.117E+02   0.310E-02 -.255E-03 -.165E+00   0.276E-03 -.598E-04 0.508E-01
   0.102E+01 -.771E-05 0.242E+02   -.104E+01 0.598E-05 -.255E+02   0.345E-02 0.247E-06 0.391E+00   0.186E-03 -.133E-05 0.507E-01
   0.415E+01 0.268E+01 -.185E+04   -.415E+01 -.269E+01 0.185E+04   0.949E-05 0.258E-02 0.174E+00   0.166E-03 -.149E-03 -.141E+00
   -.103E+02 -.385E-04 -.191E+04   0.103E+02 0.546E-04 0.191E+04   0.733E-02 0.690E-06 -.272E+00   0.833E-03 -.175E-04 -.155E+00
   -.497E+02 0.200E+02 -.373E+04   0.497E+02 -.201E+02 0.373E+04   0.275E-01 0.851E-02 -.469E+00   0.161E-02 -.998E-03 -.311E+00
   0.141E+02 -.335E-05 -.376E+04   -.141E+02 0.274E-05 0.376E+04   0.278E-01 0.234E-06 0.122E+01   0.516E-03 -.965E-06 -.300E+00
   0.216E+00 -.921E-01 0.379E+04   -.216E+00 0.924E-01 -.380E+04   -.212E-03 -.399E-04 0.584E+00   -.711E-06 -.166E-04 0.330E+00
   -.143E+00 -.126E+00 0.397E+04   0.144E+00 0.126E+00 -.397E+04   -.130E-03 -.577E-04 -.420E+01   -.183E-04 0.577E-05 0.329E+00
   -.209E+00 -.578E-01 0.194E+04   0.212E+00 0.648E-01 -.194E+04   -.671E-03 -.138E-02 -.106E+00   -.709E-04 -.250E-04 0.219E+00
   0.313E+00 -.162E+00 0.193E+04   -.310E+00 0.164E+00 -.193E+04   -.566E-03 -.909E-04 0.233E+00   -.146E-03 -.298E-04 0.225E+00
   0.109E+01 -.722E+00 0.147E+02   -.108E+01 0.733E+00 -.138E+02   -.287E-02 -.124E-02 -.158E+00   -.332E-03 0.107E-03 0.507E-01
   -.821E+00 -.449E+00 0.261E+02   0.829E+00 0.415E+00 -.273E+02   -.118E-02 0.171E-01 0.368E+00   -.933E-04 0.908E-04 0.506E-01
   -.376E+01 -.640E+01 -.183E+04   0.377E+01 0.643E+01 0.183E+04   -.617E-02 0.656E-02 0.171E+00   -.190E-03 0.310E-03 -.143E+00
   0.761E+01 -.766E+01 -.191E+04   -.761E+01 0.767E+01 0.191E+04   0.834E-02 -.757E-02 -.278E+00   -.627E-03 0.383E-03 -.155E+00
   0.700E+02 -.360E+02 -.368E+04   -.700E+02 0.360E+02 0.368E+04   -.293E-01 0.267E-01 -.429E+00   -.126E-02 0.129E-02 -.309E+00
   -.169E+02 -.631E+02 -.371E+04   0.168E+02 0.632E+02 0.371E+04   0.221E-01 -.326E-02 0.138E+01   -.740E-03 0.189E-02 -.299E+00
   0.211E+00 -.919E-01 0.379E+04   -.210E+00 0.923E-01 -.380E+04   -.268E-03 -.651E-04 0.584E+00   -.118E-04 0.725E-05 0.330E+00
   -.135E+00 0.105E-04 0.397E+04   0.136E+00 0.711E-07 -.397E+04   -.122E-03 -.604E-06 -.420E+01   -.232E-04 -.124E-04 0.329E+00
   -.180E+00 -.614E-01 0.194E+04   0.183E+00 0.645E-01 -.194E+04   -.522E-03 -.825E-03 -.106E+00   -.449E-05 0.479E-04 0.219E+00
   0.348E+00 -.389E-04 0.193E+04   -.345E+00 -.486E-07 -.193E+04   -.671E-03 0.218E-05 0.232E+00   -.123E-03 0.418E-04 0.225E+00
   0.153E+01 -.781E+00 0.130E+02   -.152E+01 0.807E+00 -.121E+02   -.213E-02 -.254E-02 -.163E+00   -.269E-03 0.922E-04 0.509E-01
   -.604E+00 -.829E-05 0.269E+02   0.608E+00 0.106E-04 -.282E+02   -.509E-03 -.388E-06 0.368E+00   -.117E-03 -.259E-05 0.504E-01
   -.179E+01 -.828E+01 -.183E+04   0.180E+01 0.826E+01 0.183E+04   -.382E-02 0.637E-02 0.807E-01   -.170E-03 0.368E-03 -.140E+00
[...]
   -.530E+02 0.554E-01 0.116E+04   0.572E+02 -.565E-01 -.116E+04   -.342E+01 0.162E-02 0.167E+00   0.151E-03 -.582E-05 0.133E+00
   0.529E+02 0.404E-01 0.116E+04   -.571E+02 -.412E-01 -.116E+04   0.341E+01 0.100E-02 0.163E+00   -.197E-03 -.519E-05 0.133E+00
   0.360E+00 -.616E-06 0.513E+03   -.354E+00 0.734E-06 -.518E+03   -.689E-02 -.237E-05 0.402E+01   -.140E-03 0.946E-06 0.723E-01
   0.113E+01 -.433E-06 -.510E+03   -.112E+01 -.246E-05 0.518E+03   -.108E-01 -.290E-06 -.689E+01   -.280E-03 0.337E-05 -.149E-01
   -.557E+02 0.340E-01 0.145E+02   0.609E+02 -.385E-01 -.148E+02   -.508E+01 0.160E-01 0.318E+00   0.420E-03 -.455E-04 0.301E-01
   0.548E+02 0.132E+00 0.152E+02   -.599E+02 -.139E+00 -.155E+02   0.506E+01 0.184E-01 0.324E+00   -.509E-03 -.602E-04 0.301E-01
   -.133E+01 0.429E-04 -.610E+03   0.131E+01 -.578E-04 0.603E+03   0.116E-01 0.105E-04 0.639E+01   -.795E-04 0.479E-05 -.430E-01
   -.702E+01 -.580E-04 -.157E+04   0.714E+01 0.715E-04 0.157E+04   -.108E+00 -.270E-05 0.156E+01   -.189E-03 -.941E-05 -.130E+00
   -.245E+02 0.412E+01 -.111E+04   0.276E+02 -.418E+01 0.111E+04   -.285E+01 0.532E-01 0.797E+00   -.534E-03 -.176E-03 -.886E-01
   0.213E+02 0.296E+01 -.112E+04   -.244E+02 -.300E+01 0.112E+04   0.283E+01 0.347E-01 0.893E+00   0.480E-03 -.171E-03 -.886E-01
   0.230E+02 -.399E-04 -.178E+04   -.232E+02 0.367E-04 0.178E+04   0.205E+00 0.141E-05 -.220E+01   -.840E-03 0.106E-05 -.151E+00
   0.864E+02 0.532E-04 -.264E+04   -.863E+02 -.582E-04 0.266E+04   -.146E+00 0.126E-04 -.193E+02   -.841E-03 -.103E-04 -.208E+00
   -.648E+02 0.346E+02 -.228E+04   0.712E+02 -.344E+02 0.228E+04   -.582E+01 -.200E+00 -.341E+01   -.785E-03 -.132E-02 -.189E+00
   0.415E+02 0.476E+02 -.224E+04   -.480E+02 -.476E+02 0.224E+04   0.591E+01 -.318E-01 -.280E+01   -.231E-03 -.144E-02 -.188E+00
   -.182E+01 -.265E-04 0.106E+03   0.190E-11 0.867E-12 -.168E-10   0.165E+01 0.364E-04 -.100E+03   -.195E-02 -.207E-04 0.462E+01

 POSITION                                       TOTAL-FORCE (eV/Angst)
      5.47759      5.91519     25.00399        -0.200020     -0.000001      0.340956
      4.68489      5.91519     25.86505         1.254422      0.000001     -1.283017
      6.32334      5.91519     24.17347        -1.051153      0.000001      0.972865
      9.75299      7.39399      8.77438        -0.000458      0.000107     -4.026435
      0.00000      8.87278      8.77438        -0.000460      0.000099      3.245828
      0.00000      7.39399     12.02538        -0.002962      0.000309      0.564938
      9.75299      8.87278     12.02538        -0.001869      0.000593     -0.791486
      9.75299      7.39399     15.27637        -0.011259     -0.001627      0.795693
      0.00000      8.87278     15.27637        -0.007643      0.004285     -0.831538
      0.00039      7.39425     18.45775        -0.000253      0.001407     -0.002318
      9.75341      8.87245     18.65999        -0.002716     -0.001353      0.162336
      9.74950      7.39433     22.01032         0.002818      0.005695      0.385837
     13.00314      8.87440     21.63738        -0.004295      0.004753     -0.090400
      9.75299     10.35158      8.77438        -0.000582      0.000112     -4.026396
      0.00000      0.00000      8.77438        -0.000442     -0.000003      3.245873
      0.00000     10.35158     12.02538        -0.002489      0.000313      0.565391
      9.75299      0.00000     12.02538        -0.002212      0.000001     -0.791671
      9.75299     10.35158     15.27637        -0.006141      0.001554      0.795621
      0.00000      0.00000     15.27637        -0.004813      0.000005     -0.829745
     13.00295     10.35187     18.45876        -0.003302      0.001440     -0.001266
      9.75233      0.00000     18.66022        -0.002471      0.000002      0.160803
      9.75060     10.35213     22.01209         0.000673      0.000372      0.389962
      0.00265      0.00000     21.63763        -0.005054     -0.000003     -0.092458
      9.75299      1.47880      8.77438        -0.000582     -0.000108     -4.026397
      0.00000      2.95759      8.77438        -0.000458     -0.000095      3.245825
      0.00000      1.47880     12.02538        -0.002491     -0.000315      0.565388
      9.75299      2.95759     12.02538        -0.001864     -0.000590     -0.791484
      9.75299      1.47880     15.27637        -0.006138     -0.001557      0.795620
      0.00000      2.95759     15.27637        -0.007639     -0.004291     -0.831534
     13.00295      1.47851     18.45876        -0.003305     -0.001438     -0.001264
      9.75341      2.95793     18.65999        -0.002711      0.001352      0.162335
      9.75060      1.47824     22.01209         0.000673     -0.000378      0.389964
     13.00314      2.95598     21.63738        -0.004290     -0.004751     -0.090403
      9.75299      4.43639      8.77438        -0.000461     -0.000112     -4.026437
      0.00000      5.91519      8.77438        -0.000508     -0.000000      3.245787
      0.00000      4.43639     12.02538        -0.002963     -0.000306      0.564936
      9.75299      5.91519     12.02538        -0.001490     -0.000003     -0.791090
      9.75299      4.43639     15.27637        -0.011255      0.001627      0.795697
      0.00000      5.91519     15.27637        -0.010229     -0.000003     -0.833318
      0.00040      4.43613     18.45775        -0.000250     -0.001407     -0.002319
      9.75425      5.91519     18.66082        -0.004336     -0.000001      0.164424
      9.74950      4.43605     22.01032         0.002816     -0.005691      0.385838
     12.99803      5.91519     21.63645         0.002898     -0.000001     -0.088975
      3.25100      7.39399      8.77438         0.000532      0.000323     -4.028040
      6.50199      8.87278      8.77438         0.000533      0.000359      3.247579
      6.50199      7.39399     12.02538         0.002960      0.005627      0.569148
      3.25100      8.87278     12.02538         0.001953      0.001279     -0.800320
      3.25100      7.39399     15.27637         0.011744      0.009945      0.759523
      6.50199      8.87278     15.27637         0.006749     -0.016089     -0.783029
      6.50240      7.38619     18.47406         0.002479      0.002146     -0.000490
      3.25033      8.87420     18.65575         0.001868      0.000420      0.151394
      3.24386      7.39778     21.99563         0.008751      0.044541      0.343771
      6.50385      8.87341     21.62432         0.000574     -0.001718     -0.099860
      3.25100     10.35158      8.77438         0.000649      0.000367     -4.027662
      6.50199      0.00000      8.77438         0.000495     -0.000003      3.248002
      6.50199     10.35158     12.02538         0.002521      0.002328      0.572628
      3.25100      0.00000     12.02538         0.002315      0.000006     -0.798075
      3.25100     10.35158     15.27637         0.006793      0.024134      0.782007
      6.50199      0.00000     15.27637         0.004027     -0.000001     -0.855062
      6.50336     10.34801     18.44770         0.004059     -0.012617      0.002195
[...]
      6.50199      5.91519     13.29976        -0.001004     -0.000000     -0.290119
      4.52538      4.43639     12.02538         0.298801      0.000737      0.061865
      8.47860      4.43639     12.02538        -0.301919      0.000371      0.060703
      3.25100      5.91519     14.00199        -0.002130     -0.000002      0.054111
      3.25100      5.91519     16.55076         0.001276      0.000000     -0.225067
      7.77637      4.43639     15.27637        -0.734657      0.014274      0.103030
      5.22761      4.43639     15.27637         0.718404      0.014999      0.104495
      6.50147      5.91519     17.27907         0.000522      0.000002      0.199551
      6.50360      5.91519     19.84831        -0.002299      0.000001     -0.012201
      4.55183      4.43643     18.55534        -0.110263      0.000132      0.027673
      8.45191      4.43688     18.55396         0.106579      0.000772      0.025483
      3.23067      5.91519     20.51474        -0.001226     -0.000000     -0.043880
      3.29587      5.91519     23.08645        -0.042844     -0.000001     -0.585131
      7.72631      4.42656     21.93980        -0.307686     -0.016610     -0.046493
      5.26791      4.41716     21.91419         0.303693     -0.012361     -0.039885
    total drift:                               -0.007365     -0.000005     -0.487419

  FREE ENERGIE OF THE ION-ELECTRON SYSTEM (eV)
  free  energy   TOTEN  =     -2647.77850959 eV

  energy  without entropy=    -2647.77850959  energy(sigma->0) =    -2647.77850959

     |            E. Caldeweyher, S. Ehlert & S. Grimme          |
     |          Mulliken Center for Theoretical Chemistry        |
     |                    University of Bonn                     |

Rational (Becke-Johnson) damping: hse06-D4-ATM
  s6         1.0000
  s8         1.1953
  s9         1.0000
  a1         0.3866
  a2         5.1913
 alp        16.0000

Dispersion energy:      -1.4415253668638E+00 Eh