 vasp.6.3.0 20Jan22 (build Mar 11 2022 13:48:16) complex

 executed on             LinuxIFC date 2024.01.22  03:42:35

 INCAR:
   SYSTEM = TiO2
   ISMEAR = 0
   SIGMA = 0.05
   EDIFF = 1E-5
   ALGO = ALL
   ISTART = 0
   IBRION = -1
   NSW = 0
   ISYM = 0
   ISIF = 2
   EDIFFG = -0.01
   DIPOL = 0.5 0.5 0.5
   IDIPOL = 3
   LDIPOL = .TRUE.
   GGA = PE
   IVDW = 21
   LDAU = .TRUE.
   LDAUTYPE = 2
   LDAUL = 2 -1
   LDAUU = 4.2 0.0
   LDAUPRINT = 1
   LMAXMIX = 4
   ENCUT = 600
   PREC = Accurate
   LASPH = .TRUE.
   LREAL = .FALSE.
   ISPIN = 1
   NELM = 200
   NELMIN = 8
   NCORE = 2
   KPAR = 1
   LWAVE = .FALSE.
   LCHARG = .FALSE.

 POTCAR:    PAW_PBE Ti_pv 07Sep2000
 POTCAR:    PAW_PBE O 08Apr2002
|           W    W    AA    RRRRR   N    N  II  N    N   GGGG   !!!           |
|           W    W   A  A   R    R  NN   N  II  NN   N  G    G  !!!           |
|           W    W  A    A  R    R  N N  N  II  N N  N  G       !!!           |
|           W WW W  AAAAAA  RRRRR   N  N N  II  N  N N  G  GGG   !            |
|           WW  WW  A    A  R   R   N   NN  II  N   NN  G    G                |
|           W    W  A    A  R    R  N    N  II  N    N   GGGG   !!!           |
|     For optimal performance we recommend to set                             |
|       NCORE = 2 up to number-of-cores-per-socket                            |
|     This setting can greatly improve the performance of VASP for DFT.       |
|     The default, NCORE=1 might be grossly inefficient on modern             |
|     multi-core architectures or massively parallel machines. Do your        |
|     Unfortunately you need to use the default for GW and RPA                |
|     calculations (for HF NCORE is supported but not extensively tested      |
|     yet).                                                                   |

   TITEL  = PAW_PBE Ti_pv 07Sep2000
   POMASS =   47.880; ZVAL   =   10.000    mass and valenz
   ENMAX  =  222.335; ENMIN  =  166.751 eV

   TITEL  = PAW_PBE O 08Apr2002
   POMASS =   16.000; ZVAL   =    6.000    mass and valenz
   ENMAX  =  400.000; ENMIN  =  300.000 eV

  PAW_PBE Ti_pv 07Sep2000               :
  PAW_PBE O 08Apr2002                   :

 POSCAR: Ti  O
  positions in direct lattice
 exchange correlation table for  LEXCH =        8
   RHO(1)=    0.500       N(1)  =     2000
   RHO(2)=  100.500       N(2)  =     4000

 ion  position               nearest neighbor table
   1  0.750  0.625  0.285-  82 1.98 142 1.98 141 1.98  81 1.98  84 2.02 163 2.02  11 3.00  31 3.00

   2  0.000  0.750  0.285-  83 1.98  84 1.98 103 1.98 104 1.98  85 2.02  32 3.00  12 3.00
   3  0.000  0.625  0.393-  85 1.98 145 1.98  86 1.98 146 1.98  87 2.02  88 2.02  13 3.00  33 3.00

[...]

  80  0.501  0.500  0.710- 234 1.84 239 1.97 179 1.97 240 1.98 180 1.98  70 2.99  50 2.99
  81  0.750  0.750  0.243-   1 1.98  11 1.98
  82  0.750  0.750  0.327-   1 1.98  11 1.98   4 2.02
  83  0.098  0.625  0.285-   2 1.98  32 1.98  41 2.02
  84  0.902  0.625  0.285-   2 1.98  32 1.98   1 2.02
  85  0.000  0.750  0.351-   3 1.98  13 1.98   2 2.02
  86  0.000  0.750  0.434-   3 1.98  13 1.98   6 2.02
  87  0.848  0.625  0.393-   4 1.98  34 1.98   3 2.02
  88  0.152  0.625  0.393-  44 1.98  74 1.98   3 2.02
  89  0.750  0.750  0.458-   5 1.98  15 1.98   4 2.02
  90  0.750  0.750  0.542-   5 1.98  15 1.98   8 2.17
  91  0.098  0.625  0.500-   6 1.98  36 1.98  45 2.02
  92  0.902  0.625  0.500-   6 1.98  36 1.98   5 2.02
  93  1.000  0.750  0.566-  17 1.92   7 1.92   6 2.05
  94  0.000  0.750  0.651-  10 1.83   7 2.05  17 2.05
  95  0.850  0.625  0.608-   7 1.87  38 2.07   8 2.07
  96  0.151  0.625  0.608-  48 1.93  78 1.93   7 2.13
  97  0.750  0.750  0.673-   8 1.88   9 2.13  19 2.13
  98  0.750  0.750  0.758-   9 1.85  19 1.85
  99  0.094  0.625  0.721-  10 1.97  40 1.97  49 2.08
 100  0.907  0.625  0.721-  40 1.98  10 1.98   9 2.07
 101  0.750  0.000  0.243-  11 1.98  21 1.98
 102  0.750  0.000  0.327-  11 1.98  21 1.98  14 2.02
 103  0.098  0.875  0.285-   2 1.98  12 1.98  51 2.02
 104  0.902  0.875  0.285-   2 1.98  12 1.98  11 2.02
 105  0.000  0.000  0.351-  13 1.98  23 1.98  12 2.02
 106  0.000  0.000  0.434-  13 1.98  23 1.98  16 2.02
 107  0.848  0.875  0.393-   4 1.98  14 1.98  13 2.02
 108  0.152  0.875  0.393-  44 1.98  54 1.98  13 2.02
 109  0.750  0.000  0.458-  15 1.98  25 1.98  14 2.02
 110  0.750  0.000  0.542-  15 1.98  25 1.98  18 2.17
 111  0.098  0.875  0.500-   6 1.98  16 1.98  55 2.02
 112  0.902  0.875  0.500-   6 1.98  16 1.98  15 2.02
 113  0.000  1.000  0.566-  27 1.92  17 1.92  16 2.05
 114  0.000  0.000  0.651-  20 1.83  27 2.05  17 2.05
 115  0.850  0.875  0.608-  17 1.87  18 2.07   8 2.07
 116  0.151  0.875  0.608-  48 1.93  58 1.93  17 2.13
 117  0.750  0.000  0.673-  18 1.88  29 2.13  19 2.13
 118  0.751  0.000  0.758-  19 1.85  29 1.85
 119  0.094  0.875  0.721-  10 1.97  20 1.97  59 2.08
 120  0.907  0.875  0.721-  10 1.98  20 1.98  19 2.07
 121  0.750  0.250  0.243-  21 1.98  31 1.98
 122  0.750  0.250  0.327-  21 1.98  31 1.98  24 2.02
 123  0.098  0.125  0.285-  12 1.98  22 1.98  61 2.02
 124  0.902  0.125  0.285-  12 1.98  22 1.98  21 2.02
 125  0.000  0.250  0.351-  23 1.98  33 1.98  22 2.02
 126  0.000  0.250  0.434-  23 1.98  33 1.98  26 2.02
 127  0.848  0.125  0.393-  14 1.98  24 1.98  23 2.02
 128  0.152  0.125  0.393-  54 1.98  64 1.98  23 2.02
 129  0.750  0.250  0.458-  25 1.98  35 1.98  24 2.02
 130  0.750  0.250  0.542-  25 1.98  35 1.98  28 2.17
 131  0.098  0.125  0.500-  16 1.98  26 1.98  65 2.02
 132  0.902  0.125  0.500-  16 1.98  26 1.98  25 2.02
 133  0.000  0.250  0.566-  37 1.92  27 1.92  26 2.05
 134  0.000  0.250  0.651-  30 1.83  27 2.05  37 2.05
 135  0.850  0.125  0.608-  27 1.87  28 2.07  18 2.07
 136  0.151  0.125  0.608-  58 1.93  68 1.93  27 2.13
 137  0.750  0.250  0.673-  28 1.88  39 2.13  29 2.13
 138  0.750  0.250  0.758-  39 1.85  29 1.85
 139  0.094  0.125  0.721-  20 1.97  30 1.97  69 2.08
[...]
 226  0.500  0.500  0.434-  43 1.98  73 1.98  76 2.02
 227  0.348  0.375  0.393-  64 1.98  74 1.98  73 2.02
 228  0.652  0.375  0.393-  24 1.98  34 1.98  73 2.02
 229  0.250  0.500  0.458-  45 1.98  75 1.98  74 2.02
 230  0.250  0.500  0.542-  45 1.98  75 1.98  78 2.17
 231  0.598  0.375  0.500-  66 1.98  76 1.98  35 2.02
 232  0.402  0.375  0.500-  66 1.98  76 1.98  75 2.02
 233  0.500  0.500  0.566-  77 1.92  47 1.92  76 2.05
 234  0.500  0.500  0.651-  80 1.84  77 2.05  47 2.05
 235  0.350  0.375  0.608-  77 1.87  78 2.07  68 2.07
 236  0.651  0.375  0.608-  38 1.93  28 1.93  77 2.13
 237  0.250  0.500  0.673-  78 1.88  79 2.13  49 2.13
 238  0.251  0.500  0.757-  49 1.85  79 1.85
 239  0.594  0.375  0.720-  70 1.97  80 1.97  39 2.08
 240  0.407  0.375  0.721-  70 1.97  80 1.98  79 2.07

IMPORTANT INFORMATION: All symmetrisations will be switched off!
NOSYMM: (Re-)initialisation of all symmetry stuff for point group C_1.

                                     Primitive cell

  volume of cell :    4895.9617

  direct lattice vectors                    reciprocal lattice vectors
    13.251680751  0.000000000  0.000000000     0.075462126  0.000000000  0.000000000
     0.000000000 11.981436613  0.000000000     0.000000000  0.083462445  0.000000000
     0.000000000  0.000000000 30.836008487     0.000000000  0.000000000  0.032429619

  length of vectors
    13.251680751 11.981436613 30.836008487     0.075462126  0.083462445  0.032429619

  position of ions in fractional coordinates (direct lattice)
     0.750000000  0.625000000  0.285126523
     0.000000000  0.750000000  0.285126523
     0.000000000  0.625000000  0.392563261
     0.750000000  0.750000000  0.392563261
     0.750000000  0.625000000  0.500000000
     0.000000000  0.750000000  0.500000000
     0.990860722  0.625010312  0.605211217
     0.742984532  0.750001809  0.612102535
     0.750989427  0.625054114  0.722285544
     0.000805496  0.750059263  0.709966652
     0.750000000  0.875000000  0.285126523
     0.000000000  0.000000000  0.285126523
     0.000000000  0.875000000  0.392563261
     0.750000000  0.000000000  0.392563261
     0.750000000  0.875000000  0.500000000
     0.000000000  0.000000000  0.500000000
     0.990855767  0.875005284  0.605202357
     0.743033464  0.999998594  0.612136516
     0.750833206  0.875005954  0.722394568
     0.000763672  0.999999268  0.709961820
     0.750000000  0.125000000  0.285126523
     0.000000000  0.250000000  0.285126523
     0.000000000  0.125000000  0.392563261
     0.750000000  0.250000000  0.392563261
     0.750000000  0.125000000  0.500000000
     0.000000000  0.250000000  0.500000000
     0.990914333  0.124988265  0.605199383
     0.743116819  0.250008033  0.612107166
     0.750756218  0.125005460  0.722384311
     0.000722150  0.249936450  0.709950987
     0.750000000  0.375000000  0.285126523
     0.000000000  0.500000000  0.285126523
     0.000000000  0.375000000  0.392563261
     0.750000000  0.500000000  0.392563261
     0.750000000  0.375000000  0.500000000
     0.000000000  0.500000000  0.500000000
     0.990953166  0.374996140  0.605194993
     0.743080127  0.499995664  0.612096310
     0.750910787  0.374944737  0.722288471
     0.000764450  0.500001086  0.709968481
     0.250000000  0.625000000  0.285126523
     0.500000000  0.750000000  0.285126523
     0.500000000  0.625000000  0.392563261
     0.250000000  0.750000000  0.392563261
     0.250000000  0.625000000  0.500000000
     0.500000000  0.750000000  0.500000000
     0.490850053  0.624913445  0.605311704
     0.242944062  0.750022121  0.612106072
     0.250874750  0.625057540  0.722296602
     0.500809930  0.749926844  0.709931604
     0.250000000  0.875000000  0.285126523
     0.500000000  0.000000000  0.285126523
     0.500000000  0.875000000  0.392563261
     0.250000000  0.000000000  0.392563261
     0.250000000  0.875000000  0.500000000
     0.500000000  0.000000000  0.500000000
     0.490837474  0.874953042  0.605175292
     0.243079777  0.000002685  0.612139752
     0.251029238  0.875004782  0.722394876
     0.500773699  0.000002913  0.709929401
[...]
     0.500000000  0.500000000  0.434467643
     0.347509432  0.375000000  0.392563261
     0.652490568  0.375000000  0.392563261
     0.250000000  0.500000000  0.458095618
     0.250000000  0.500000000  0.541904382
     0.597509432  0.375000000  0.500000000
     0.402490568  0.375000000  0.500000000
     0.500014597  0.499996645  0.566425033
     0.500030242  0.499976497  0.650659698
     0.350018309  0.375018064  0.608079048
     0.651255145  0.374995887  0.608490286
     0.249942581  0.499992468  0.673120098
     0.250827902  0.499976828  0.757445727
     0.594362019  0.374807285  0.720468009
     0.406754022  0.374760634  0.720509426

  ion indices of the primitive-cell ions
   primitive index   ion index
                 1           1
                 2           2
                 3           3
                 4           4
                 5           5
                 6           6
                 7           7
                 8           8
                 9           9
                10          10
                11          11
                12          12
                13          13
[...]
   O          57.911          3.974         10.404          1.92671145
   O          58.407          3.980         10.449          1.93494336
   O          57.902          3.974         10.403          1.92656605
   O          58.650          3.982         10.470          1.93896522
   O          57.491          3.969         10.366          1.91971152
   O          57.034          3.964         10.325          1.91207523
   O          58.848          3.985         10.488          1.94224429
   O          38.638          3.715          8.498          1.57377653
   O          55.941          3.951         10.226          1.89366274
   O          56.179          3.954         10.247          1.89767566

  vdW correction parametrized for the method pbe

  IVDW =  21
  VDW_RADIUS =    50.000 A
  VDW_IDAMPF =  0
  VDW_S6 =     1.000
  VDW_SR =     0.950
  VDW_D =    20.000
  LVDW_ONECELL = F F F
  LVDW_SAMETYPE T T
  LVDW_EWALD = F

  Number of pair interactions contributing to vdW energy: 3133357
  Edisp (eV):  -32.74935

  FORCE on cell =-STRESS in cart. coord.  units (eV):
  Direction    XX          YY          ZZ          XY          YZ          ZX
  Alpha Z  4468.19931  4468.19931  4468.19931
  Ewald  938445.22278956680.98590************    -0.02037    -0.01160    16.30309
  Hartree979019.71627988971.79601************    -0.00894    -0.00299     8.66317
  E(xc)   -8556.92225 -8539.72654 -8565.92212    -0.00003    -0.00001     0.02788
  Local  ************************************     0.02904     0.01444   -25.01035
  n-local -5226.75492 -5098.06236 -5261.96298    -0.00041    -0.00013     0.31474
  augment  5265.52332  5259.42761  5267.40442    -0.00008    -0.00024     0.08646
  Kinetic 28449.88643 27950.12173 28493.85427    -0.00011    -0.00014    -1.00545
  Fock        0.00000     0.00000     0.00000     0.00000     0.00000     0.00000
  vdW       -48.19858   -34.22816   -40.91488     0.00000     0.00001     0.04295
  Total     -15.74192    16.84890   -45.84926    -0.00090    -0.00067    -0.57750
  in kB      -5.15146     5.51371   -15.00392    -0.00029    -0.00022    -0.18898

 VOLUME and BASIS-vectors are now :
  energy-cutoff  :      600.00
  volume of cell :     4895.96
      direct lattice vectors                 reciprocal lattice vectors
    13.251680751  0.000000000  0.000000000     0.075462126  0.000000000  0.000000000
     0.000000000 11.981436613  0.000000000     0.000000000  0.083462445  0.000000000
     0.000000000  0.000000000 30.836008487     0.000000000  0.000000000  0.032429619

  length of vectors
    13.251680751 11.981436613 30.836008487     0.075462126  0.083462445  0.032429619

 FORCES acting on ions:
    Electron-Ion                     Ewald-Force                    Non-Local-Force
   0.112E-01 0.172E-02 0.364E+04   -.111E-01 -.166E-02 -.364E+04   -.329E-04 -.120E-04 0.766E+00
   -.354E-02 0.189E-02 0.381E+04   0.351E-02 -.186E-02 -.381E+04   -.144E-05 -.614E-05 -.466E+01
   -.918E-01 0.168E-02 0.185E+04   0.925E-01 -.138E-02 -.185E+04   -.138E-03 -.591E-04 -.116E+00
   0.123E+00 0.150E-01 0.184E+04   -.123E+00 -.146E-01 -.184E+04   -.284E-03 -.466E-04 0.276E+00
   0.176E+01 0.377E-01 -.202E+02   -.178E+01 -.357E-01 0.210E+02   0.521E-02 -.338E-03 -.191E+00
   -.272E+01 0.753E-02 -.967E+01   0.277E+01 -.596E-02 0.860E+01   -.136E-01 -.330E-03 0.468E+00
   -.315E+02 0.803E-01 -.181E+04   0.316E+02 -.777E-01 0.181E+04   0.758E+00 -.259E-02 0.611E+00
   -.104E+02 -.487E-01 -.188E+04   0.104E+02 0.536E-01 0.188E+04   0.588E+00 -.145E-02 -.918E+00
   -.615E+00 0.565E+00 -.363E+04   0.630E+00 -.582E+00 0.363E+04   -.239E-01 -.995E-03 -.125E+01
   -.104E+01 0.272E+00 -.365E+04   0.103E+01 -.272E+00 0.365E+04   -.101E-01 -.496E-02 0.200E+01
   0.970E-02 0.253E-02 0.364E+04   -.969E-02 -.243E-02 -.364E+04   -.226E-04 -.182E-04 0.766E+00
   -.342E-02 0.644E-03 0.381E+04   0.341E-02 -.647E-03 -.381E+04   0.780E-05 0.184E-05 -.466E+01
   -.916E-01 0.663E-02 0.185E+04   0.924E-01 -.635E-02 -.185E+04   -.137E-03 -.583E-04 -.116E+00
   0.112E+00 0.284E-02 0.184E+04   -.112E+00 -.283E-02 -.184E+04   -.254E-03 -.159E-05 0.276E+00
   0.162E+01 0.363E-01 -.201E+02   -.164E+01 -.313E-01 0.210E+02   0.540E-02 -.762E-03 -.192E+00
   -.267E+01 0.221E-01 -.964E+01   0.272E+01 -.223E-01 0.857E+01   -.144E-01 0.703E-04 0.467E+00
   -.316E+02 -.157E-01 -.181E+04   0.316E+02 0.173E-01 0.181E+04   0.758E+00 -.646E-03 0.610E+00
   -.106E+02 0.706E-01 -.188E+04   0.106E+02 -.713E-01 0.188E+04   0.590E+00 0.149E-03 -.917E+00
   -.606E+00 0.878E-01 -.364E+04   0.596E+00 -.891E-01 0.364E+04   -.789E-02 -.981E-03 -.124E+01
   -.110E+01 0.121E+00 -.365E+04   0.109E+01 -.120E+00 0.365E+04   -.749E-02 -.161E-02 0.200E+01
   0.969E-02 -.175E-02 0.364E+04   -.968E-02 0.164E-02 -.364E+04   -.136E-04 0.885E-05 0.766E+00
   -.335E-02 -.191E-02 0.381E+04   0.334E-02 0.186E-02 -.381E+04   -.155E-05 0.131E-04 -.466E+01
   -.898E-01 -.100E-02 0.185E+04   0.906E-01 0.788E-03 -.185E+04   -.140E-03 0.412E-04 -.116E+00
   0.122E+00 -.150E-01 0.184E+04   -.122E+00 0.147E-01 -.184E+04   -.273E-03 0.462E-04 0.276E+00
   0.161E+01 -.217E-01 -.201E+02   -.163E+01 0.168E-01 0.210E+02   0.540E-02 0.755E-03 -.192E+00
   -.263E+01 -.728E-02 -.959E+01   0.268E+01 0.507E-02 0.853E+01   -.147E-01 0.561E-03 0.467E+00
   -.317E+02 0.301E-01 -.181E+04   0.317E+02 -.317E-01 0.181E+04   0.761E+00 0.170E-02 0.606E+00
   -.103E+02 0.109E+00 -.188E+04   0.104E+02 -.115E+00 0.188E+04   0.585E+00 0.614E-03 -.917E+00
   -.607E+00 -.228E-01 -.364E+04   0.598E+00 0.222E-01 0.364E+04   -.316E-02 0.165E-02 -.124E+01
   -.117E+01 -.312E+00 -.365E+04   0.117E+01 0.313E+00 0.365E+04   -.478E-02 0.522E-02 0.200E+01
   0.112E-01 -.250E-02 0.364E+04   -.111E-01 0.245E-02 -.364E+04   -.349E-04 0.220E-04 0.766E+00
   -.345E-02 -.642E-03 0.381E+04   0.344E-02 0.648E-03 -.381E+04   0.135E-05 0.987E-07 -.466E+01
   -.900E-01 -.730E-02 0.185E+04   0.908E-01 0.694E-02 -.185E+04   -.138E-03 0.772E-04 -.116E+00
   0.133E+00 -.281E-02 0.184E+04   -.133E+00 0.279E-02 -.184E+04   -.315E-03 0.131E-05 0.276E+00
   0.174E+01 -.524E-01 -.202E+02   -.177E+01 0.502E-01 0.210E+02   0.539E-02 0.350E-03 -.191E+00
   -.267E+01 -.237E-01 -.966E+01   0.272E+01 0.245E-01 0.860E+01   -.142E-01 -.265E-03 0.469E+00
   -.316E+02 -.883E-01 -.181E+04   0.316E+02 0.855E-01 0.181E+04   0.758E+00 0.143E-02 0.610E+00
   -.101E+02 -.120E+00 -.188E+04   0.101E+02 0.122E+00 0.188E+04   0.585E+00 0.437E-03 -.922E+00
   -.615E+00 -.612E+00 -.363E+04   0.633E+00 0.630E+00 0.363E+04   -.199E-01 0.202E-03 -.124E+01
   -.114E+01 -.820E-01 -.365E+04   0.113E+01 0.809E-01 0.365E+04   -.688E-02 0.142E-02 0.200E+01
   -.308E-02 0.167E-02 0.364E+04   0.303E-02 -.159E-02 -.364E+04   0.174E-05 -.132E-04 0.766E+00
   -.460E-02 0.417E-02 0.381E+04   0.458E-02 -.409E-02 -.381E+04   0.420E-06 -.172E-04 -.466E+01
   -.964E-01 0.195E-01 0.185E+04   0.971E-01 -.181E-01 -.185E+04   -.116E-03 -.346E-03 -.116E+00
   0.619E-01 0.155E-01 0.184E+04   -.622E-01 -.152E-01 -.184E+04   -.255E-03 -.426E-04 0.276E+00
   0.134E+01 0.284E-01 -.202E+02   -.136E+01 -.260E-01 0.210E+02   0.519E-02 -.401E-03 -.191E+00
   -.275E+01 0.189E+00 -.999E+01   0.279E+01 -.192E+00 0.893E+01   -.132E-01 0.229E-02 0.467E+00
   -.317E+02 0.299E+00 -.182E+04   0.317E+02 -.281E+00 0.182E+04   0.759E+00 -.642E-02 0.615E+00
   -.108E+02 0.623E-01 -.188E+04   0.108E+02 -.575E-01 0.188E+04   0.595E+00 -.353E-02 -.918E+00
   0.126E+00 0.603E+00 -.363E+04   -.169E+00 -.621E+00 0.363E+04   -.118E-01 -.140E-02 -.125E+01
   -.105E+01 -.101E+01 -.365E+04   0.104E+01 0.108E+01 0.365E+04   -.106E-01 0.321E-02 0.202E+01
   -.162E-02 0.264E-02 0.364E+04   0.160E-02 -.257E-02 -.364E+04   -.127E-04 -.166E-04 0.766E+00
   -.469E-02 0.650E-03 0.381E+04   0.466E-02 -.628E-03 -.381E+04   0.171E-05 -.301E-05 -.466E+01
   -.968E-01 0.236E-01 0.185E+04   0.976E-01 -.227E-01 -.185E+04   -.129E-03 -.233E-03 -.116E+00
   0.719E-01 0.435E-02 0.184E+04   -.720E-01 -.437E-02 -.184E+04   -.278E-03 -.461E-05 0.276E+00
   0.149E+01 0.482E-01 -.201E+02   -.151E+01 -.435E-01 0.210E+02   0.515E-02 -.696E-03 -.192E+00
   -.270E+01 0.206E-01 -.954E+01   0.275E+01 -.212E-01 0.847E+01   -.146E-01 0.196E-03 0.463E+00
   -.316E+02 -.428E+00 -.181E+04   0.316E+02 0.431E+00 0.181E+04   0.760E+00 0.775E-02 0.601E+00
   -.104E+02 0.155E+00 -.188E+04   0.104E+02 -.158E+00 0.188E+04   0.585E+00 0.277E-04 -.916E+00
   0.403E-01 0.928E-01 -.364E+04   -.575E-01 -.956E-01 0.364E+04   -.275E-01 -.530E-03 -.124E+01
   -.117E+01 0.100E+00 -.365E+04   0.116E+01 -.100E+00 0.365E+04   -.603E-02 -.136E-02 0.199E+01
[...]
   -.558E+02 -.117E-01 0.111E+04   0.602E+02 0.115E-01 -.111E+04   -.401E+01 0.375E-03 0.179E+00
   0.558E+02 -.111E-01 0.111E+04   -.603E+02 0.109E-01 -.111E+04   0.402E+01 0.420E-03 0.178E+00
   0.260E+00 -.777E-02 0.479E+03   -.271E+00 0.800E-02 -.484E+03   0.159E-01 -.440E-03 0.465E+01
   -.869E+00 -.269E-01 -.519E+03   0.124E+01 0.269E-01 0.527E+03   -.389E+00 -.227E-03 -.783E+01
   -.574E+02 -.110E+00 -.774E+01   0.627E+02 0.109E+00 0.751E+01   -.572E+01 0.439E-02 0.326E+00
   0.571E+02 -.106E+00 -.468E+01   -.624E+02 0.105E+00 0.435E+01   0.574E+01 0.385E-02 0.448E+00
   -.186E+02 -.426E-01 -.614E+03   0.207E+02 0.450E-01 0.607E+03   -.207E+01 -.189E-02 0.676E+01
   -.112E+02 -.115E+00 -.155E+04   0.125E+02 0.118E+00 0.155E+04   -.135E+01 -.364E-03 0.242E+01
   0.799E+01 -.276E-01 -.110E+04   -.987E+01 0.218E-01 0.110E+04   0.128E+01 0.439E-02 0.801E+00
   0.689E+02 -.705E-01 -.110E+04   -.769E+02 0.558E-01 0.110E+04   0.755E+01 0.152E-01 0.142E+01
   -.570E+01 -.156E+00 -.176E+04   0.639E+01 0.163E+00 0.176E+04   -.680E+00 -.550E-02 -.228E+01
   -.827E-01 0.997E-01 -.263E+04   0.559E-01 -.114E+00 0.265E+04   0.321E-01 0.143E-01 -.214E+02
   -.243E+02 -.418E+00 -.227E+04   0.308E+02 0.414E+00 0.227E+04   -.653E+01 0.352E-01 -.422E+01
   0.229E+02 -.597E+00 -.227E+04   -.292E+02 0.613E+00 0.227E+04   0.630E+01 0.186E-01 -.426E+01
   -.435E+02 0.978E-03 0.105E+03   -.161E-11 -.123E-11 -.186E-10   0.435E+02 -.998E-03 -.105E+03

 POSITION                                       TOTAL-FORCE (eV/Angst)
      9.93876      7.48840      8.79216        -0.000020      0.000048     -3.179272
      0.00000      8.98608      8.79216        -0.000064      0.000029      2.736708
      0.00000      7.48840     12.10508         0.000649      0.000244      0.452343
      9.93876      8.98608     12.10508        -0.000394      0.000305     -0.666229
      9.93876      7.48840     15.41800        -0.019431      0.001640      0.635274
      0.00000      8.98608     15.41800         0.030480      0.001250     -0.604797
     13.13057      7.48852     18.66230         0.659289      0.000135      0.487543
      9.84579      8.98610     18.87480         0.552778      0.003297     -0.581476
      9.95187      7.48905     22.27240        -0.007295     -0.017473     -0.803056
      0.01067      8.98679     21.89254        -0.016976     -0.004844      0.576016
      9.93876     10.48376      8.79216        -0.000047      0.000085     -3.179175
      0.00000      0.00000      8.79216        -0.000034     -0.000001      2.736734
      0.00000     10.48376     12.10508         0.000659      0.000228      0.452623
      9.93876      0.00000     12.10508        -0.000474      0.000009     -0.665779
      9.93876     10.48376     15.41800        -0.019508      0.004287      0.639109
      0.00000      0.00000     15.41800         0.030857     -0.000127     -0.605362
     13.13050     10.48382     18.66203         0.660484      0.000867      0.489964
      9.84644     11.98142     18.87585         0.548214     -0.000373     -0.581357
      9.94980     10.48383     22.27577        -0.016917     -0.001571     -0.824072
      0.01012     11.98143     21.89239        -0.014358     -0.000166      0.576863
      9.93876      1.49768      8.79216        -0.000034     -0.000094     -3.179165
      0.00000      2.99536      8.79216        -0.000044     -0.000034      2.736710
      0.00000      1.49768     12.10508         0.000654     -0.000173      0.452651
      9.93876      2.99536     12.10508        -0.000405     -0.000304     -0.666205
      9.93876      1.49768     15.41800        -0.019679     -0.004116      0.639283
      0.00000      2.99536     15.41800         0.030841     -0.001645     -0.606144
     13.13128      1.49754     18.66193         0.660406      0.000054      0.489844
      9.84755      2.99546     18.87494         0.545108     -0.005361     -0.581685
      9.94878      1.49774     22.27545        -0.011340      0.000477     -0.821349
      0.00957      2.99460     21.89205        -0.011867      0.005036      0.579483
      9.93876      4.49304      8.79216        -0.000016     -0.000031     -3.179250
      0.00000      5.99072      8.79216        -0.000039      0.000007      2.736686
      0.00000      4.49304     12.10508         0.000658     -0.000289      0.452336
      9.93876      5.99072     12.10508        -0.000328     -0.000014     -0.666643
      9.93876      4.49304     15.41800        -0.019862     -0.001810      0.635403
      0.00000      5.99072     15.41800         0.030571      0.000521     -0.605547
     13.13179      4.49299     18.66180         0.658038     -0.001359      0.491038
      9.84706      5.99067     18.87461         0.547689      0.002078     -0.581877
      9.95083      4.49238     22.27249        -0.001097      0.018094     -0.802208
      0.01013      5.99073     21.89259        -0.013909      0.000110      0.576064
      3.31292      7.48840      8.79216        -0.000078      0.000075     -3.179258
      6.62584      8.98608      8.79216        -0.000052      0.000059      2.736691
      6.62584      7.48840     12.10508         0.000614      0.001060      0.451954
      3.31292      8.98608     12.10508        -0.000469      0.000303     -0.666109
      3.31292      7.48840     15.41800        -0.018939      0.002014      0.635687
      6.62584      8.98608     15.41800         0.030086     -0.001058     -0.598478
      6.50459      7.48736     18.66540         0.658665      0.012840      0.466879
      3.21942      8.98634     18.87491         0.548372      0.001312     -0.581499
      3.32451      7.48909     22.27274        -0.052702     -0.019691     -0.803415
      6.63657      8.98520     21.89146        -0.016985      0.061395      0.554175
      3.31292     10.48376      8.79216        -0.000064      0.000056     -3.179189
      6.62584      0.00000      8.79216        -0.000064      0.000019      2.736789
      6.62584     10.48376     12.10508         0.000628      0.000662      0.452819
      3.31292      0.00000     12.10508        -0.000408     -0.000019     -0.665770
      3.31292     10.48376     15.41800        -0.019490      0.004006      0.639487
      6.62584      0.00000     15.41800         0.030969     -0.000394     -0.607556
      6.50442     10.48319     18.66119         0.658036      0.009542      0.478980
      3.22122      0.00003     18.87595         0.540122     -0.003099     -0.583161
      3.32656     10.48381     22.27577        -0.041850     -0.002696     -0.823410
      6.63609      0.00003     21.89139        -0.014046     -0.001123      0.579484
[...]
      6.62584      5.99072     13.39725        -0.001565     -0.000001     -0.037179
      4.60508      4.49304     12.10508         0.456959      0.000143      0.059299
      8.64660      4.49304     12.10508        -0.456614      0.000173      0.059080
      3.31292      5.99072     14.12584         0.004898     -0.000218     -0.153594
      3.31292      5.99072     16.71017        -0.019308     -0.000176      0.203031
      7.91800      4.49304     15.41800        -0.405040      0.002831      0.097737
      5.33368      4.49304     15.41800         0.398272      0.002563      0.100646
      6.62603      5.99068     17.46629        -0.014521      0.000503     -0.366462
      6.62624      5.99044     20.06375        -0.042474      0.002708     -0.703714
      4.63833      4.49326     18.75073        -0.601857     -0.001511      0.047473
      8.63023      4.49299     18.76341        -0.523701      0.000405     -0.009583
      3.31216      5.99063     20.75634         0.006732      0.001501      0.541945
      3.32389      5.99044     23.35660         0.005238      0.000155      0.428885
      7.87630      4.49073     22.21636         0.003106      0.031548     -0.009183
      5.39017      4.49017     22.21763         0.021267      0.035567     -0.009399
    total drift:                                0.006993     -0.000021      0.002257

  FREE ENERGIE OF THE ION-ELECTRON SYSTEM (eV)
  free  energy   TOTEN  =     -1912.10129936 eV

  energy  without entropy=    -1912.10129936  energy(sigma->0) =    -1912.10129936