 vasp.6.3.0 20Jan22 (build Apr  1 2022 16:44:48) complex
 executed on        HPECrayEX_GCC date 2022.11.13  19:11:46

 INCAR:
   SYSTEM = MgO-rocksalt
   ISMEAR = 0
   SIGMA = 0.05
   EDIFF = 1E-6
   ALGO = ALL
   ISTART = 0
   IBRION = -1
   NSW = 0
   ISYM = 0
   DIPOL = 0.5 0.5 0.5
   IDIPOL = 3
   LDIPOL = .TRUE.
   LHFCALC = .TRUE.
   GGA = B5
   AEXX = 0.2
   AGGAX = 0.72
   AGGAC = 0.81
   ALDAC = 0.19
   IVDW = 1
   VDW_S6 = 1.05
   VDW_C6 = 1.23 0.70 0.63 0.70
   VDW_R0 = 1.397 1.342 1.243 1.342
   ENCUT = 600
   PREC = Accurate
   LASPH = .TRUE.
   LREAL = .FALSE.
   ISPIN = 2
   MAGMOM = 1.0 0.0 0.0 0.0 0.0 0.0 0.0 0.0 0.0 0.0 0.0 0.0 0.0 0.0 0.0 0.0 0.0 0.0 0.0 0.0 0.0 0.0 0.0 0.0 0.0 0.0 0.0 0.0 0.0 0.0 0.0 0.0 0.0 0.0 0.0 0.0 0.0 0.0 0.0 0.0 0.0 0.0 0.0 0.0 0.0 0.0 0.0 0.0 0.0 0.0 0.0 0.0 0.0 0.0 0.0 0.0 0.0 0.0 0.0 0.0 0.0 0.0 0.0 0.0 0.0 0.0
   NELM = 200
   NELMIN = 8
   NCORE = 8
   KPAR = 1
   LWAVE = .FALSE.
   LCHARG = .FALSE.

 POTCAR:    PAW_PBE N 08Apr2002
 POTCAR:    PAW_PBE O 08Apr2002
 POTCAR:    PAW_PBE Mg_pv 13Apr2007
 POTCAR:    PAW_PBE O 08Apr2002
 POTCAR:    PAW_PBE N 08Apr2002
   VRHFIN =N: s2p3

   TITEL  = PAW_PBE N 08Apr2002
   POMASS =   14.001; ZVAL   =    5.000    mass and valenz
   ENMAX  =  400.000; ENMIN  =  300.000 eV

[...]

   TITEL  = PAW_PBE Mg_pv 13Apr2007
   POMASS =   24.305; ZVAL   =    8.000    mass and valenz
   ENMAX  =  403.929; ENMIN  =  302.947 eV

   TITEL  = PAW_PBE O 08Apr2002
   POMASS =   16.000; ZVAL   =    6.000    mass and valenz
   ENMAX  =  400.000; ENMIN  =  300.000 eV

  PAW_PBE N 08Apr2002                   :
  PAW_PBE O 08Apr2002                   :
  PAW_PBE Mg_pv 13Apr2007               :
  PAW_PBE O 08Apr2002                   :

 POSCAR:  N  O Mg  O
  positions in direct lattice
 exchange correlation table for  LEXCH =       12
   RHO(1)=    0.500       N(1)  =     2000
   RHO(2)=  100.500       N(2)  =     4000

 ion  position               nearest neighbor table
   1  0.625  0.625  0.752-   2 1.18
   2  0.625  0.625  0.808-   1 1.18
   3  0.000  0.750  0.352-  35 2.11  37 2.11  38 2.11  45 2.11  54 2.11
   4  0.250  0.000  0.352-  36 2.11  37 2.11  38 2.11  46 2.11  53 2.11
   5  0.000  0.000  0.451-  37 2.11  36 2.11  35 2.11  43 2.11  52 2.11  41 2.12
   6  0.250  0.750  0.451-  38 2.11  36 2.11  35 2.11  44 2.11  51 2.11  42 2.12
   7  0.999  0.750  0.550-  58 2.11  49 2.11  41 2.11  42 2.11  35 2.13  39 2.15
   8  0.250  0.000  0.550-  41 2.11  50 2.11  42 2.11  57 2.11  36 2.13  40 2.15
   9  0.000  0.000  0.649-  40 2.11  47 2.11  41 2.11  39 2.11  56 2.11
  10  0.249  0.750  0.649-  55 2.10  39 2.10  42 2.11  40 2.11  48 2.11
  11  0.000  0.250  0.352-  43 2.11  37 2.11  45 2.11  46 2.11  62 2.11
  12  0.250  0.500  0.352-  44 2.11  38 2.11  45 2.11  46 2.11  61 2.11
  13  0.000  0.500  0.451-  45 2.11  43 2.11  44 2.11  35 2.11  60 2.11  49 2.12
  14  0.250  0.250  0.451-  46 2.11  43 2.11  44 2.11  36 2.11  59 2.11  50 2.12
  15  0.000  0.250  0.550-  41 2.11  50 2.11  66 2.11  49 2.11  43 2.13  47 2.15
  16  0.251  0.500  0.550-  65 2.11  42 2.11  50 2.11  49 2.11  44 2.13  48 2.15
  17  0.001  0.500  0.649-  64 2.10  48 2.10  49 2.11  47 2.11  39 2.11
  18  0.250  0.250  0.649-  40 2.11  47 2.11  50 2.11  63 2.11  48 2.11
  19  0.500  0.750  0.352-  51 2.11  38 2.11  53 2.11  54 2.11  61 2.11
  20  0.750  0.000  0.352-  52 2.11  37 2.11  53 2.11  54 2.11  62 2.11
  21  0.500  0.000  0.451-  53 2.11  51 2.11  52 2.11  36 2.11  59 2.11  57 2.12
  22  0.750  0.750  0.451-  54 2.11  51 2.11  52 2.11  35 2.11  60 2.11  58 2.13
  23  0.500  0.750  0.550-  65 2.11  58 2.11  57 2.11  42 2.11  51 2.12  55 2.13
  24  0.750  0.999  0.550-  58 2.11  57 2.11  41 2.11  66 2.11  52 2.13  56 2.15
  25  0.500  0.001  0.649-  55 2.10  63 2.10  57 2.11  40 2.11  56 2.11
  26  0.750  0.750  0.650-  56 2.11  39 2.11  55 2.13  64 2.13  58 2.14
  27  0.500  0.250  0.352-  59 2.11  53 2.11  46 2.11  61 2.11  62 2.11
  28  0.750  0.500  0.352-  60 2.11  54 2.11  45 2.11  61 2.11  62 2.11
  29  0.500  0.500  0.451-  61 2.11  51 2.11  59 2.11  60 2.11  44 2.11  65 2.13
  30  0.750  0.250  0.451-  62 2.11  52 2.11  59 2.11  60 2.11  43 2.11  66 2.12
  31  0.500  0.251  0.550-  65 2.11  66 2.11  50 2.11  57 2.11  59 2.13  63 2.15
  32  0.750  0.500  0.550-  65 2.11  58 2.11  49 2.11  66 2.11  60 2.12  64 2.13
  33  0.500  0.500  0.650-  48 2.11  63 2.11  55 2.13  64 2.13  65 2.14
  34  0.750  0.249  0.649-  64 2.10  56 2.10  66 2.11  47 2.11  63 2.11
  35  0.000  0.750  0.451-   3 2.11   5 2.11   6 2.11  13 2.11  22 2.11   7 2.13
  36  0.250  0.000  0.451-   4 2.11   5 2.11   6 2.11  14 2.11  21 2.11   8 2.13
  37  0.000  0.000  0.352-   5 2.11   4 2.11   3 2.11  11 2.11  20 2.11
  38  0.250  0.750  0.352-   6 2.11   4 2.11   3 2.11  12 2.11  19 2.11
  39  1.000  0.750  0.651-  10 2.10  26 2.11  17 2.11   9 2.11   7 2.15
  40  0.250  0.000  0.651-   9 2.11  18 2.11  25 2.11  10 2.11   8 2.15
  41  1.000  1.000  0.550-   8 2.11  15 2.11   7 2.11  24 2.11   9 2.11   5 2.12
  42  0.250  0.750  0.550-  10 2.11   8 2.11  16 2.11   7 2.11  23 2.11   6 2.12
  43  0.000  0.250  0.451-  11 2.11   5 2.11  13 2.11  14 2.11  30 2.11  15 2.13
  44  0.250  0.500  0.451-  12 2.11   6 2.11  13 2.11  14 2.11  29 2.11  16 2.13
  45  0.000  0.500  0.352-  13 2.11  11 2.11  12 2.11   3 2.11  28 2.11
  46  0.250  0.250  0.352-  14 2.11  11 2.11  12 2.11   4 2.11  27 2.11
  47  0.000  0.250  0.651-   9 2.11  18 2.11  17 2.11  34 2.11  15 2.15
  48  0.250  0.500  0.651-  17 2.10  33 2.11  10 2.11  18 2.11  16 2.15
  49  0.000  0.500  0.550-  17 2.11  15 2.11   7 2.11  16 2.11  32 2.11  13 2.12
  50  0.250  0.250  0.550-   8 2.11  15 2.11  31 2.11  16 2.11  18 2.11  14 2.12
  51  0.500  0.750  0.451-  19 2.11   6 2.11  21 2.11  22 2.11  29 2.11  23 2.12
  52  0.750  0.000  0.451-  20 2.11   5 2.11  21 2.11  22 2.11  30 2.11  24 2.13
  53  0.500  0.000  0.352-  21 2.11  19 2.11  20 2.11   4 2.11  27 2.11
  54  0.750  0.750  0.352-  22 2.11  19 2.11  20 2.11   3 2.11  28 2.11
  55  0.498  0.752  0.650-  10 2.10  25 2.10  26 2.13  33 2.13  23 2.13
  56  0.750  1.000  0.651-  34 2.10  26 2.11  25 2.11   9 2.11  24 2.15
  57  0.500  0.000  0.550-  25 2.11   8 2.11  24 2.11  31 2.11  23 2.11  21 2.12
  58  0.750  0.750  0.550-  24 2.11   7 2.11  23 2.11  32 2.11  22 2.13  26 2.14
  59  0.500  0.250  0.451-  27 2.11  21 2.11  14 2.11  29 2.11  30 2.11  31 2.13
  60  0.750  0.500  0.451-  28 2.11  22 2.11  13 2.11  29 2.11  30 2.11  32 2.12
  61  0.500  0.500  0.352-  29 2.11  19 2.11  27 2.11  28 2.11  12 2.11
  62  0.750  0.250  0.352-  30 2.11  20 2.11  27 2.11  28 2.11  11 2.11
  63  0.500  0.250  0.651-  25 2.10  33 2.11  34 2.11  18 2.11  31 2.15
  64  0.752  0.498  0.650-  34 2.10  17 2.10  26 2.13  33 2.13  32 2.13
  65  0.500  0.500  0.550-  16 2.11  31 2.11  23 2.11  32 2.11  29 2.13  33 2.14
  66  0.750  0.250  0.550-  34 2.11  15 2.11  31 2.11  24 2.11  32 2.11  30 2.12

IMPORTANT INFORMATION: All symmetrisations will be switched off!
NOSYMM: (Re-)initialisation of all symmetry stuff for point group C_1.

                                     Primitive cell

  volume of cell :    1519.8199

  direct lattice vectors                    reciprocal lattice vectors
     8.440984654  0.000000000  0.000000000     0.118469591  0.000000000  0.000000000
     0.000000000  8.440984654  0.000000000     0.000000000  0.118469591  0.000000000
     0.000000000  0.000000000 21.330738491     0.000000000  0.000000000  0.046880702

  length of vectors
     8.440984654  8.440984654 21.330738491     0.118469591  0.118469591  0.046880702

  position of ions in fractional coordinates (direct lattice)
     0.625000025  0.625000026  0.752200458
     0.625000001  0.625000004  0.807568188
     0.000000000  0.750000000  0.351605267
     0.250000000  0.000000000  0.351605267
     0.000000000  0.000000000  0.450535089
     0.250000000  0.750000000  0.450535089
     0.999466023  0.749938665  0.550299311
     0.249936072  0.000063917  0.550169433
     0.000006237  0.000006236  0.649012547
     0.248898599  0.750368068  0.648702868
     0.000000000  0.250000000  0.351605267
     0.250000000  0.500000000  0.351605267
     0.000000000  0.500000000  0.450535089
     0.250000000  0.250000000  0.450535089
     0.000063917  0.249936073  0.550169433
     0.250533984  0.500061353  0.550299286
     0.001101403  0.499631931  0.648702837
     0.249993773  0.249993772  0.649012541
     0.500000000  0.750000000  0.351605267
     0.750000000  0.000000000  0.351605267
     0.500000000  0.000000000  0.450535089
     0.750000000  0.750000000  0.450535089
     0.500146774  0.749853223  0.550010997
     0.749938664  0.999466022  0.550299311
     0.499631931  0.001101403  0.648702837
     0.749983055  0.749983055  0.650464770
     0.500000000  0.250000000  0.351605267
     0.750000000  0.500000000  0.351605267
     0.500000000  0.500000000  0.450535089
     0.750000000  0.250000000  0.450535089
     0.500061352  0.250533984  0.550299286
     0.749853226  0.500146774  0.550010996
     0.500016942  0.500016943  0.650464749
     0.750368069  0.248898600  0.648702868
     0.000000000  0.750000000  0.450535089
     0.250000000  0.000000000  0.450535089
     0.000000000  0.000000000  0.351605267
     0.250000000  0.750000000  0.351605267
     0.999804770  0.749767818  0.651226661
     0.249771223  0.000228785  0.651112302
     0.999967409  0.999967408  0.549990240
     0.249690345  0.750079102  0.549866138
     0.000000000  0.250000000  0.450535089
     0.250000000  0.500000000  0.450535089
     0.000000000  0.500000000  0.351605267
     0.250000000  0.250000000  0.351605267
     0.000228784  0.249771224  0.651112302
     0.250195236  0.500232181  0.651226637
     0.000309651  0.499920907  0.549866127
     0.250032590  0.250032589  0.549990230
     0.500000000  0.750000000  0.450535089
     0.750000000  0.000000000  0.450535089
     0.500000000  0.000000000  0.351605267
     0.750000000  0.750000000  0.351605267
     0.497872702  0.752127298  0.649889751
     0.749767816  0.999804770  0.651226661
     0.499920905  0.000309651  0.549866127
     0.749867470  0.749867470  0.550218223
     0.500000000  0.250000000  0.450535089
     0.750000000  0.500000000  0.450535089
     0.500000000  0.500000000  0.351605267
     0.750000000  0.250000000  0.351605267
     0.500232182  0.250195235  0.651226637
     0.752127299  0.497872702  0.649889751
     0.500132535  0.500132538  0.550218207
     0.750079103  0.249690346  0.549866138

  ion indices of the primitive-cell ions
   primitive index   ion index
                 1           1
                 2           2
                 3           3
                 4           4
                 5           5
                 6           6
                 7           7
                 8           8
                 9           9
                10          10
                11          11
                12          12
                13          13
                14          14
                15          15
                16          16
                17          17
                18          18
                19          19
                20          20
[...]
   0.49992091  0.00030965  0.54986613
   0.74986747  0.74986747  0.55021822
   0.50000000  0.25000000  0.45053509
   0.75000000  0.50000000  0.45053509
   0.50000000  0.50000000  0.35160527
   0.75000000  0.25000000  0.35160527
   0.50023218  0.25019524  0.65122664
   0.75212730  0.49787270  0.64988975
   0.50013253  0.50013254  0.55021821
   0.75007910  0.24969035  0.54986614

 position of ions in cartesian coordinates  (Angst):
   5.27561562  5.27561563 16.04499127
   5.27561542  5.27561544 17.22602583
   0.00000000  6.33073849  7.50000000
   2.11024616  0.00000000  7.50000000
   0.00000000  0.00000000  9.61024616
   2.11024616  6.33073849  9.61024616
   8.43647736  6.33022076 11.73829069
   2.10970655  0.00053952 11.73552031
   0.00005265  0.00005264 13.84391691
   2.10094925  6.33384535 13.83731124
   0.00000000  2.11024616  7.50000000
   2.11024616  4.22049233  7.50000000
   0.00000000  4.22049233  9.61024616
   2.11024616  2.11024616  9.61024616
   0.00053952  2.10970655 11.73552030
   2.11475351  4.22101020 11.73829017
   0.00929693  4.21738547 13.83731057
   2.11019360  2.11019359 13.84391680
   4.22049233  6.33073849  7.50000000
   6.33073849  0.00000000  7.50000000
   4.22049233  0.00000000  9.61024616
   6.33073849  6.33073849  9.61024616
   4.22173124  6.32949955 11.73214074
   6.33022075  8.43647735 11.73829069
   4.21738546  0.00929693 13.83731057
   6.33059545  6.33059546 13.87489390
   4.22049233  2.11024616  7.50000000
   6.33073849  4.22049233  7.50000000
   4.22049233  4.22049233  9.61024616
   6.33073849  2.11024616  9.61024616
   4.22101020  2.11475352 11.73829017
   6.32949957  4.22173125 11.73214073
   4.22063533  4.22063534 13.87489347
   6.33384536  2.10094926 13.83731124
   0.00000000  6.33073849  9.61024616
   2.11024616  0.00000000  9.61024616
   0.00000000  0.00000000  7.50000000
   2.11024616  6.33073849  7.50000000
   8.43933672  6.32877865 13.89114560
   2.10831506  0.00193117 13.88870625
   8.44070955  8.44070955 11.73169798
   2.10763237  6.33140619 11.72905080
   0.00000000  2.11024616  9.61024616
   2.11024616  4.22049233  9.61024616
   0.00000000  4.22049233  7.50000000
   2.11024616  2.11024616  7.50000000
   0.00193116  2.10831507 13.88870624
   2.11189415  4.22245217 13.89114509
   0.00261376  4.21982470 11.72905055
   2.11052125  2.11052125 11.73169777
   4.22049233  6.33073849  9.61024616
   6.33073849  0.00000000  9.61024616
   4.22049233  0.00000000  7.50000000
   6.33073849  6.33073849  7.50000000
   4.20253584  6.34869498 13.86262834
   6.32877863  8.43933672 13.89114560
   4.21982469  0.00261376 11.72905055
   6.32961980  6.32961981 11.73656103
   4.22049233  2.11024616  9.61024616
   6.33073849  4.22049233  9.61024616
   4.22049233  4.22049233  7.50000000
   6.33073849  2.11024616  7.50000000
   4.22245217  2.11189414 13.89114509
   6.34869499  4.20253584 13.86262834
   4.22161105  4.22161108 11.73656068
   6.33140619  2.10763238 11.72905080

--------------------------------------- Iteration      FINAL  ---------------------------------------

--------------------OUTCAR has been truncated-------------------------

[...]

--------------------OUTCAR has been truncated-------------------------

  DFT-D2 method for vdW energy calculation

  Parameters of vdW forcefield:
         C6(Jnm^6/mol)     R0(A)
   N        1.230          1.397
   O        0.700          1.342
   Mg       0.630          1.243
   O        0.700          1.342

  vdW correction parametrized for the method        ÌK[

  IVDW =   1
  VDW_RADIUS =    50.000 A
  VDW_S6 =     1.050
  VDW_SR =     1.000
  VDW_D =    20.000
  LVDW_EWALD = F

  Number of pair interactions contributing to vdW energy:  768341
  Edisp (eV):   -5.17716

 VOLUME and BASIS-vectors are now :
  energy-cutoff  :      600.00
  volume of cell :     1519.82
      direct lattice vectors                 reciprocal lattice vectors
     8.440984654  0.000000000  0.000000000     0.118469591  0.000000000  0.000000000
     0.000000000  8.440984654  0.000000000     0.000000000  0.118469591  0.000000000
     0.000000000  0.000000000 21.330738491     0.000000000  0.000000000  0.046880702

  length of vectors
     8.440984654  8.440984654 21.330738491     0.118469591  0.118469591  0.046880702

 FORCES acting on ions:
    Electron-Ion                     Ewald-Force                    Non-Local-Force
   -.341E-04 -.163E-04 -.114E+04   0.341E-04 0.287E-04 0.109E+04   -.338E-05 -.977E-05 0.401E+02
   0.372E-04 0.555E-04 -.157E+04   -.604E-04 -.558E-04 0.163E+04   0.103E-04 0.329E-05 -.533E+02
   -.184E+00 -.190E+00 0.208E+04   0.184E+00 0.192E+00 -.207E+04   0.131E-03 -.143E-02 -.640E+01
   0.189E+00 -.189E+00 0.208E+04   -.192E+00 0.192E+00 -.207E+04   0.170E-02 -.169E-02 -.639E+01
   -.534E+00 -.534E+00 0.718E+03   0.517E+00 0.517E+00 -.719E+03   0.109E-01 0.109E-01 0.492E+00
   0.107E+01 -.536E+00 0.720E+03   -.113E+01 0.525E+00 -.721E+03   0.382E-01 0.747E-02 0.426E+00
   -.402E+01 -.343E+01 -.633E+03   0.394E+01 0.340E+01 0.633E+03   0.740E-01 0.207E-01 -.893E-01
   0.324E+01 -.324E+01 -.636E+03   -.322E+01 0.322E+01 0.636E+03   -.137E-01 0.137E-01 -.899E-01
   -.962E+01 -.962E+01 -.200E+04   0.975E+01 0.975E+01 0.199E+04   -.109E+00 -.110E+00 0.533E+01
   0.216E+02 -.113E+02 -.198E+04   -.215E+02 0.114E+02 0.197E+04   -.441E-01 -.950E-01 0.542E+01
   -.189E+00 0.189E+00 0.208E+04   0.192E+00 -.192E+00 -.207E+04   -.167E-02 0.159E-02 -.639E+01
   0.183E+00 0.190E+00 0.208E+04   -.184E+00 -.192E+00 -.207E+04   -.370E-04 0.154E-02 -.640E+01
   -.107E+01 0.536E+00 0.720E+03   0.113E+01 -.525E+00 -.721E+03   -.382E-01 -.745E-02 0.426E+00
   0.534E+00 0.534E+00 0.718E+03   -.517E+00 -.517E+00 -.719E+03   -.108E-01 -.109E-01 0.492E+00
   -.324E+01 0.324E+01 -.636E+03   0.322E+01 -.322E+01 0.636E+03   0.137E-01 -.137E-01 -.901E-01
   0.402E+01 0.343E+01 -.633E+03   -.394E+01 -.340E+01 0.633E+03   -.740E-01 -.207E-01 -.894E-01
   -.216E+02 0.113E+02 -.198E+04   0.215E+02 -.114E+02 0.197E+04   0.441E-01 0.951E-01 0.542E+01
   0.962E+01 0.962E+01 -.200E+04   -.975E+01 -.975E+01 0.199E+04   0.110E+00 0.109E+00 0.533E+01
   0.182E+00 -.182E+00 0.208E+04   -.183E+00 0.183E+00 -.208E+04   0.764E-03 -.759E-03 -.638E+01
   -.190E+00 -.184E+00 0.208E+04   0.192E+00 0.184E+00 -.207E+04   -.154E-02 0.114E-03 -.640E+01
   0.536E+00 -.107E+01 0.720E+03   -.525E+00 0.113E+01 -.721E+03   -.746E-02 -.382E-01 0.426E+00
   -.113E+01 -.113E+01 0.721E+03   0.116E+01 0.116E+01 -.722E+03   -.225E-01 -.225E-01 0.530E+00
   0.429E+01 -.429E+01 -.617E+03   -.423E+01 0.423E+01 0.617E+03   -.656E-01 0.656E-01 -.373E+00
   -.343E+01 -.402E+01 -.633E+03   0.340E+01 0.394E+01 0.633E+03   0.207E-01 0.740E-01 -.894E-01
   0.113E+02 -.216E+02 -.198E+04   -.114E+02 0.215E+02 0.197E+04   0.950E-01 0.441E-01 0.542E+01
   -.352E+02 -.352E+02 -.193E+04   0.358E+02 0.358E+02 0.192E+04   -.474E+00 -.474E+00 0.539E+01
   0.190E+00 0.184E+00 0.208E+04   -.192E+00 -.184E+00 -.207E+04   0.152E-02 -.134E-03 -.640E+01
   -.182E+00 0.182E+00 0.208E+04   0.183E+00 -.183E+00 -.208E+04   -.869E-03 0.781E-03 -.638E+01
   0.113E+01 0.113E+01 0.721E+03   -.116E+01 -.116E+01 -.722E+03   0.225E-01 0.225E-01 0.530E+00
   -.536E+00 0.107E+01 0.720E+03   0.525E+00 -.113E+01 -.721E+03   0.744E-02 0.382E-01 0.426E+00
   0.343E+01 0.402E+01 -.633E+03   -.340E+01 -.394E+01 0.633E+03   -.207E-01 -.740E-01 -.894E-01
   -.429E+01 0.429E+01 -.617E+03   0.423E+01 -.423E+01 0.617E+03   0.655E-01 -.655E-01 -.373E+00
   0.352E+02 0.352E+02 -.193E+04   -.358E+02 -.358E+02 0.192E+04   0.474E+00 0.474E+00 0.539E+01
   -.113E+02 0.216E+02 -.198E+04   0.114E+02 -.215E+02 0.197E+04   -.951E-01 -.441E-01 0.542E+01
   -.598E+00 -.631E+00 0.539E+03   0.641E+00 0.628E+00 -.539E+03   -.519E-01 0.518E-02 -.140E+00
   0.610E+00 -.610E+00 0.539E+03   -.601E+00 0.601E+00 -.539E+03   -.120E-01 0.120E-01 -.103E+00
   -.114E+00 -.114E+00 0.156E+04   0.113E+00 0.113E+00 -.157E+04   0.121E-02 0.119E-02 0.312E+01
   0.166E+00 -.115E+00 0.156E+04   -.171E+00 0.114E+00 -.157E+04   0.564E-02 0.135E-02 0.313E+01
   -.161E+02 -.918E+01 -.151E+04   0.160E+02 0.915E+01 0.151E+04   0.971E-01 0.327E-01 -.444E+01
   0.780E+01 -.780E+01 -.152E+04   -.774E+01 0.774E+01 0.152E+04   -.632E-01 0.632E-01 -.453E+01
   -.192E+01 -.192E+01 -.473E+03   0.192E+01 0.192E+01 0.472E+03   -.628E-02 -.635E-02 0.293E+00
   0.367E+01 -.201E+01 -.467E+03   -.359E+01 0.201E+01 0.466E+03   -.813E-01 0.332E-02 0.287E+00
   -.610E+00 0.611E+00 0.539E+03   0.601E+00 -.601E+00 -.539E+03   0.120E-01 -.120E-01 -.103E+00
   0.597E+00 0.631E+00 0.539E+03   -.641E+00 -.627E+00 -.539E+03   0.519E-01 -.511E-02 -.140E+00
   -.167E+00 0.115E+00 0.156E+04   0.171E+00 -.114E+00 -.157E+04   -.560E-02 -.131E-02 0.313E+01
   0.114E+00 0.114E+00 0.156E+04   -.113E+00 -.113E+00 -.157E+04   -.117E-02 -.123E-02 0.312E+01
   -.780E+01 0.780E+01 -.152E+04   0.774E+01 -.774E+01 0.152E+04   0.633E-01 -.632E-01 -.453E+01
   0.161E+02 0.918E+01 -.151E+04   -.160E+02 -.915E+01 0.151E+04   -.970E-01 -.327E-01 -.444E+01
   -.367E+01 0.201E+01 -.467E+03   0.359E+01 -.201E+01 0.466E+03   0.813E-01 -.326E-02 0.287E+00
   0.192E+01 0.192E+01 -.473E+03   -.192E+01 -.192E+01 0.472E+03   0.634E-02 0.627E-02 0.293E+00
   0.589E+00 -.589E+00 0.541E+03   -.602E+00 0.602E+00 -.541E+03   0.154E-01 -.154E-01 -.563E-01
   -.631E+00 -.597E+00 0.539E+03   0.628E+00 0.641E+00 -.539E+03   0.511E-02 -.519E-01 -.140E+00
   0.115E+00 -.166E+00 0.156E+04   -.114E+00 0.171E+00 -.157E+04   -.133E-02 -.562E-02 0.313E+01
   -.165E+00 -.165E+00 0.156E+04   0.171E+00 0.171E+00 -.157E+04   -.700E-02 -.694E-02 0.313E+01
   0.261E+02 -.261E+02 -.145E+04   -.260E+02 0.260E+02 0.145E+04   -.136E+00 0.136E+00 -.418E+01
   -.918E+01 -.161E+02 -.151E+04   0.915E+01 0.160E+02 0.151E+04   0.326E-01 0.970E-01 -.444E+01
   0.201E+01 -.367E+01 -.467E+03   -.201E+01 0.359E+01 0.466E+03   -.332E-02 0.813E-01 0.287E+00
   -.386E+01 -.386E+01 -.466E+03   0.380E+01 0.380E+01 0.466E+03   0.666E-01 0.666E-01 -.139E+00
   0.631E+00 0.598E+00 0.539E+03   -.627E+00 -.641E+00 -.539E+03   -.514E-02 0.519E-01 -.140E+00
   -.589E+00 0.589E+00 0.541E+03   0.602E+00 -.602E+00 -.541E+03   -.155E-01 0.155E-01 -.562E-01
   0.165E+00 0.165E+00 0.156E+04   -.171E+00 -.171E+00 -.157E+04   0.696E-02 0.698E-02 0.313E+01
   -.115E+00 0.167E+00 0.156E+04   0.114E+00 -.171E+00 -.157E+04   0.129E-02 0.559E-02 0.313E+01
   0.918E+01 0.161E+02 -.151E+04   -.915E+01 -.160E+02 0.151E+04   -.327E-01 -.971E-01 -.444E+01
   -.261E+02 0.261E+02 -.145E+04   0.260E+02 -.260E+02 0.145E+04   0.136E+00 -.136E+00 -.418E+01
   0.386E+01 0.386E+01 -.466E+03   -.380E+01 -.380E+01 0.466E+03   -.666E-01 -.666E-01 -.139E+00
   -.201E+01 0.367E+01 -.467E+03   0.201E+01 -.359E+01 0.466E+03   0.325E-02 -.813E-01 0.287E+00
   -.850E-05 -.133E-04 0.339E+02   0.341E-12 -.345E-12 -.568E-12   0.431E-06 -.539E-05 -.283E+02

 POSITION                                       TOTAL-FORCE (eV/Angst)
      5.27562      5.27562     16.04499        -0.000004      0.000002      2.266318
      5.27562      5.27562     17.22603        -0.000012      0.000004     -1.912939
      0.00000      6.33074      7.50000         0.000139      0.000571      0.469374
      2.11025      0.00000      7.50000        -0.000667      0.000671      0.467012
      0.00000      0.00000      9.61025        -0.004794     -0.004781      0.048440
      2.11025      6.33074      9.61025        -0.017353     -0.003143      0.055748
      8.43648      6.33022     11.73829        -0.000489     -0.008452      0.005174
      2.10971      0.00054     11.73552         0.007304     -0.007303      0.017162
      0.00005      0.00005     13.84392         0.009274      0.009318     -0.102015
      2.10095      6.33385     13.83731         0.030742      0.017034     -0.123667
      0.00000      2.11025      7.50000         0.000665     -0.000648      0.467070
      2.11025      4.22049      7.50000        -0.000179     -0.000600      0.469395
      0.00000      4.22049      9.61025         0.017339      0.003138      0.055792
      2.11025      2.11025      9.61025         0.004776      0.004795      0.048359
      0.00054      2.10971     11.73552        -0.007312      0.007310      0.017248
      2.11475      4.22101     11.73829         0.000474      0.008451      0.005195
      0.00930      4.21739     13.83731        -0.030724     -0.017054     -0.123723
      2.11019      2.11019     13.84392        -0.009319     -0.009287     -0.101953
      4.22049      6.33074      7.50000        -0.000441      0.000442      0.463338
      6.33074      0.00000      7.50000         0.000599      0.000146      0.469386
      4.22049      0.00000      9.61025         0.003144      0.017349      0.055835
      6.33074      6.33074      9.61025         0.008272      0.008250      0.050546
      4.22173      6.32950     11.73214        -0.007242      0.007254      0.060272
      6.33022      8.43648     11.73829        -0.008442     -0.000475      0.005186
      4.21739      0.00930     13.83731        -0.017014     -0.030736     -0.123676
      6.33060      6.33060     13.87489         0.022581      0.022580     -0.254271
      4.22049      2.11025      7.50000        -0.000595     -0.000145      0.469369
      6.33074      4.22049      7.50000         0.000467     -0.000448      0.463363
      4.22049      4.22049      9.61025        -0.008254     -0.008265      0.050617
      6.33074      2.11025      9.61025        -0.003137     -0.017337      0.055748
      4.22101      2.11475     11.73829         0.008463      0.000489      0.005196
      6.32950      4.22173     11.73214         0.007260     -0.007251      0.060274
      4.22064      4.22064     13.87489        -0.022570     -0.022582     -0.254227
      6.33385      2.10095     13.83731         0.017064      0.030745     -0.123713
      0.00000      6.33074      9.61025        -0.015967      0.001975      0.064568
      2.11025      0.00000      9.61025        -0.004093      0.004099      0.063905
      0.00000      0.00000      7.50000         0.000404      0.000395     -0.436973
      2.11025      6.33074      7.50000         0.001862      0.000435     -0.435555
      8.43934      6.32878     13.89115        -0.000979      0.007835     -0.083238
      2.10832      0.00193     13.88871        -0.013852      0.013868     -0.102301
      8.44071      8.44071     11.73170        -0.004340     -0.004358      0.037844
      2.10763      6.33141     11.72905        -0.020228     -0.001167      0.024944
      0.00000      2.11025      9.61025         0.004108     -0.004120      0.063939
      2.11025      4.22049      9.61025         0.015987     -0.001959      0.064566
      0.00000      4.22049      7.50000        -0.001849     -0.000418     -0.435420
      2.11025      2.11025      7.50000        -0.000391     -0.000409     -0.436985
      0.00193      2.10832     13.88871         0.013878     -0.013872     -0.102407
      2.11189      4.22245     13.89115         0.000979     -0.007811     -0.083221
      0.00261      4.21982     11.72905         0.020228      0.001188      0.024894
      2.11052      2.11052     11.73170         0.004356      0.004333      0.037898
      4.22049      6.33074      9.61025         0.004633     -0.004632      0.065264
      6.33074      0.00000      9.61025         0.001954     -0.015976      0.064565
      4.22049      0.00000      7.50000        -0.000433     -0.001857     -0.435562
      6.33074      6.33074      7.50000        -0.002346     -0.002334     -0.434600
      4.20254      6.34869     13.86263        -0.001778      0.001757     -0.085756
      6.32878      8.43934     13.89115         0.007832     -0.000987     -0.083236
      4.21982      0.00261     11.72905         0.001176      0.020228      0.024904
      6.32962      6.32962     11.73656         0.012971      0.012976      0.010520
      4.22049      2.11025      9.61025        -0.001968      0.015961      0.064566
      6.33074      4.22049      9.61025        -0.004654      0.004641      0.065285
      4.22049      4.22049      7.50000         0.002337      0.002347     -0.434600
      6.33074      2.11025      7.50000         0.000417      0.001844     -0.435478
      4.22245      2.11189     13.89115        -0.007821      0.000975     -0.083242
      6.34869      4.20254     13.86263         0.001744     -0.001764     -0.085752
      4.22161      4.22161     11.73656        -0.012988     -0.012992      0.010498
      6.33141      2.10763     11.72905        -0.001192     -0.020240      0.024935
    total drift:                                0.000027      0.000013      0.005452

  FREE ENERGIE OF THE ION-ELECTRON SYSTEM (eV)
  free  energy   TOTEN  =      -454.37881116 eV

  energy  without entropy=     -454.37881116  energy(sigma->0) =     -454.37881116