 vasp.6.3.0 20Jan22 (build Apr  1 2022 16:44:48) complex
 executed on        HPECrayEX_GCC date 2023.02.23  10:03:17

 INCAR:
   SYSTEM = MgO-rocksalt
   ISMEAR = 0
   SIGMA = 0.05
   EDIFF = 1E-6
   ALGO = ALL
   ISTART = 0
   IBRION = -1
   NSW = 0
   ISYM = 0
   DIPOL = 0.5 0.5 0.5
   IDIPOL = 3
   LDIPOL = .TRUE.
   LHFCALC = .TRUE.
   GGA = B5
   AEXX = 0.2
   AGGAX = 0.72
   AGGAC = 0.81
   ALDAC = 0.19
   IVDW = 1
   VDW_S6 = 1.05
   VDW_C6 = 1.23 0.14 0.63 0.70
   VDW_R0 = 1.397 1.001 1.243 1.342
   ENCUT = 600
   PREC = Accurate
   LASPH = .TRUE.
   LREAL = .FALSE.
   ISPIN = 1
   NELM = 200
   NELMIN = 8
   NCORE = 8
   KPAR = 1
   LWAVE = .FALSE.
   LCHARG = .FALSE.

 POTCAR:    PAW_PBE N 08Apr2002
 POTCAR:    PAW_PBE H 15Jun2001
 POTCAR:    PAW_PBE Mg_pv 13Apr2007
 POTCAR:    PAW_PBE O 08Apr2002
 POTCAR:    PAW_PBE N 08Apr2002
   VRHFIN =N: s2p3

   TITEL  = PAW_PBE N 08Apr2002
   POMASS =   14.001; ZVAL   =    5.000    mass and valenz
   ENMAX  =  400.000; ENMIN  =  300.000 eV

   TITEL  = PAW_PBE H 15Jun2001
   POMASS =    1.000; ZVAL   =    1.000    mass and valenz
   ENMAX  =  250.000; ENMIN  =  200.000 eV

   TITEL  = PAW_PBE Mg_pv 13Apr2007
   POMASS =   24.305; ZVAL   =    8.000    mass and valenz
   ENMAX  =  403.929; ENMIN  =  302.947 eV

   TITEL  = PAW_PBE O 08Apr2002
   POMASS =   16.000; ZVAL   =    6.000    mass and valenz
   ENMAX  =  400.000; ENMIN  =  300.000 eV

  PAW_PBE N 08Apr2002                   :
  PAW_PBE H 15Jun2001                   :
  PAW_PBE Mg_pv 13Apr2007               :
  PAW_PBE O 08Apr2002                   :

 POSCAR:  N  H Mg  O
  positions in direct lattice
 exchange correlation table for  LEXCH =       12
   RHO(1)=    0.500       N(1)  =     2000
   RHO(2)=  100.500       N(2)  =     4000

 ion  position               nearest neighbor table
   1  0.500  0.513  0.759-   3 1.02   4 1.02   2 1.02
   2  0.500  0.632  0.768-   1 1.02
   3  0.402  0.464  0.780-   1 1.02
   4  0.598  0.464  0.780-   1 1.02
   5  0.250  0.000  0.352-  37 2.11  39 2.11  40 2.11  47 2.11  56 2.11
   6  0.500  0.250  0.352-  38 2.11  39 2.11  40 2.11  48 2.11  55 2.11
   7  0.250  0.250  0.451-  39 2.11  38 2.11  37 2.11  45 2.11  54 2.11  43 2.11
   8  0.500  0.000  0.451-  44 2.11  40 2.11  37 2.11  38 2.11  46 2.11  53 2.11
   9  0.250  1.000  0.550-  44 2.11  43 2.11  51 2.11  60 2.11  37 2.11  41 2.15
  10  0.500  0.251  0.550-  52 2.10  59 2.11  43 2.11  44 2.12  38 2.13  42 2.13
  11  0.250  0.249  0.648-  43 2.09  41 2.11  58 2.11  42 2.11  49 2.11
  12  0.500  0.000  0.648-  42 2.08  50 2.09  44 2.09  57 2.12  41 2.12
  13  0.250  0.500  0.352-  45 2.11  39 2.11  47 2.11  48 2.11  64 2.11
  14  0.500  0.750  0.352-  46 2.11  40 2.11  47 2.11  48 2.11  63 2.11
  15  0.250  0.750  0.451-  47 2.11  45 2.11  46 2.11  37 2.11  62 2.11  51 2.11
  16  0.500  0.500  0.451-  48 2.11  45 2.11  46 2.11  38 2.11  61 2.11  52 2.13
  17  0.251  0.500  0.550-  52 2.10  43 2.11  51 2.11  68 2.12  45 2.13  49 2.13
  18  0.500  0.749  0.550-  52 2.10  51 2.11  67 2.11  44 2.12  46 2.13  50 2.14
  19  0.250  0.750  0.647-  51 2.09  66 2.11  41 2.11  49 2.11  50 2.11
  20  0.500  0.499  0.655-  42 2.13  49 2.14  65 2.14  50 2.15  52 2.22
  21  0.750  0.000  0.352-  53 2.11  40 2.11  55 2.11  56 2.11  63 2.11
  22  0.000  0.250  0.352-  54 2.11  39 2.11  55 2.11  56 2.11  64 2.11
  23  0.750  0.250  0.451-  55 2.11  53 2.11  54 2.11  38 2.11  61 2.11  59 2.11
  24  0.000  0.000  0.451-  56 2.11  53 2.11  54 2.11  37 2.11  62 2.11  60 2.11
  25  0.750  1.000  0.550-  44 2.11  59 2.11  67 2.11  60 2.11  53 2.11  57 2.15
  26  1.000  0.250  0.550-  68 2.11  59 2.11  43 2.11  60 2.11  54 2.11  58 2.15
  27  0.750  0.249  0.648-  59 2.09  57 2.11  58 2.11  42 2.11  65 2.11
  28  0.000  1.000  0.648-  60 2.10  58 2.11  41 2.11  57 2.11  66 2.11
  29  0.750  0.500  0.352-  61 2.11  55 2.11  48 2.11  63 2.11  64 2.11
  30  0.000  0.750  0.352-  62 2.11  56 2.11  47 2.11  63 2.11  64 2.11
  31  0.750  0.750  0.451-  63 2.11  53 2.11  61 2.11  62 2.11  46 2.11  67 2.11
  32  0.000  0.500  0.451-  68 2.11  64 2.11  61 2.11  62 2.11  45 2.11  54 2.11
  33  0.749  0.500  0.550-  52 2.10  59 2.11  67 2.11  68 2.12  61 2.13  65 2.13
  34  0.000  0.750  0.550-  68 2.11  51 2.11  67 2.11  60 2.11  62 2.11  66 2.14
  35  0.750  0.750  0.647-  67 2.09  66 2.11  57 2.11  65 2.11  50 2.11
  36  0.000  0.500  0.648-  49 2.09  65 2.09  68 2.09  58 2.12  66 2.12
  37  0.250  0.000  0.451-   5 2.11   7 2.11   8 2.11  15 2.11  24 2.11   9 2.11
  38  0.500  0.250  0.451-   6 2.11   7 2.11   8 2.11  16 2.11  23 2.11  10 2.13
  39  0.250  0.250  0.352-   7 2.11   6 2.11   5 2.11  13 2.11  22 2.11
  40  0.500  0.000  0.352-   8 2.11   6 2.11   5 2.11  14 2.11  21 2.11
  41  0.249  1.000  0.650-  28 2.11  11 2.11  19 2.11  12 2.12   9 2.15
  42  0.500  0.247  0.650-  12 2.08  11 2.11  27 2.11  20 2.13  10 2.13
  43  0.250  0.250  0.550-  11 2.09  26 2.11   9 2.11  17 2.11  10 2.11   7 2.11
  44  0.500  1.000  0.549-  12 2.09  25 2.11   9 2.11   8 2.11  18 2.12  10 2.12
  45  0.250  0.500  0.451-  13 2.11   7 2.11  15 2.11  16 2.11  32 2.11  17 2.13
  46  0.500  0.750  0.451-  14 2.11   8 2.11  15 2.11  16 2.11  31 2.11  18 2.13
  47  0.250  0.750  0.352-  15 2.11  13 2.11  14 2.11   5 2.11  30 2.11
  48  0.500  0.500  0.352-  16 2.11  13 2.11  14 2.11   6 2.11  29 2.11
  49  0.247  0.500  0.650-  36 2.09  19 2.11  11 2.11  17 2.13  20 2.14
  50  0.500  0.753  0.651-  12 2.09  19 2.11  35 2.11  18 2.14  20 2.15
  51  0.250  0.750  0.550-  19 2.09   9 2.11  34 2.11  18 2.11  17 2.11  15 2.11
  52  0.500  0.500  0.550-  18 2.10  33 2.10  17 2.10  10 2.10  16 2.13  20 2.22
  53  0.750  0.000  0.451-  21 2.11   8 2.11  23 2.11  24 2.11  31 2.11  25 2.11
  54  0.000  0.250  0.451-  22 2.11   7 2.11  23 2.11  24 2.11  32 2.11  26 2.11
  55  0.750  0.250  0.352-  23 2.11  21 2.11  22 2.11   6 2.11  29 2.11
  56  0.000  0.000  0.352-  24 2.11  21 2.11  22 2.11   5 2.11  30 2.11
  57  0.751  1.000  0.650-  28 2.11  27 2.11  35 2.11  12 2.12  25 2.15
  58  0.000  0.249  0.650-  28 2.11  11 2.11  27 2.11  36 2.12  26 2.15
  59  0.750  0.250  0.550-  27 2.09  26 2.11  25 2.11  33 2.11  10 2.11  23 2.11
  60  1.000  1.000  0.550-  28 2.10  24 2.11  34 2.11  25 2.11   9 2.11  26 2.11
  61  0.750  0.500  0.451-  29 2.11  23 2.11  16 2.11  31 2.11  32 2.11  33 2.13
  62  0.000  0.750  0.451-  30 2.11  24 2.11  15 2.11  31 2.11  32 2.11  34 2.11
  63  0.750  0.750  0.352-  31 2.11  21 2.11  29 2.11  30 2.11  14 2.11
  64  0.000  0.500  0.352-  32 2.11  22 2.11  29 2.11  30 2.11  13 2.11
  65  0.753  0.500  0.650-  36 2.09  35 2.11  27 2.11  33 2.13  20 2.14
  66  0.000  0.750  0.650-  28 2.11  19 2.11  35 2.11  36 2.12  34 2.14
  67  0.750  0.750  0.550-  35 2.09  25 2.11  34 2.11  18 2.11  33 2.11  31 2.11
  68  1.000  0.500  0.549-  36 2.09  34 2.11  26 2.11  32 2.11  33 2.12  17 2.12

IMPORTANT INFORMATION: All symmetrisations will be switched off!
NOSYMM: (Re-)initialisation of all symmetry stuff for point group C_1.

                                     Primitive cell

  volume of cell :    1519.6535

  direct lattice vectors                    reciprocal lattice vectors
     8.440582262  0.000000000  0.000000000     0.118475239  0.000000000  0.000000000
     0.000000000  8.440582262  0.000000000     0.000000000  0.118475239  0.000000000
     0.000000000  0.000000000 21.330436697     0.000000000  0.000000000  0.046881366

  length of vectors
     8.440582262  8.440582262 21.330436697     0.118475239  0.118475239  0.046881366

  position of ions in fractional coordinates (direct lattice)
     0.500000016  0.512727331  0.759489343
     0.500000020  0.631902709  0.768423920
     0.401622346  0.464441377  0.779908865
     0.598377727  0.464441393  0.779908863
     0.250000000  0.000000000  0.351610242
     0.500000000  0.250000000  0.351610242
     0.250000000  0.250000000  0.450536747
     0.500000000  0.000000000  0.450536747
     0.250260182  0.999860251  0.549678190
     0.500000020  0.251123605  0.550301925
     0.249776406  0.249438090  0.647519877
     0.500000006  0.000058106  0.647638248
     0.250000000  0.500000000  0.351610242
     0.500000000  0.750000000  0.351610242
     0.250000000  0.750000000  0.450536747
     0.500000000  0.500000000  0.450536747
     0.251295244  0.499807842  0.550351677
     0.499999991  0.748557874  0.550392014
     0.249569129  0.749979486  0.647466983
     0.499999991  0.498607096  0.654631564
     0.750000000  0.000000000  0.351610242
     0.000000000  0.250000000  0.351610242
     0.750000000  0.250000000  0.450536747
     0.000000000  0.000000000  0.450536747
     0.749739797  0.999860274  0.549678211
     0.999999979  0.250113073  0.549674442
     0.750223602  0.249438070  0.647519885
     0.000000010  0.999791920  0.647897593
     0.750000000  0.500000000  0.351610242
     0.000000000  0.750000000  0.351610242
     0.750000000  0.750000000  0.450536747
     0.000000000  0.500000000  0.450536747
     0.748704749  0.499807810  0.550351729
     0.000000002  0.749575326  0.549673924
     0.750430876  0.749979507  0.647466991
     0.000000021  0.499703594  0.647651095
     0.250000000  0.000000000  0.450536747
     0.500000000  0.250000000  0.450536747
     0.250000000  0.250000000  0.351610242
     0.500000000  0.000000000  0.351610242
     0.249357415  0.999764722  0.650244758
     0.499999989  0.246992516  0.650084017
     0.249841465  0.249714907  0.549611444
     0.500000013  0.999778971  0.549452976
     0.250000000  0.500000000  0.450536747
     0.500000000  0.750000000  0.450536747
     0.250000000  0.750000000  0.351610242
     0.500000000  0.500000000  0.351610242
     0.247174641  0.499732351  0.650286192
     0.499999996  0.752908910  0.650604496
     0.249942590  0.749963878  0.549656397
     0.500000016  0.499937500  0.550497276
     0.750000000  0.000000000  0.450536747
     0.000000000  0.250000000  0.450536747
     0.750000000  0.250000000  0.351610242
     0.000000000  0.000000000  0.351610242
     0.750642585  0.999764715  0.650244794
     0.000000026  0.249147452  0.650263053
     0.750158519  0.249714917  0.549611465
     0.999999989  0.999820762  0.549536835
     0.750000000  0.500000000  0.450536747
     0.000000000  0.750000000  0.450536747
     0.750000000  0.750000000  0.351610242
     0.000000000  0.500000000  0.351610242
     0.752825378  0.499732345  0.650286245
     0.000000017  0.750372505  0.650226287
     0.750057397  0.749963872  0.549656411
     0.999999977  0.499873592  0.549452345

  ion indices of the primitive-cell ions
   primitive index   ion index
                 1           1
                 2           2
                 3           3
                 4           4
                 5           5
                 6           6
                 7           7
                 8           8
                 9           9
                10          10
                11          11
                12          12
                13          13
                14          14
                15          15
                16          16
                17          17
                18          18
                19          19
[...]
   4.22029126  4.32771721 16.20023935
   4.22029130  5.33362680 16.39081778
   3.38992645  3.92015565 16.63579667
   5.05065643  3.92015578 16.63579663
   2.11014557  0.00000000  7.50000000
   4.22029113  2.11014557  7.50000000
   2.11014557  2.11014557  9.61014557
   4.22029113  0.00000000  9.61014557
   2.11234166  8.43940270 11.72487583
   4.22029130  2.11962945 11.73818037
   2.10825830  2.10540272 13.81188175
   4.22029118  0.00049045 13.81440665
   2.11014557  4.22029113  7.50000000
   4.22029113  6.33043670  7.50000000
   2.11014557  6.33043670  9.61014557
   4.22029113  4.22029113  9.61014557
   2.12107818  4.21866921 11.73924160
   4.22029105  6.31826431 11.74010201
   2.10650876  6.33026355 13.81075349
   4.22029106  4.20853421 13.96357713
   6.33043670  0.00000000  7.50000000
   0.00000000  2.11014557  7.50000000
   6.33043670  2.11014557  9.61014557
   0.00000000  0.00000000  9.61014557
   6.32824044  8.43940289 11.72487628
   8.44058209  2.11109996 11.72479589
   6.33232402  2.10540255 13.81188191
   0.00000008  8.43882594 13.81993858
   6.33043670  4.22029113  7.50000000
   0.00000000  6.33043670  7.50000000
   6.33043670  6.33043670  9.61014557
   0.00000000  4.22029113  9.61014557
   6.31950402  4.21866894 11.73924271
   0.00000002  6.32685220 11.72478484
   6.33407354  6.33026373 13.81075367
   0.00000017  4.21778929 13.81468069
   2.11014557  0.00000000  9.61014557
   4.22029113  2.11014557  9.61014557
   2.11014557  2.11014557  7.50000000
   4.22029113  0.00000000  7.50000000
   2.10472177  8.43859638 13.87000466
   4.22029104  2.08476065 13.86657598
   2.10880744  2.10773922 11.72345212
   4.22029124  8.43871665 11.72007191
   2.11014557  4.22029113  9.61014557
   4.22029113  6.33043670  9.61014557
   2.11014557  6.33043670  7.50000000
   4.22029113  4.22029113  7.50000000
   2.08629789  4.21803202 13.87088846
   4.22029109  6.35498959 13.87767801
   2.10966099  6.33013180 11.72441098
   4.22029127  4.21976359 11.74234729
   6.33043670  0.00000000  9.61014557
   0.00000000  2.11014557  9.61014557
   6.33043670  2.11014557  7.50000000
   0.00000000  0.00000000  7.50000000
   6.33586049  8.43859632 13.87000542
   0.00000022  2.10294957 13.87039489
   6.33177469  2.10773930 11.72345256
   8.44058217  8.43906939 11.72186067
   6.33043670  4.22029113  9.61014557
   0.00000000  6.33043670  9.61014557
   6.33043670  6.33043670  7.50000000
   0.00000000  4.22029113  7.50000000
   6.35428453  4.21803197 13.87088958
   0.00000014  6.33358086 13.86961065
   6.33092116  6.33013176 11.72441129
   8.44058207  4.21922418 11.72005847

--------------------------------------- Iteration      FINAL  ---------------------------------------

--------------------OUTCAR has been truncated-------------------------

[...]

--------------------OUTCAR has been truncated-------------------------

  DFT-D2 method for vdW energy calculation

  Parameters of vdW forcefield:
         C6(Jnm^6/mol)     R0(A)
   N        1.230          1.397
   H        0.140          1.001
   Mg       0.630          1.243
   O        0.700          1.342

  vdW correction parametrized for the method â6þ      

  IVDW =   1
  VDW_RADIUS =    50.000 A
  VDW_S6 =     1.050
  VDW_SR =     1.000
  VDW_D =    20.000
  LVDW_EWALD = F

  Number of pair interactions contributing to vdW energy:  814758
  Edisp (eV):   -5.24176

 VOLUME and BASIS-vectors are now :
  energy-cutoff  :      600.00
  volume of cell :     1519.65
      direct lattice vectors                 reciprocal lattice vectors
     8.440582262  0.000000000  0.000000000     0.118475239  0.000000000  0.000000000
     0.000000000  8.440582262  0.000000000     0.000000000  0.118475239  0.000000000
     0.000000000  0.000000000 21.330436697     0.000000000  0.000000000  0.046881366

  length of vectors
     8.440582262  8.440582262 21.330436697     0.118475239  0.118475239  0.046881366

 FORCES acting on ions:
    Electron-Ion                     Ewald-Force                    Non-Local-Force
   0.167E-04 0.647E+01 -.134E+04   -.871E-05 -.106E+02 0.131E+04   0.688E-05 0.385E+01 0.232E+02
   0.150E-05 -.696E+02 -.275E+03   -.144E-05 0.765E+02 0.276E+03   -.296E-06 -.703E+01 -.107E+01
   0.579E+02 0.289E+02 -.279E+03   -.637E+02 -.318E+02 0.282E+03   0.585E+01 0.289E+01 -.282E+01
   -.579E+02 0.289E+02 -.279E+03   0.637E+02 -.318E+02 0.282E+03   -.585E+01 0.289E+01 -.282E+01
   -.494E-01 0.947E-02 0.208E+04   0.576E-01 -.101E-01 -.208E+04   -.526E-02 0.420E-03 -.638E+01
   0.302E-05 -.859E-01 0.208E+04   0.820E-05 0.980E-01 -.208E+04   -.146E-04 -.800E-02 -.641E+01
   -.364E+00 -.414E+00 0.715E+03   0.419E+00 0.471E+00 -.716E+03   -.337E-01 -.359E-01 0.427E+00
   -.246E-04 0.431E-01 0.715E+03   0.266E-04 -.634E-01 -.716E+03   0.885E-07 0.129E-01 0.295E+00
   0.271E+01 -.131E+00 -.645E+03   -.263E+01 0.143E+00 0.645E+03   -.770E-01 -.997E-02 0.419E-01
   0.861E-04 0.239E+01 -.643E+03   -.889E-04 -.202E+01 0.643E+03   -.648E-07 -.333E+00 -.445E+00
   0.185E+02 0.190E+02 -.199E+04   -.186E+02 -.191E+02 0.199E+04   0.773E-01 0.958E-01 0.569E+01
   0.551E-04 -.210E+01 -.200E+04   -.625E-04 0.212E+01 0.200E+04   0.604E-05 -.244E-01 0.551E+01
   -.831E-01 -.106E-01 0.208E+04   0.954E-01 0.105E-01 -.208E+04   -.824E-02 0.811E-04 -.641E+01
   -.158E-04 0.852E-01 0.208E+04   0.112E-04 -.978E-01 -.208E+04   0.377E-05 0.844E-02 -.641E+01
   -.404E+00 0.386E+00 0.715E+03   0.479E+00 -.457E+00 -.715E+03   -.473E-01 0.444E-01 0.448E+00
   -.500E-04 -.709E-01 0.713E+03   0.564E-04 0.790E-01 -.713E+03   -.378E-05 -.561E-02 0.516E+00
   0.240E+01 0.123E+00 -.643E+03   -.202E+01 -.130E+00 0.644E+03   -.341E+00 0.685E-02 -.393E+00
   -.418E-04 -.222E+01 -.644E+03   0.462E-04 0.184E+01 0.645E+03   -.355E-05 0.338E+00 -.278E+00
   0.201E+02 -.194E+02 -.199E+04   -.202E+02 0.195E+02 0.198E+04   0.142E+00 -.874E-01 0.570E+01
   0.124E-04 0.480E+01 -.193E+04   -.145E-04 -.509E+01 0.193E+04   -.625E-06 0.261E+00 0.776E+00
   0.494E-01 0.949E-02 0.208E+04   -.576E-01 -.101E-01 -.208E+04   0.526E-02 0.408E-03 -.638E+01
   -.855E-05 -.523E-01 0.208E+04   -.851E-05 0.601E-01 -.208E+04   0.113E-04 -.501E-02 -.638E+01
   0.364E+00 -.414E+00 0.715E+03   -.419E+00 0.471E+00 -.716E+03   0.337E-01 -.359E-01 0.427E+00
   0.332E-04 -.914E-02 0.715E+03   -.376E-04 0.722E-02 -.715E+03   0.725E-06 0.929E-03 0.396E+00
   -.271E+01 -.131E+00 -.645E+03   0.263E+01 0.142E+00 0.645E+03   0.770E-01 -.996E-02 0.419E-01
   -.281E-04 0.269E+01 -.646E+03   0.354E-04 -.260E+01 0.646E+03   -.382E-05 -.806E-01 0.537E-01
   -.185E+02 0.190E+02 -.199E+04   0.186E+02 -.191E+02 0.199E+04   -.773E-01 0.958E-01 0.569E+01
   0.651E-05 -.734E+00 -.202E+04   0.449E-05 0.751E+00 0.201E+04   -.104E-04 -.145E-01 0.555E+01
   0.831E-01 -.106E-01 0.208E+04   -.954E-01 0.105E-01 -.208E+04   0.824E-02 0.931E-04 -.641E+01
   0.144E-04 0.513E-01 0.208E+04   -.114E-04 -.598E-01 -.208E+04   -.369E-06 0.548E-02 -.637E+01
   0.404E+00 0.386E+00 0.715E+03   -.479E+00 -.457E+00 -.715E+03   0.473E-01 0.444E-01 0.448E+00
   0.482E-04 -.192E-01 0.715E+03   -.569E-04 0.800E-02 -.716E+03   0.339E-05 0.700E-02 0.294E+00
   -.240E+01 0.123E+00 -.643E+03   0.202E+01 -.130E+00 0.644E+03   0.341E+00 0.685E-02 -.393E+00
   0.766E-04 -.269E+01 -.645E+03   -.772E-04 0.260E+01 0.645E+03   0.942E-06 0.788E-01 0.366E-01
   -.201E+02 -.194E+02 -.199E+04   0.202E+02 0.195E+02 0.198E+04   -.142E+00 -.874E-01 0.570E+01
   0.179E-05 0.800E+00 -.200E+04   -.209E-07 -.815E+00 0.200E+04   -.256E-05 0.145E-01 0.552E+01
   0.190E-01 0.243E-01 0.536E+03   0.803E-02 -.143E-01 -.536E+03   -.340E-01 -.122E-01 -.145E-01
   -.104E-04 -.151E+00 0.535E+03   0.127E-04 0.111E+00 -.535E+03   -.424E-05 0.456E-01 -.155E+00
   -.517E-01 -.557E-01 0.156E+04   0.611E-01 0.664E-01 -.157E+04   -.117E-01 -.132E-01 0.313E+01
   -.350E-05 0.100E-01 0.156E+04   0.630E-05 -.112E-01 -.157E+04   -.384E-05 0.143E-02 0.313E+01
   0.732E+01 -.971E+00 -.153E+04   -.714E+01 0.945E+00 0.154E+04   -.170E+00 0.242E-01 -.438E+01
   0.143E-04 0.243E+02 -.150E+04   -.147E-04 -.237E+02 0.150E+04   0.151E-05 -.576E+00 -.433E+01
   0.183E+01 0.177E+01 -.475E+03   -.180E+01 -.174E+01 0.475E+03   -.356E-01 -.276E-01 0.523E+00
   0.339E-04 -.138E-01 -.474E+03   -.400E-04 0.157E-01 0.474E+03   0.487E-05 -.809E-03 0.419E+00
   -.127E+00 -.535E-01 0.535E+03   0.792E-01 0.606E-01 -.535E+03   0.548E-01 -.802E-02 -.169E+00
   -.376E-04 0.126E+00 0.535E+03   0.377E-04 -.709E-01 -.534E+03   -.147E-05 -.632E-01 -.180E+00
   -.567E-01 0.564E-01 0.156E+04   0.681E-01 -.666E-01 -.157E+04   -.142E-01 0.126E-01 0.313E+01
   -.128E-04 -.961E-02 0.156E+04   0.883E-05 0.111E-01 -.157E+04   -.238E-05 -.192E-02 0.311E+01
   0.248E+02 0.138E+01 -.150E+04   -.241E+02 -.137E+01 0.150E+04   -.670E+00 -.105E-01 -.428E+01
   0.281E-05 -.251E+02 -.149E+04   -.370E-05 0.242E+02 0.150E+04   -.122E-05 0.792E+00 -.417E+01
   0.173E+01 -.174E+01 -.475E+03   -.170E+01 0.171E+01 0.474E+03   -.233E-01 0.358E-01 0.565E+00
   0.122E-04 -.119E+00 -.490E+03   -.152E-04 0.113E+00 0.491E+03   0.551E-06 0.509E-02 -.106E+01
   -.190E-01 0.243E-01 0.536E+03   -.802E-02 -.143E-01 -.536E+03   0.340E-01 -.123E-01 -.145E-01
   0.157E-04 -.178E-02 0.536E+03   -.178E-04 0.366E-01 -.536E+03   0.286E-05 -.433E-01 -.185E-01
   0.517E-01 -.557E-01 0.156E+04   -.611E-01 0.664E-01 -.157E+04   0.117E-01 -.132E-01 0.313E+01
   0.301E-05 0.500E-02 0.156E+04   -.661E-05 -.418E-02 -.157E+04   0.263E-05 -.104E-02 0.314E+01
   -.732E+01 -.971E+00 -.153E+04   0.714E+01 0.945E+00 0.154E+04   0.170E+00 0.242E-01 -.438E+01
   0.166E-04 0.723E+01 -.153E+04   -.155E-04 -.706E+01 0.154E+04   -.908E-07 -.156E+00 -.438E+01
   -.183E+01 0.177E+01 -.475E+03   0.180E+01 -.174E+01 0.475E+03   0.356E-01 -.276E-01 0.523E+00
   0.288E-04 -.169E+00 -.481E+03   -.278E-04 0.170E+00 0.481E+03   -.184E-05 -.229E-03 0.312E+00
   0.127E+00 -.535E-01 0.535E+03   -.792E-01 0.606E-01 -.535E+03   -.548E-01 -.802E-02 -.169E+00
   0.393E-04 -.258E-01 0.536E+03   -.399E-04 0.682E-02 -.536E+03   0.102E-05 0.246E-01 -.693E-02
   0.567E-01 0.564E-01 0.156E+04   -.681E-01 -.666E-01 -.157E+04   0.142E-01 0.126E-01 0.313E+01
   0.697E-05 -.449E-02 0.156E+04   -.892E-05 0.407E-02 -.157E+04   0.244E-05 0.511E-03 0.312E+01
   -.248E+02 0.138E+01 -.150E+04   0.241E+02 -.137E+01 0.150E+04   0.670E+00 -.105E-01 -.428E+01
   0.246E-04 -.727E+01 -.153E+04   -.236E-04 0.709E+01 0.154E+04   0.256E-05 0.165E+00 -.439E+01
   -.173E+01 -.174E+01 -.475E+03   0.170E+01 0.171E+01 0.474E+03   0.233E-01 0.359E-01 0.565E+00
   -.623E-07 0.184E+00 -.475E+03   -.475E-06 -.190E+00 0.474E+03   0.122E-05 0.642E-02 0.415E+00
   0.821E-05 -.341E+01 0.117E+01   0.448E-12 -.995E-13 -.500E-11   0.239E-06 0.309E+01 -.601E+00

 POSITION                                       TOTAL-FORCE (eV/Angst)
      4.22029      4.32772     16.20024         0.000015      0.079777      0.464906
      4.22029      5.33363     16.39082        -0.000000     -0.386734     -0.114552
      3.38993      3.92016     16.63580         0.322231      0.156463     -0.187338
      5.05066      3.92016     16.63580        -0.322237      0.156469     -0.187341
      2.11015      0.00000      7.50000         0.002282     -0.000034      0.462476
      4.22029      2.11015      7.50000        -0.000006      0.003144      0.469793
      2.11015      2.11015      9.61015         0.015862      0.016334      0.019702
      4.22029      0.00000      9.61015         0.000002     -0.005572      0.045132
      2.11234      8.43940     11.72488         0.003175      0.001078     -0.014545
      4.22029      2.11963     11.73818        -0.000003      0.007973     -0.008148
      2.10826      2.10540     13.81188         0.001073      0.002692     -0.126759
      4.22029      0.00049     13.81441        -0.000001     -0.000026     -0.124107
      2.11015      4.22029      7.50000         0.003108      0.000103      0.470784
      4.22029      6.33044      7.50000        -0.000000     -0.003039      0.471560
      2.11015      6.33044      9.61015         0.021287     -0.020602      0.020529
      4.22029      4.22029      9.61015         0.000002      0.001899      0.063968
      2.12108      4.21867     11.73924         0.007524      0.001103     -0.008454
      4.22029      6.31826     11.74010         0.000000     -0.006795     -0.009145
      2.10651      6.33026     13.81075         0.002809     -0.000990     -0.127223
      4.22029      4.20853     13.96358        -0.000004      0.001073     -0.039951
      6.33044      0.00000      7.50000        -0.002281     -0.000032      0.462481
      0.00000      2.11015      7.50000        -0.000004      0.002313      0.462979
      6.33044      2.11015      9.61015        -0.015862      0.016332      0.019692
      0.00000      0.00000      9.61015        -0.000004     -0.000707      0.007371
      6.32824      8.43940     11.72488        -0.003175      0.001078     -0.014546
      8.44058      2.11110     11.72480         0.000003      0.003767     -0.014279
      6.33232      2.10540     13.81188        -0.001071      0.002695     -0.126812
      0.00000      8.43883     13.81994        -0.000001      0.001288     -0.123331
      6.33044      4.22029      7.50000        -0.003105      0.000099      0.470794
      0.00000      6.33044      7.50000         0.000003     -0.002226      0.461847
      6.33044      6.33044      9.61015        -0.021286     -0.020604      0.020533
      0.00000      4.22029      9.61015        -0.000005     -0.003190      0.045435
      6.31950      4.21867     11.73924        -0.007523      0.001107     -0.008455
      0.00000      6.32685     11.72478         0.000001     -0.002651     -0.015086
      6.33407      6.33026     13.81075        -0.002809     -0.000995     -0.127204
      0.00000      4.21779     13.81468        -0.000001      0.001018     -0.124556
      2.11015      0.00000      9.61015        -0.012048     -0.003848      0.039898
      4.22029      2.11015      9.61015        -0.000003      0.012197      0.058106
      2.11015      2.11015      7.50000        -0.003872     -0.004292     -0.434915
      4.22029      0.00000      7.50000        -0.000002      0.000584     -0.435676
      2.10472      8.43860     13.87000        -0.008139      0.001784     -0.003114
      4.22029      2.08476     13.86658         0.000001     -0.006324     -0.001956
      2.10881      2.10774     11.72345        -0.003767     -0.002826      0.025412
      4.22029      8.43872     11.72007        -0.000001      0.001096      0.024864
      2.11015      4.22029      9.61015         0.014729     -0.001920      0.058069
      4.22029      6.33044      9.61015        -0.000002     -0.017107      0.058101
      2.11015      6.33044      7.50000        -0.004718      0.004277     -0.434891
      4.22029      4.22029      7.50000        -0.000007     -0.000562     -0.442181
      2.08630      4.21803     13.87089        -0.008847     -0.000095      0.001541
      4.22029      6.35499     13.87768        -0.000002      0.011679      0.009685
      2.10966      6.33013     11.72441        -0.004021      0.005047      0.025039
      4.22029      4.21976     11.74235        -0.000003     -0.000157     -0.017113
      6.33044      0.00000      9.61015         0.012050     -0.003847      0.039896
      0.00000      2.11015      9.61015         0.000001     -0.014696      0.037988
      6.33044      2.11015      7.50000         0.003878     -0.004298     -0.434876
      0.00000      0.00000      7.50000        -0.000001     -0.000251     -0.430528
      6.33586      8.43860     13.87001         0.008140      0.001785     -0.003126
      0.00000      2.10295     13.87039         0.000001     -0.006383     -0.002574
      6.33177      2.10774     11.72345         0.003769     -0.002825      0.025411
      8.44058      8.43907     11.72186        -0.000001      0.001102      0.021405
      6.33044      4.22029      9.61015        -0.014726     -0.001919      0.058072
      0.00000      6.33044      9.61015         0.000000      0.009422      0.042275
      6.33044      6.33044      7.50000         0.004719      0.004282     -0.434899
      0.00000      4.22029      7.50000         0.000001      0.000257     -0.435706
      6.35428      4.21803     13.87089         0.008845     -0.000095      0.001536
      0.00000      6.33358     13.86961         0.000004      0.008702     -0.003648
      6.33092      6.33013     11.72441         0.004021      0.005048      0.025043
      8.44058      4.21922     11.72006         0.000001      0.000574      0.024709
    total drift:                                0.000009     -0.007064      0.000709

  FREE ENERGIE OF THE ION-ELECTRON SYSTEM (eV)
  free  energy   TOTEN  =      -461.93438674 eV

  energy  without entropy=     -461.93438674  energy(sigma->0) =     -461.93438674