 vasp.6.3.0 20Jan22 (build Dec 25 2023 18:06:01) complex
 executed on        HPECrayEX_GCC date 2024.01.26  01:38:46

 INCAR:
   SYSTEM = MgO-rocksalt
   ISMEAR = 0
   SIGMA = 0.05
   EDIFF = 1E-6
   ALGO = ALL
   ISTART = 0
   IBRION = -1
   NSW = 0
   ISYM = 0
   DIPOL = 0.5 0.5 0.5
   IDIPOL = 3
   LDIPOL = .TRUE.
   LHFCALC = .TRUE.
   GGA = B5
   AEXX = 0.2
   AGGAX = 0.72
   AGGAC = 0.81
   ALDAC = 0.19
   IVDW = 1
   VDW_S6 = 1.05
   VDW_C6 = 1.75 0.14 0.63 0.70
   VDW_R0 = 1.452 1.001 1.243 1.342
   ENCUT = 520
   PREC = Accurate
   LASPH = .TRUE.
   LREAL = Auto
   ISPIN = 1
   NELM = 200
   NELMIN = 8
   NCORE = 2
   KPAR = 1
   LWAVE = .FALSE.
   LCHARG = .FALSE.

 POTCAR:    PAW_PBE C 08Apr2002
 POTCAR:    PAW_PBE H 15Jun2001
 POTCAR:    PAW_PBE Mg_pv 13Apr2007
 POTCAR:    PAW_PBE O 08Apr2002
 POTCAR:    PAW_PBE C 08Apr2002
   VRHFIN =C: s2p2

   TITEL  = PAW_PBE C 08Apr2002
   POMASS =   12.011; ZVAL   =    4.000    mass and valenz
   ENMAX  =  400.000; ENMIN  =  300.000 eV

   TITEL  = PAW_PBE H 15Jun2001
   POMASS =    1.000; ZVAL   =    1.000    mass and valenz
   ENMAX  =  250.000; ENMIN  =  200.000 eV

   TITEL  = PAW_PBE Mg_pv 13Apr2007
   POMASS =   24.305; ZVAL   =    8.000    mass and valenz
   ENMAX  =  403.929; ENMIN  =  302.947 eV

   TITEL  = PAW_PBE O 08Apr2002
   POMASS =   16.000; ZVAL   =    6.000    mass and valenz
   ENMAX  =  400.000; ENMIN  =  300.000 eV

 Optimization of the real space projectors (new method)

 maximal supplied QI-value         = 25.13
 optimisation between [QCUT,QGAM] = [ 11.56, 23.12] = [ 37.43,149.72] Ry
 Optimized for a Real-space Cutoff    1.04 Angstroem

   l    n(q)    QCUT    max X(q) W(low)/X(q) W(high)/X(q)  e(spline)
   0      7    11.561   115.676    0.20E-03    0.60E-03    0.21E-06
   0      7    11.561    87.132    0.20E-03    0.59E-03    0.21E-06
   1      7    11.561     4.429    0.23E-03    0.35E-03    0.15E-06
   1      7    11.561     2.733    0.18E-03    0.25E-03    0.12E-06
 Optimization of the real space projectors (new method)

[...]

   l    n(q)    QCUT    max X(q) W(low)/X(q) W(high)/X(q)  e(spline)
   1      8    11.527     2.974    0.44E-04    0.56E-04    0.12E-06
   1      8    11.527     4.279    0.12E-03    0.12E-03    0.26E-06
   0      9    11.527    16.381    0.46E-04    0.64E-04    0.78E-07
   0      9    11.527     5.611    0.26E-04    0.43E-04    0.55E-07
   2      8    11.527     4.652    0.22E-03    0.72E-04    0.47E-07
 Optimization of the real space projectors (new method)

 maximal supplied QI-value         = 24.76
 optimisation between [QCUT,QGAM] = [ 11.64, 23.27] = [ 37.91,151.63] Ry
 Optimized for a Real-space Cutoff    1.14 Angstroem

   l    n(q)    QCUT    max X(q) W(low)/X(q) W(high)/X(q)  e(spline)
   0      8    11.635    20.381    0.10E-03    0.33E-03    0.24E-06
   0      8    11.635    15.268    0.11E-03    0.35E-03    0.26E-06
   1      7    11.635     5.964    0.24E-03    0.31E-03    0.30E-06
   1      7    11.635     5.382    0.22E-03    0.25E-03    0.26E-06
|               ----> ADVICE to this user running VASP <----                  |
|     You enforced a specific xc type in the INCAR file but a different       |
|     type was found in the POTCAR file.                                      |
|     I HOPE YOU KNOW WHAT YOU ARE DOING!                                     |

  PAW_PBE C 08Apr2002                   :
  PAW_PBE H 15Jun2001                   :
  PAW_PBE Mg_pv 13Apr2007               :
  PAW_PBE O 08Apr2002                   :

 POSCAR:  C  H Mg  O
  positions in direct lattice
 exchange correlation table for  LEXCH =       12
   RHO(1)=    0.500       N(1)  =     2000
   RHO(2)=  100.500       N(2)  =     4000

 ion  position               nearest neighbor table
   1  0.477  0.465  0.796-   7 1.09   2 1.40   6 1.40
   2  0.559  0.455  0.795-   8 1.09   1 1.40   3 1.40
   3  0.591  0.379  0.797-   9 1.09   4 1.40   2 1.40
   4  0.541  0.313  0.800-  10 1.09   3 1.40   5 1.40
   5  0.459  0.323  0.801-  11 1.09   6 1.40   4 1.40
   6  0.427  0.399  0.799-  12 1.09   5 1.40   1 1.40
   7  0.451  0.525  0.795-   1 1.09
   8  0.598  0.506  0.792-   2 1.09
   9  0.655  0.371  0.796-   3 1.09
  10  0.567  0.253  0.801-   4 1.09
  11  0.420  0.271  0.804-   5 1.09
  12  0.362  0.407  0.800-   6 1.09
  13  0.125  0.000  0.352- 141 2.11 143 2.11 144 2.11 160 2.11 183 2.11
  14  0.250  0.125  0.352- 142 2.11 143 2.11 144 2.11 152 2.11 159 2.11
  15  0.125  0.125  0.451- 143 2.11 142 2.11 141 2.11 149 2.11 158 2.11 147 2.11
  16  0.250  0.000  0.451- 144 2.11 142 2.11 141 2.11 157 2.11 182 2.11 148 2.11
  17  0.125  1.000  0.550- 147 2.11 164 2.11 148 2.11 187 2.11 141 2.12 145 2.13
  18  0.250  0.125  0.550- 156 2.11 163 2.11 147 2.11 148 2.11 142 2.12 146 2.14
  19  0.125  0.125  0.648- 147 2.10 146 2.11 153 2.11 145 2.11 162 2.11
  20  0.250  1.000  0.648- 148 2.10 161 2.11 146 2.11 145 2.11 186 2.11
  21  0.125  0.250  0.352- 149 2.11 143 2.11 151 2.11 152 2.11 168 2.11
  22  0.250  0.375  0.352- 150 2.11 151 2.11 152 2.11 167 2.11 176 2.11
  23  0.125  0.375  0.451- 151 2.11 150 2.11 149 2.11 166 2.11 173 2.11 155 2.11
  24  0.250  0.250  0.451- 152 2.11 149 2.11 150 2.11 142 2.11 165 2.11 156 2.11
  25  0.125  0.250  0.550- 156 2.11 155 2.11 147 2.11 172 2.11 149 2.12 153 2.14
  26  0.250  0.375  0.550- 171 2.10 180 2.11 156 2.11 155 2.11 150 2.12 154 2.14
  27  0.125  0.375  0.648- 155 2.10 153 2.11 177 2.11 154 2.11 170 2.11
  28  0.250  0.250  0.648- 156 2.10 169 2.11 154 2.11 146 2.11 153 2.11
  29  0.375  0.000  0.352- 157 2.11 144 2.11 159 2.11 199 2.11 224 2.11
  30  0.000  0.125  0.352- 158 2.11 143 2.11 160 2.11 168 2.11 223 2.11
  31  0.375  0.125  0.451- 159 2.11 157 2.11 142 2.11 165 2.11 222 2.11 163 2.11
  32  0.000  0.000  0.451- 160 2.11 158 2.11 141 2.11 198 2.11 221 2.11 164 2.11
  33  0.375  0.000  0.550- 163 2.11 228 2.11 203 2.11 148 2.11 157 2.12 161 2.14
  34  1.000  0.125  0.550- 227 2.11 147 2.11 164 2.11 172 2.11 158 2.12 162 2.13
  35  0.375  0.125  0.648- 163 2.10 169 2.11 226 2.11 146 2.11 161 2.11
  36  0.000  1.000  0.648- 164 2.10 202 2.11 225 2.11 145 2.11 162 2.11
  37  0.375  0.250  0.352- 165 2.11 159 2.11 152 2.11 167 2.11 232 2.11
  38  0.000  0.375  0.352- 166 2.11 151 2.11 168 2.11 192 2.11 231 2.11
  39  0.375  0.375  0.451- 171 2.11 167 2.11 150 2.11 165 2.11 189 2.11 230 2.11
  40  0.000  0.250  0.451- 168 2.11 158 2.11 166 2.11 149 2.11 229 2.11 172 2.11
  41  0.375  0.250  0.550- 171 2.11 236 2.11 156 2.11 163 2.11 165 2.12 169 2.14
  42  1.000  0.375  0.550- 172 2.11 196 2.11 235 2.11 155 2.11 166 2.12 170 2.14
  43  0.376  0.375  0.648- 234 2.10 171 2.11 193 2.11 169 2.11 154 2.12
  44  1.000  0.250  0.648- 172 2.10 162 2.11 170 2.11 153 2.11 233 2.11
  45  0.125  0.500  0.352- 173 2.11 151 2.11 175 2.11 176 2.11 192 2.11
  46  0.250  0.625  0.352- 174 2.11 175 2.11 176 2.11 184 2.11 191 2.11
  47  0.125  0.625  0.451- 175 2.11 174 2.11 173 2.11 181 2.11 190 2.11 179 2.11
  48  0.250  0.500  0.451- 176 2.11 173 2.11 174 2.11 150 2.11 189 2.11 180 2.11
  49  0.125  0.500  0.550- 180 2.11 155 2.11 196 2.11 179 2.11 173 2.12 177 2.14
  50  0.250  0.625  0.550- 195 2.11 180 2.11 188 2.11 179 2.11 174 2.12 178 2.14
  51  0.125  0.625  0.648- 179 2.10 178 2.11 177 2.11 194 2.11 185 2.11
  52  0.250  0.500  0.648- 180 2.10 193 2.11 154 2.11 177 2.11 178 2.11
  53  0.125  0.750  0.352- 181 2.11 175 2.11 183 2.11 184 2.11 200 2.11
  54  0.250  0.875  0.352- 182 2.11 144 2.11 183 2.11 184 2.11 199 2.11
  55  0.125  0.875  0.451- 183 2.11 181 2.11 182 2.11 141 2.11 198 2.11 187 2.11
  56  0.250  0.750  0.451- 184 2.11 181 2.11 182 2.11 174 2.11 197 2.11 188 2.11
  57  0.125  0.750  0.550- 188 2.11 179 2.11 204 2.11 187 2.11 181 2.12 185 2.13
  58  0.250  0.875  0.550- 188 2.11 148 2.11 187 2.11 203 2.11 182 2.12 186 2.13
  59  0.125  0.875  0.648- 187 2.10 185 2.11 202 2.11 145 2.11 186 2.11
  60  0.250  0.750  0.648- 188 2.10 178 2.11 201 2.11 185 2.11 186 2.11
[...]
 254  0.500  0.625  0.451- 126 2.11 111 2.11  63 2.11 128 2.11 136 2.11 130 2.12
 255  0.875  0.625  0.352- 127 2.11 110 2.11 125 2.11  62 2.11 133 2.11
 256  0.500  0.500  0.352- 128 2.11 102 2.11 109 2.11 126 2.11  61 2.11
 257  0.875  0.500  0.650- 131 2.11 107 2.11  68 2.11 116 2.11 129 2.14
 258  0.500  0.625  0.650- 140 2.11 115 2.11  67 2.11 132 2.12 130 2.14
 259  0.875  0.625  0.549- 131 2.10  66 2.11 137 2.11 127 2.11 114 2.11 129 2.11
 260  0.500  0.500  0.549- 130 2.10  65 2.11 113 2.11 128 2.11 132 2.11 106 2.11
 261  0.875  0.750  0.451- 133 2.11 120 2.11 127 2.11  72 2.11 135 2.11 137 2.12
 262  0.500  0.875  0.451- 134 2.11  96 2.11 119 2.11  71 2.11 136 2.11 138 2.12
 263  0.875  0.875  0.352- 135 2.11  93 2.11 118 2.11 133 2.11  70 2.11
 264  0.500  0.750  0.352- 136 2.11 117 2.11 126 2.11 134 2.11  69 2.11
 265  0.875  0.750  0.650- 139 2.11  76 2.11 124 2.11 131 2.11 137 2.13
 266  0.500  0.875  0.650-  75 2.11 123 2.11 140 2.11 100 2.11 138 2.14
 267  0.875  0.875  0.549- 139 2.10  97 2.11  74 2.11 137 2.11 122 2.11 135 2.11
 268  0.500  0.750  0.550- 140 2.10  73 2.11 121 2.11 138 2.11 136 2.11 130 2.11

IMPORTANT INFORMATION: All symmetrisations will be switched off!
NOSYMM: (Re-)initialisation of all symmetry stuff for point group C_1.

                                     Primitive cell

  volume of cell :    6078.6138

  direct lattice vectors                    reciprocal lattice vectors
    16.881164524  0.000000000  0.000000000     0.059237619  0.000000000  0.000000000
     0.000000000 16.881164524  0.000000000     0.000000000  0.059237619  0.000000000
     0.000000000  0.000000000 21.330436697     0.000000000  0.000000000  0.046881366

  length of vectors
    16.881164524 16.881164524 21.330436697     0.059237619  0.059237619  0.046881366

  position of ions in fractional coordinates (direct lattice)
     0.476631401  0.465223574  0.796190975
     0.558766393  0.455004380  0.794970041
     0.591013875  0.378722977  0.796567754
     0.541130432  0.312782785  0.799747477
     0.458937979  0.322980351  0.801186876
     0.426730757  0.399197578  0.799219230
     0.451325936  0.524800409  0.794900625
     0.597823297  0.506457117  0.792461789
     0.655309491  0.370712345  0.795642093
     0.566534214  0.253246276  0.800989883
     0.419886825  0.271449270  0.803561982
     0.362479392  0.407348231  0.800254289
     0.125000000  0.000000000  0.351610242
     0.250000000  0.125000000  0.351610242
     0.125000000  0.125000000  0.450536747
     0.250000000  0.000000000  0.450536747
     0.124994378  0.999996972  0.549773366
     0.250022088  0.125024507  0.549767563
     0.125016707  0.125001538  0.647900666
     0.250007171  0.999998489  0.647896471
     0.125000000  0.250000000  0.351610242
     0.250000000  0.375000000  0.351610242
     0.125000000  0.375000000  0.450536747
     0.250000000  0.250000000  0.450536747
     0.125030056  0.250005716  0.549768271
     0.250142848  0.374996525  0.549792642
     0.125026647  0.374980140  0.647916052
     0.250087378  0.250052124  0.647844830
     0.375000000  0.000000000  0.351610242
     0.000000000  0.125000000  0.351610242
     0.375000000  0.125000000  0.450536747
[...]
   0.00000000  4.22029113  9.61014557
   6.33214169  4.22223412 11.72757435
  16.88101702  6.33014493 11.72711914
   6.34001678  6.33158774 13.82563234
  16.88104325  4.22001190 13.81989147
   2.11014557  8.44058226  7.50000000
   4.22029113 10.55072783  7.50000000
   2.11014557 10.55072783  9.61014557
   4.22029113  8.44058226  9.61014557
   2.11027983  8.44005969 11.72646099
   4.22037665 10.55035751 11.72620092
   2.11008674 10.55040871 13.81983982
   4.22143830  8.43997752 13.81695691
   2.11014557 12.66087339  7.50000000
   4.22029113 14.77101896  7.50000000
   2.11014557 14.77101896  9.61014557
   4.22029113 12.66087339  9.61014557
   2.11012692 12.66073791 11.72680339
   4.22020097 14.77088933 11.72675561
   2.11010488 14.77080418 13.82007680
   4.22016370 12.66055734 13.81958935
[...]
   8.44058226 10.55072783  9.61014557
  14.77101896 10.55072783  7.50000000
   8.44058226  8.44058226  7.50000000
  14.77046197  8.44038132 13.86219546
   8.44042797 10.55009930 13.86904130
  14.77120870 10.55069540 11.72069149
   8.44017881  8.44495066 11.71978304
  14.77101896 12.66087339  9.61014557
   8.44058226 14.77101896  9.61014557
  14.77101896 14.77101896  7.50000000
   8.44058226 12.66087339  7.50000000
  14.77109946 12.66087092 13.86137273
   8.44034729 14.77031361 13.86224400
  14.77110028 14.77090585 11.72063587
   8.44038964 12.66032486 11.72165644

--------------------------------------- Iteration      FINAL  ---------------------------------------

--------------------OUTCAR has been truncated-------------------------

[...]

--------------------OUTCAR has been truncated-------------------------

  DFT-D2 method for vdW energy calculation

  Parameters of vdW forcefield:
         C6(Jnm^6/mol)     R0(A)
   C        1.750          1.452
   H        0.140          1.001
   Mg       0.630          1.243
   O        0.700          1.342

  vdW correction parametrized for the method   h
      

  IVDW =   1
  VDW_RADIUS =    50.000 A
  VDW_S6 =     1.050
  VDW_SR =     1.000
  VDW_D =    20.000
  LVDW_EWALD = F

  Number of pair interactions contributing to vdW energy: 3129966
  Edisp (eV):  -20.92852

 VOLUME and BASIS-vectors are now :
  energy-cutoff  :      520.00
  volume of cell :     6078.61
      direct lattice vectors                 reciprocal lattice vectors
    16.881164524  0.000000000  0.000000000     0.059237619  0.000000000  0.000000000
     0.000000000 16.881164524  0.000000000     0.000000000  0.059237619  0.000000000
     0.000000000  0.000000000 21.330436697     0.000000000  0.000000000  0.046881366

  length of vectors
    16.881164524 16.881164524 21.330436697     0.059237619  0.059237619  0.046881366

 FORCES acting on ions:
    Electron-Ion                     Ewald-Force                    Non-Local-Force
   0.692E+02 -.163E+03 -.923E+03   -.697E+02 0.164E+03 0.923E+03   0.388E+00 -.706E+00 -.617E-01
   -.107E+03 -.141E+03 -.926E+03   0.107E+03 0.142E+03 0.926E+03   -.608E+00 -.727E+00 -.648E-01
   -.176E+03 0.218E+02 -.922E+03   0.176E+03 -.220E+02 0.923E+03   -.691E+00 0.116E+00 -.139E-01
   -.687E+02 0.163E+03 -.917E+03   0.691E+02 -.164E+03 0.917E+03   -.325E+00 0.705E+00 -.589E-01
   0.107E+03 0.141E+03 -.914E+03   -.107E+03 -.142E+03 0.915E+03   0.515E+00 0.648E+00 -.994E-01
   0.176E+03 -.221E+02 -.917E+03   -.176E+03 0.222E+02 0.917E+03   0.662E+00 -.931E-01 -.387E-02
   0.311E+02 -.730E+02 -.232E+03   -.332E+02 0.782E+02 0.231E+03   0.225E+01 -.527E+01 0.139E+00
   -.480E+02 -.633E+02 -.232E+03   0.514E+02 0.677E+02 0.232E+03   -.349E+01 -.458E+01 0.311E+00
   -.786E+02 0.982E+01 -.231E+03   0.842E+02 -.105E+02 0.231E+03   -.567E+01 0.707E+00 0.829E-01
   -.311E+02 0.730E+02 -.229E+03   0.333E+02 -.781E+02 0.229E+03   -.227E+01 0.527E+01 -.135E+00
   0.479E+02 0.632E+02 -.227E+03   -.512E+02 -.676E+02 0.228E+03   0.347E+01 0.457E+01 -.256E+00
   0.786E+02 -.997E+01 -.229E+03   -.841E+02 0.107E+02 0.229E+03   0.567E+01 -.731E+00 -.132E+00
   0.298E+01 0.286E+01 0.208E+04   -.298E+01 -.286E+01 -.207E+04   -.278E-02 -.252E-02 -.639E+01
   0.557E+01 0.559E+01 0.208E+04   -.556E+01 -.557E+01 -.207E+04   -.817E-02 -.837E-02 -.639E+01
   0.570E+01 0.673E+01 0.703E+03   -.569E+01 -.673E+01 -.703E+03   -.497E-02 -.380E-02 0.354E+00
   0.672E+01 0.548E+01 0.703E+03   -.671E+01 -.547E+01 -.703E+03   -.381E-02 -.452E-02 0.356E+00
   0.708E+01 0.681E+01 -.672E+03   -.706E+01 -.680E+01 0.672E+03   -.699E-02 -.492E-02 -.197E+00
   0.175E+02 0.177E+02 -.658E+03   -.175E+02 -.177E+02 0.659E+03   -.251E-01 -.231E-01 -.180E+00
   0.177E+02 0.182E+02 -.204E+04   -.177E+02 -.182E+02 0.203E+04   -.171E-01 -.119E-01 0.557E+01
   0.179E+02 0.172E+02 -.204E+04   -.179E+02 -.172E+02 0.203E+04   -.669E-02 -.121E-01 0.557E+01
   0.436E+01 0.357E+01 0.208E+04   -.435E+01 -.357E+01 -.207E+04   -.768E-02 -.429E-02 -.639E+01
   0.739E+01 0.555E+00 0.208E+04   -.737E+01 -.554E+00 -.207E+04   -.120E-01 -.739E-03 -.640E+01
   0.827E+01 0.721E+00 0.708E+03   -.824E+01 -.723E+00 -.708E+03   -.247E-01 0.898E-03 0.366E+00
   0.120E+02 0.754E+01 0.713E+03   -.119E+02 -.752E+01 -.714E+03   -.228E-01 -.162E-01 0.365E+00
   0.148E+02 0.943E+01 -.661E+03   -.148E+02 -.941E+01 0.662E+03   -.299E-01 -.139E-01 -.192E+00
   0.322E+02 0.221E+01 -.640E+03   -.320E+02 -.220E+01 0.640E+03   -.183E+00 -.292E-02 -.965E-01
   0.335E+02 0.204E+01 -.202E+04   -.335E+02 -.204E+01 0.202E+04   -.221E-01 -.226E-03 0.557E+01
   0.572E+02 0.326E+02 -.200E+04   -.571E+02 -.326E+02 0.199E+04   -.880E-01 -.399E-01 0.558E+01
   0.346E+01 0.420E+01 0.208E+04   -.345E+01 -.418E+01 -.207E+04   -.403E-02 -.718E-02 -.639E+01
   -.327E+00 0.418E+01 0.208E+04   0.326E+00 -.418E+01 -.207E+04   0.407E-03 -.344E-02 -.639E+01
   0.726E+01 0.120E+02 0.713E+03   -.724E+01 -.119E+02 -.713E+03   -.147E-01 -.226E-01 0.355E+00
   -.409E+00 0.370E+01 0.699E+03   0.409E+00 -.370E+01 -.700E+03   0.157E-03 -.131E-02 0.374E+00
   0.899E+01 0.143E+02 -.662E+03   -.898E+01 -.143E+02 0.662E+03   -.838E-02 -.289E-01 -.185E+00
   -.939E+00 0.945E+01 -.670E+03   0.939E+00 -.944E+01 0.670E+03   0.798E-03 -.354E-02 -.198E+00
   0.307E+02 0.572E+02 -.200E+04   -.306E+02 -.571E+02 0.199E+04   -.349E-01 -.872E-01 0.558E+01
   -.926E+00 0.841E+01 -.204E+04   0.925E+00 -.841E+01 0.204E+04   0.120E-02 0.437E-03 0.559E+01
   0.526E+01 0.543E+01 0.208E+04   -.525E+01 -.541E+01 -.207E+04   -.822E-02 -.871E-02 -.640E+01
   -.418E+00 0.410E+00 0.208E+04   0.417E+00 -.409E+00 -.207E+04   0.836E-03 -.427E-03 -.639E+01
   0.110E+02 0.128E+01 0.728E+03   -.110E+02 -.128E+01 -.728E+03   0.821E-02 -.117E-02 0.268E+00
   -.675E+00 0.469E+01 0.704E+03   0.674E+00 -.469E+01 -.704E+03   0.753E-03 -.700E-03 0.358E+00
   0.240E+02 0.249E+02 -.624E+03   -.239E+02 -.248E+02 0.624E+03   -.749E-01 -.894E-01 -.180E+00
   -.147E+01 0.947E+00 -.664E+03   0.147E+01 -.954E+00 0.664E+03   0.954E-03 0.555E-02 -.197E+00
   0.904E+02 0.109E+02 -.190E+04   -.900E+02 -.108E+02 0.189E+04   -.324E+00 -.162E-01 0.563E+01
   -.217E+01 0.117E+02 -.203E+04   0.217E+01 -.117E+02 0.203E+04   -.287E-02 -.138E-02 0.557E+01
   0.450E+01 -.295E+01 0.208E+04   -.449E+01 0.294E+01 -.207E+04   -.786E-02 0.366E-02 -.639E+01
   0.586E+01 -.562E+01 0.208E+04   -.584E+01 0.560E+01 -.207E+04   -.910E-02 0.828E-02 -.639E+01
   0.617E+01 -.679E+01 0.704E+03   -.616E+01 0.679E+01 -.704E+03   -.438E-02 0.428E-02 0.353E+00
   0.125E+02 -.622E+01 0.715E+03   -.124E+02 0.619E+01 -.715E+03   -.228E-01 0.157E-01 0.343E+00
   0.159E+02 -.778E+01 -.660E+03   -.159E+02 0.777E+01 0.660E+03   -.425E-01 0.878E-02 -.180E+00
   0.196E+02 -.183E+02 -.655E+03   -.196E+02 0.183E+02 0.655E+03   -.209E-01 0.237E-01 -.163E+00
   0.200E+02 -.186E+02 -.203E+04   -.200E+02 0.186E+02 0.203E+04   -.202E-01 0.418E-02 0.557E+01
   0.637E+02 -.284E+02 -.199E+04   -.636E+02 0.284E+02 0.199E+04   -.134E+00 0.317E-01 0.559E+01
   0.311E+01 -.348E+01 0.208E+04   -.310E+01 0.348E+01 -.207E+04   -.314E-02 0.329E-02 -.639E+01
   0.421E+01 -.525E+00 0.208E+04   -.421E+01 0.524E+00 -.207E+04   -.348E-02 0.858E-03 -.639E+01
   0.392E+01 -.674E+00 0.700E+03   -.392E+01 0.672E+00 -.700E+03   -.180E-02 0.836E-03 0.353E+00
   0.717E+01 -.682E+01 0.704E+03   -.717E+01 0.681E+01 -.705E+03   -.402E-02 0.549E-02 0.356E+00
   0.774E+01 -.842E+01 -.671E+03   -.774E+01 0.841E+01 0.671E+03   -.341E-02 0.477E-02 -.199E+00
   0.951E+01 -.155E+01 -.670E+03   -.951E+01 0.155E+01 0.670E+03   -.556E-03 -.845E-04 -.199E+00
   0.885E+01 -.151E+01 -.204E+04   -.885E+01 0.151E+01 0.204E+04   0.163E-04 0.151E-02 0.557E+01
   0.203E+02 -.217E+02 -.203E+04   -.203E+02 0.217E+02 0.203E+04   -.730E-02 0.218E-01 0.557E+01
[...]
   -.324E+01 -.351E+01 0.156E+04   0.323E+01 0.351E+01 -.156E+04   0.929E-02 0.209E-02 0.313E+01
   0.329E+00 -.368E+01 0.157E+04   -.329E+00 0.368E+01 -.157E+04   -.773E-03 0.600E-02 0.312E+01
   -.263E+02 -.113E+02 -.154E+04   0.263E+02 0.113E+02 0.154E+04   0.174E-01 0.372E-02 -.448E+01
   0.261E+01 -.618E+02 -.150E+04   -.261E+01 0.616E+02 0.150E+04   0.626E-03 0.157E+00 -.445E+01
   -.984E+01 -.921E+01 -.493E+03   0.983E+01 0.920E+01 0.493E+03   0.862E-02 0.943E-02 0.285E+00
   0.172E+01 -.191E+02 -.447E+03   -.171E+01 0.190E+02 0.447E+03   -.957E-02 0.122E+00 0.402E-01
   -.396E+01 -.399E+01 0.526E+03   0.396E+01 0.399E+01 -.526E+03   0.612E-02 0.298E-02 -.657E-01
   0.310E+00 -.914E+00 0.529E+03   -.309E+00 0.912E+00 -.529E+03   -.143E-02 0.143E-02 -.574E-01
   -.236E+01 -.335E+00 0.156E+04   0.235E+01 0.334E+00 -.156E+04   0.616E-02 0.397E-02 0.313E+01
   0.228E+00 -.413E+01 0.156E+04   -.228E+00 0.412E+01 -.157E+04   -.359E-03 0.129E-01 0.313E+01
   -.103E+02 -.104E+02 -.155E+04   0.103E+02 0.104E+02 0.155E+04   0.517E-02 0.103E-01 -.448E+01
   0.674E+00 -.325E+01 -.154E+04   -.674E+00 0.326E+01 0.155E+04   0.491E-03 -.304E-03 -.447E+01
   -.521E+01 -.835E+00 -.499E+03   0.521E+01 0.833E+00 0.499E+03   0.510E-02 0.233E-02 0.284E+00
   0.691E+00 -.150E+02 -.486E+03   -.690E+00 0.149E+02 0.486E+03   -.168E-02 0.398E-01 0.298E+00
   0.724E-02 -.599E-01 0.671E+02   0.789E-12 0.320E-11 0.227E-10   -.147E-01 0.701E-01 -.591E+02

 POSITION                                       TOTAL-FORCE (eV/Angst)
      8.04609      7.85352     16.98310        -0.036804      0.102768      0.017134
      9.43263      7.68100     16.95706         0.057965      0.091548      0.008276
      9.97700      6.39328     16.99114         0.105092     -0.019970      0.023354
      9.13491      5.28014     17.05896         0.051459     -0.100061      0.015468
      7.74741      5.45228     17.08967        -0.071619     -0.081051      0.020664
      7.20371      6.73892     17.04770        -0.101098      0.008906      0.023180
      7.61891      8.85924     16.95558         0.148069     -0.348179      0.005238
     10.09195      8.54959     16.90356        -0.229133     -0.300655      0.007363
     11.06239      6.25806     16.97139        -0.376491      0.045460      0.001539
      9.56376      4.27509     17.08546        -0.151912      0.348609     -0.010925
      7.08818      4.58238     17.14033         0.225849      0.297274     -0.023791
      6.11907      6.87651     17.06977         0.371576     -0.048852     -0.008930
      2.11015      0.00000      7.50000         0.000962      0.000737      0.464461
      4.22029      2.11015      7.50000         0.002676      0.002813      0.465178
      2.11015      2.11015      9.61015         0.001996      0.001467      0.012206
      4.22029      0.00000      9.61015         0.001301      0.001621      0.012515
      2.11005     16.88111     11.72691         0.003226      0.001039      0.000640
      4.22066      2.11056     11.72678         0.000843     -0.000694      0.000317
      2.11043      2.11017     13.82000         0.000645      0.001326     -0.075410
      4.22041     16.88114     13.81991         0.001508      0.001033     -0.075258
      2.11015      4.22029      7.50000         0.002680      0.001400      0.465019
      4.22029      6.33044      7.50000         0.004108      0.000028      0.468523
      2.11015      6.33044      9.61015         0.009033     -0.000806      0.014082
      4.22029      4.22029      9.61015         0.008880      0.006130      0.016277
      2.11065      4.22039     11.72680        -0.000702      0.000373      0.000787
      4.22270      6.33038     11.72732         0.001246      0.000943      0.001762
      2.11060      6.33010     13.82033         0.002320      0.000477     -0.076272
      4.22177      4.22117     13.81881         0.000868      0.000876     -0.080799
      6.33044      0.00000      7.50000         0.001324      0.002264      0.464634
      0.00000      2.11015      7.50000        -0.000129      0.001116      0.464415
      6.33044      2.11015      9.61015         0.005317      0.009064      0.015431
      0.00000      0.00000      9.61015        -0.000060      0.000353      0.011721
      6.33063      0.00026     11.72673        -0.001394      0.000390      0.002075
     16.88111      2.10999     11.72686         0.000361      0.002613      0.001191
      6.33131      2.11132     13.81833         0.002122      0.001571     -0.081128
      0.00000     16.88086     13.82040        -0.000346      0.001912     -0.074546
      6.33044      4.22029      7.50000         0.002546      0.002791      0.469255
      0.00000      6.33044      7.50000        -0.000259      0.000017      0.463723
      6.33044      6.33044      9.61015        -0.002466      0.000232      0.020575
      0.00000      4.22029      9.61015        -0.000062      0.000030      0.012001
      6.33214      4.22223     11.72757         0.001878      0.000168      0.000998
     16.88102      6.33014     11.72712         0.000497     -0.001338      0.001587
      6.34002      6.33159     13.82563         0.002090      0.000639     -0.078795
     16.88104      4.22001     13.81989        -0.000083      0.000610     -0.075164
      2.11015      8.44058      7.50000         0.002645     -0.001348      0.464657
      4.22029     10.55073      7.50000         0.002990     -0.002642      0.465195
      2.11015     10.55073      9.61015         0.001523     -0.001496      0.011638
      4.22029      8.44058      9.61015         0.009244     -0.006372      0.016154
      2.11028      8.44006     11.72646         0.002383      0.000342      0.003119
      4.22038     10.55036     11.72620        -0.000108     -0.002523      0.000325
      2.11009     10.55041     13.81984         0.000916     -0.001102     -0.075463
      4.22144      8.43998     13.81696         0.001151     -0.000551     -0.082561
      2.11015     12.66087      7.50000         0.001185     -0.001148      0.464861
      4.22029     14.77102      7.50000         0.001147     -0.000529      0.464845
      2.11015     14.77102      9.61015         0.000869     -0.000652      0.011477
      4.22029     12.66087      9.61015         0.001361     -0.001883      0.011728
      2.11013     12.66074     11.72680        -0.000972     -0.001196     -0.000858
      4.22020     14.77089     11.72676         0.001442      0.001416     -0.000453
      2.11010     14.77080     13.82008         0.001467     -0.000386     -0.075073
      4.22016     12.66056     13.81959         0.001144     -0.000911     -0.074896
[...]
      8.44058     10.55073      9.61015        -0.001654      0.015023      0.019513
     14.77102     10.55073      7.50000         0.005213     -0.001621     -0.434011
      8.44058      8.44058      7.50000        -0.000243      0.001841     -0.442089
     14.77046      8.44038     13.86220        -0.000219      0.000293     -0.013482
      8.44043     10.55010     13.86904        -0.000364      0.002177     -0.018253
     14.77121     10.55070     11.72069         0.000151      0.000742      0.015928
      8.44018      8.44495     11.71978         0.000047      0.002612      0.011524
     14.77102     12.66087      9.61015         0.003468      0.000912      0.030175
      8.44058     14.77102      9.61015        -0.000424     -0.000569      0.034140
     14.77102     14.77102      7.50000         0.004206      0.003409     -0.433949
      8.44058     12.66087      7.50000        -0.000111      0.004141     -0.435837
     14.77110     12.66087     13.86137         0.001067      0.000988     -0.013514
      8.44035     14.77031     13.86224         0.000582      0.000371     -0.012898
     14.77110     14.77091     11.72064         0.001351      0.000532      0.016033
      8.44039     12.66032     11.72166        -0.000636      0.000831      0.015301
    total drift:                               -0.001230      0.021034     -0.077623

  FREE ENERGIE OF THE ION-ELECTRON SYSTEM (eV)
  free  energy   TOTEN  =     -1840.43279242 eV

  energy  without entropy=    -1840.43279242  energy(sigma->0) =    -1840.43279242