 vasp.6.3.0 20Jan22 (build Apr  1 2022 16:44:48) complex
 executed on        HPECrayEX_GCC date 2022.10.25  00:42:26

 INCAR:
   SYSTEM = MgO-rocksalt
   ISMEAR = 0
   SIGMA = 0.05
   EDIFF = 1E-6
   ALGO = ALL
   ISTART = 0
   IBRION = -1
   NSW = 0
   ISYM = 0
   DIPOL = 0.5 0.5 0.5
   IDIPOL = 3
   LDIPOL = .TRUE.
   GGA = MK
   LUSE_VDW = .TRUE.
   PARAM1 = 0.1234
   PARAM2 = 0.711357
   ZAB_VDW = -1.8867
   AGGAC = 0.0
   ENCUT = 600
   PREC = Accurate
   LASPH = .TRUE.
   LREAL = .FALSE.
   ISPIN = 1
   NELM = 200
   NELMIN = 8
   NCORE = 8
   KPAR = 1
   LWAVE = .FALSE.
   LCHARG = .FALSE.

 POTCAR:    PAW_PBE C 08Apr2002
 POTCAR:    PAW_PBE H 15Jun2001
 POTCAR:    PAW_PBE Mg_pv 13Apr2007
 POTCAR:    PAW_PBE O 08Apr2002
|               ----> ADVICE to this user running VASP <----                  |
|     You have switched on vdW-DFT.                                           |
|     This routine was written and supplied by Jiri Klimes. We recommend      |
|     that you carefully read and cite the following publications:            |
|       J. Klimes, D.R. Bowler, A. Michelides                                 |
|          J. Phys.: Cond Matt. 22 022201 (2010)                              |
|       J. Klimes, D.R. Bowler, A. Michelides                                 |
|          Phys. Rev. B. 83, 195131 (2011)                                    |
|     and references therein.                                                 |

   TITEL  = PAW_PBE C 08Apr2002
   POMASS =   12.011; ZVAL   =    4.000    mass and valenz
   ENMAX  =  400.000; ENMIN  =  300.000 eV

   TITEL  = PAW_PBE H 15Jun2001
   POMASS =    1.000; ZVAL   =    1.000    mass and valenz
   ENMAX  =  250.000; ENMIN  =  200.000 eV

   TITEL  = PAW_PBE Mg_pv 13Apr2007
   POMASS =   24.305; ZVAL   =    8.000    mass and valenz
   ENMAX  =  403.929; ENMIN  =  302.947 eV

   TITEL  = PAW_PBE O 08Apr2002
   POMASS =   16.000; ZVAL   =    6.000    mass and valenz
   ENMAX  =  400.000; ENMIN  =  300.000 eV

  PAW_PBE C 08Apr2002                   :
  PAW_PBE H 15Jun2001                   :
  PAW_PBE Mg_pv 13Apr2007               :
  PAW_PBE O 08Apr2002                   :

 POSCAR:  C  H Mg  O
  positions in direct lattice
 exchange correlation table for  LEXCH =       43
   RHO(1)=    0.500       N(1)  =     2000
   RHO(2)=  100.500       N(2)  =     4000

 ion  position               nearest neighbor table
   1  0.504  0.498  0.809-   5 1.10   4 1.10   3 1.10   2 1.54
   2  0.677  0.499  0.829-   7 1.10   6 1.10   8 1.10   1 1.54
   3  0.479  0.396  0.779-   1 1.10
   4  0.475  0.604  0.782-   1 1.10
   5  0.425  0.494  0.849-   1 1.10
   6  0.756  0.502  0.789-   2 1.10
   7  0.705  0.395  0.857-   2 1.10
   8  0.703  0.603  0.858-   2 1.10
   9  0.000  0.750  0.350-  41 2.14  43 2.14  44 2.14  51 2.14  60 2.14
  10  0.250  0.000  0.350-  42 2.14  43 2.14  44 2.14  52 2.14  59 2.14
  11  0.000  0.000  0.450-  43 2.14  42 2.14  41 2.14  49 2.14  58 2.14  47 2.14
  12  0.250  0.750  0.450-  44 2.14  42 2.14  41 2.14  50 2.14  57 2.14  48 2.14
  13  1.000  0.750  0.550-  47 2.14  64 2.14  48 2.14  55 2.14  41 2.15  45 2.16
  14  0.250  1.000  0.550-  48 2.14  56 2.14  47 2.14  63 2.14  42 2.15  46 2.16
  15  0.000  1.000  0.650-  47 2.13  45 2.14  46 2.14  53 2.14  62 2.14
  16  0.250  0.750  0.649-  48 2.13  45 2.14  54 2.14  46 2.14  61 2.14
  17  0.000  0.250  0.350-  49 2.14  43 2.14  51 2.14  52 2.14  68 2.14
  18  0.250  0.500  0.350-  50 2.14  44 2.14  51 2.14  52 2.14  67 2.14
  19  0.000  0.500  0.450-  51 2.14  49 2.14  50 2.14  41 2.14  66 2.14  55 2.14
  20  0.250  0.250  0.450-  52 2.14  49 2.14  50 2.14  42 2.14  65 2.14  56 2.14
  21  1.000  0.250  0.550-  72 2.14  56 2.14  47 2.14  55 2.14  49 2.15  53 2.16
  22  0.250  0.500  0.550-  71 2.14  55 2.14  48 2.14  56 2.14  50 2.15  54 2.16
  23  0.000  0.500  0.649-  55 2.13  54 2.13  70 2.14  45 2.14  53 2.14
  24  0.250  0.250  0.649-  56 2.13  53 2.14  54 2.14  46 2.14  69 2.14
  25  0.500  0.750  0.350-  57 2.14  44 2.14  59 2.14  60 2.14  67 2.14
  26  0.750  0.000  0.350-  58 2.14  43 2.14  59 2.14  60 2.14  68 2.14
  27  0.500  0.000  0.450-  59 2.14  57 2.14  58 2.14  42 2.14  65 2.14  63 2.14
  28  0.750  0.750  0.450-  60 2.14  57 2.14  58 2.14  41 2.14  66 2.14  64 2.14
  29  0.500  0.750  0.550-  71 2.14  48 2.14  64 2.14  63 2.14  57 2.15  61 2.16
  30  0.750  1.000  0.550-  64 2.14  72 2.14  63 2.14  47 2.14  58 2.15  62 2.16
  31  0.500  0.000  0.649-  63 2.13  69 2.14  61 2.14  46 2.14  62 2.14
  32  0.750  0.750  0.649-  64 2.13  62 2.14  45 2.14  61 2.14  70 2.14
  33  0.500  0.250  0.350-  65 2.14  59 2.14  52 2.14  67 2.14  68 2.14
  34  0.750  0.500  0.350-  66 2.14  60 2.14  51 2.14  67 2.14  68 2.14
  35  0.500  0.500  0.450-  67 2.14  57 2.14  65 2.14  66 2.14  50 2.14  71 2.14
  36  0.750  0.250  0.450-  68 2.14  58 2.14  65 2.14  66 2.14  49 2.14  72 2.14
  37  0.500  0.250  0.550-  71 2.14  56 2.14  72 2.14  63 2.14  65 2.15  69 2.16
  38  0.750  0.500  0.550-  71 2.14  55 2.14  64 2.14  72 2.14  66 2.15  70 2.16
  39  0.500  0.500  0.650-  71 2.13  61 2.14  69 2.14  54 2.14  70 2.14
  40  0.750  0.250  0.649-  72 2.13  53 2.14  62 2.14  69 2.14  70 2.14
  41  0.000  0.750  0.450-   9 2.14  11 2.14  12 2.14  19 2.14  28 2.14  13 2.15
  42  0.250  0.000  0.450-  10 2.14  11 2.14  12 2.14  20 2.14  27 2.14  14 2.15
  43  0.000  0.000  0.350-  11 2.14  10 2.14   9 2.14  17 2.14  26 2.14
  44  0.250  0.750  0.350-  12 2.14  10 2.14   9 2.14  18 2.14  25 2.14
  45  0.000  0.750  0.651-  15 2.14  16 2.14  32 2.14  23 2.14  13 2.16
  46  0.250  1.000  0.651-  15 2.14  31 2.14  16 2.14  24 2.14  14 2.16
  47  1.000  1.000  0.550-  15 2.13  13 2.14  21 2.14  30 2.14  14 2.14  11 2.14
  48  0.250  0.750  0.550-  16 2.13  14 2.14  13 2.14  29 2.14  22 2.14  12 2.14
  49  0.000  0.250  0.450-  17 2.14  11 2.14  19 2.14  20 2.14  36 2.14  21 2.15
  50  0.250  0.500  0.450-  18 2.14  12 2.14  19 2.14  20 2.14  35 2.14  22 2.15
  51  0.000  0.500  0.350-  19 2.14  17 2.14  18 2.14   9 2.14  34 2.14
  52  0.250  0.250  0.350-  20 2.14  17 2.14  18 2.14  10 2.14  33 2.14
  53  0.000  0.250  0.651-  24 2.14  40 2.14  15 2.14  23 2.14  21 2.16
  54  0.250  0.500  0.651-  23 2.13  16 2.14  24 2.14  39 2.14  22 2.16
  55  1.000  0.500  0.550-  23 2.13  38 2.14  22 2.14  13 2.14  21 2.14  19 2.14
  56  0.250  0.250  0.550-  24 2.13  14 2.14  21 2.14  37 2.14  22 2.14  20 2.14
  57  0.500  0.750  0.450-  25 2.14  12 2.14  27 2.14  28 2.14  35 2.14  29 2.15
  58  0.750  0.000  0.450-  26 2.14  11 2.14  27 2.14  28 2.14  36 2.14  30 2.15
  59  0.500  0.000  0.350-  27 2.14  25 2.14  26 2.14  10 2.14  33 2.14
  60  0.750  0.750  0.350-  28 2.14  25 2.14  26 2.14   9 2.14  34 2.14
  61  0.500  0.750  0.651-  31 2.14  39 2.14  32 2.14  16 2.14  29 2.16
  62  0.750  1.000  0.651-  32 2.14  40 2.14  15 2.14  31 2.14  30 2.16
  63  0.500  1.000  0.550-  31 2.13  30 2.14  14 2.14  37 2.14  29 2.14  27 2.14
  64  0.750  0.750  0.550-  32 2.13  30 2.14  13 2.14  29 2.14  38 2.14  28 2.14
  65  0.500  0.250  0.450-  33 2.14  27 2.14  20 2.14  35 2.14  36 2.14  37 2.15
  66  0.750  0.500  0.450-  34 2.14  28 2.14  19 2.14  35 2.14  36 2.14  38 2.15
  67  0.500  0.500  0.350-  35 2.14  25 2.14  33 2.14  34 2.14  18 2.14
  68  0.750  0.250  0.350-  36 2.14  26 2.14  33 2.14  34 2.14  17 2.14
  69  0.500  0.250  0.651-  31 2.14  39 2.14  40 2.14  24 2.14  37 2.16
  70  0.750  0.500  0.651-  23 2.14  32 2.14  40 2.14  39 2.14  38 2.16
  71  0.500  0.500  0.550-  39 2.13  37 2.14  29 2.14  38 2.14  22 2.14  35 2.14
  72  0.750  0.250  0.550-  40 2.13  30 2.14  21 2.14  37 2.14  38 2.14  36 2.14

IMPORTANT INFORMATION: All symmetrisations will be switched off!
NOSYMM: (Re-)initialisation of all symmetry stuff for point group C_1.

                                     Primitive cell

  volume of cell :    1563.6717

  direct lattice vectors                    reciprocal lattice vectors
     8.546113626  0.000000000  0.000000000     0.117012252  0.000000000  0.000000000
     0.000000000  8.546113626  0.000000000     0.000000000  0.117012252  0.000000000
     0.000000000  0.000000000 21.409585219     0.000000000  0.000000000  0.046708051

  length of vectors
     8.546113626  8.546113626 21.409585219     0.117012252  0.117012252  0.046708051

  position of ions in fractional coordinates (direct lattice)
     0.504379431  0.498428899  0.808513357
     0.677001227  0.499494382  0.829296181
     0.478779762  0.396284175  0.779066105
     0.475439682  0.604406786  0.781866183
     0.425057799  0.493682937  0.848794058
     0.755806803  0.501638710  0.788796362
     0.705018660  0.395137957  0.857026016
     0.702846967  0.602587773  0.858117273
     0.000000000  0.750000000  0.350310383
     0.250000000  0.000000000  0.350310383
     0.000000000  0.000000000  0.450103461
     0.250000000  0.750000000  0.450103461
     0.999987036  0.750052346  0.550348201
     0.249976425  0.999998619  0.550358544
     0.000067508  0.999956011  0.649633237
     0.249908042  0.749983498  0.649496341
     0.000000000  0.250000000  0.350310383
     0.250000000  0.500000000  0.350310383
     0.000000000  0.500000000  0.450103461
     0.250000000  0.250000000  0.450103461
     0.999984168  0.249960129  0.550348399
     0.249996751  0.500003680  0.550417442
     0.000142237  0.500023721  0.649457229
     0.249841038  0.249984312  0.649488902
     0.500000000  0.750000000  0.350310383
     0.750000000  0.000000000  0.350310383
     0.500000000  0.000000000  0.450103461
     0.750000000  0.750000000  0.450103461
     0.499980204  0.749930308  0.550418266
     0.749981736  0.999995356  0.550362142
     0.499954964  0.000000282  0.649478483
     0.750094972  0.750127387  0.649491240
     0.500000000  0.250000000  0.350310383
     0.750000000  0.500000000  0.350310383
     0.500000000  0.500000000  0.450103461
     0.750000000  0.250000000  0.450103461
     0.499981104  0.250064937  0.550422134
     0.749990732  0.500000255  0.550465684
     0.499905430  0.499978914  0.649764015
     0.750159990  0.249834592  0.649486684
     0.000000000  0.750000000  0.450103461
     0.250000000  0.000000000  0.450103461
     0.000000000  0.000000000  0.350310383
     0.250000000  0.750000000  0.350310383
     0.000006893  0.750065008  0.651437413
     0.250001399  0.999982107  0.651437874
     0.999978859  0.999994871  0.550123406
     0.249961326  0.750053583  0.550108422
     0.000000000  0.250000000  0.450103461
     0.250000000  0.500000000  0.450103461
     0.000000000  0.500000000  0.350310383
     0.250000000  0.250000000  0.350310383
     0.000004921  0.249911596  0.651434103
     0.249800997  0.499988285  0.651291153
     0.999978905  0.500011587  0.550086751
     0.249942865  0.249947898  0.550108244
     0.500000000  0.750000000  0.450103461
     0.750000000  0.000000000  0.450103461
     0.500000000  0.000000000  0.350310383
     0.750000000  0.750000000  0.350310383
     0.500006552  0.750076549  0.651428281
     0.750012937  0.999977968  0.651472901
     0.499985018  0.999997950  0.550095492
     0.750013019  0.750077373  0.550119365
     0.500000000  0.250000000  0.450103461
[...]
   4.27289532  2.13708336 11.78430958
   6.40950601  4.27305899 11.78524197
   4.27224860  4.27287661 13.91117804
   6.41095252  2.13511481 13.90524051
   0.00000000  6.40958522  9.63652841
   2.13652841  0.00000000  9.63652841
   0.00000000  0.00000000  7.50000000
   2.13652841  6.40958522  7.50000000
   0.00005891  6.41014078 13.94700480
   2.13654036  8.54596071 13.94701469
   8.54593295  8.54606979 11.77791395
   2.13619790  6.41004314 11.77759314
   0.00000000  2.13652841  9.63652841
   2.13652841  4.27305681  9.63652841
   0.00000000  4.27305681  7.50000000
   2.13652841  2.13652841  7.50000000
   0.00004205  2.13577289 13.94693395
   2.13482770  4.27295670 13.94387344
   8.54593335  4.27315584 11.77712918
   2.13604013  2.13608314 11.77758932
   4.27305681  6.40958522  9.63652841
   6.40958522  0.00000000  9.63652841
   4.27305681  0.00000000  7.50000000
   6.40958522  6.40958522  7.50000000
   4.27311281  6.41023942 13.94680929
   6.40969578  8.54592534 13.94776460
   4.27292877  8.54609611 11.77731630
   6.40969648  6.41024646 11.77782744
   4.27305681  2.13652841  9.63652841
   6.40958522  4.27305681  9.63652841
   4.27305681  4.27305681  7.50000000
   6.40958522  2.13652841  7.50000000
   4.27312639  2.13551047 13.94668848
   6.41130921  4.27296052 13.94599259
   4.27307562  4.27300474 11.77936873
   6.40984349  2.13583809 11.77783292

--------------------------------------- Iteration      FINAL  ---------------------------------------

--------------------OUTCAR has been truncated-------------------------

[...]

--------------------OUTCAR has been truncated-------------------------

  FORCE on cell =-STRESS in cart. coord.  units (eV):
  Direction    XX          YY          ZZ          XY          YZ          ZX
  Alpha Z   893.75235   893.75235   893.75235
  Ewald  150543.18603150381.48117************     0.84233     0.09189    41.87790
  Hartree160868.06490160740.47897************     0.63274     0.13192    31.82749
  E(xc)   -2499.92474 -2499.62281 -2499.95120    -0.00166    -0.00021    -0.08890
  Local  ************************320537.71118    -1.51346    -0.25109   -75.51401
  n-local -2859.04871 -2860.29947 -2878.80306     0.00774     0.00268     0.39591
  augment  1052.19406  1052.12447  1043.14074     0.00043     0.00007     0.02129
  Kinetic  7469.31577  7464.71043  7507.63873     0.02562     0.02565     1.35238
  Fock        0.00000     0.00000     0.00000     0.00000     0.00000     0.00000
  Total     -51.19933   -50.61492   -18.15554    -0.00626     0.00091    -0.12794
  in kB     -52.46013   -51.86132   -18.60262    -0.00642     0.00093    -0.13109

 VOLUME and BASIS-vectors are now :
  energy-cutoff  :      600.00
  volume of cell :     1563.67
      direct lattice vectors                 reciprocal lattice vectors
     8.546113626  0.000000000  0.000000000     0.117012252  0.000000000  0.000000000
     0.000000000  8.546113626  0.000000000     0.000000000  0.117012252  0.000000000
     0.000000000  0.000000000 21.409585219     0.000000000  0.000000000  0.046708051

  length of vectors
     8.546113626  8.546113626 21.409585219     0.117012252  0.117012252  0.046708051

 FORCES acting on ions:
    Electron-Ion                     Ewald-Force                    Non-Local-Force
   0.694E+02 0.441E+00 -.828E+03   -.690E+02 -.430E+00 0.828E+03   0.176E-01 -.447E-02 -.967E-01
   -.695E+02 -.433E+00 -.783E+03   0.694E+02 0.439E+00 0.782E+03   -.283E+00 -.101E-02 0.125E+00
   0.197E+02 0.455E+02 -.208E+03   -.208E+02 -.501E+02 0.205E+03   0.114E+01 0.443E+01 0.314E+01
   0.211E+02 -.471E+02 -.208E+03   -.225E+02 0.518E+02 0.205E+03   0.128E+01 -.460E+01 0.285E+01
   0.433E+02 0.217E+01 -.212E+03   -.468E+02 -.237E+01 0.217E+03   0.346E+01 0.206E+00 -.435E+01
   -.431E+02 -.101E+01 -.190E+03   0.466E+02 0.111E+01 0.186E+03   -.343E+01 -.911E-01 0.441E+01
   -.208E+02 0.464E+02 -.195E+03   0.220E+02 -.510E+02 0.198E+03   -.125E+01 0.450E+01 -.301E+01
   -.198E+02 -.460E+02 -.195E+03   0.210E+02 0.505E+02 0.198E+03   -.115E+01 -.445E+01 -.312E+01
   -.857E-01 -.204E+00 0.202E+04   0.855E-01 0.203E+00 -.201E+04   0.184E-03 0.378E-03 -.673E+01
   0.133E+00 0.482E-03 0.202E+04   -.133E+00 -.488E-03 -.201E+04   -.188E-03 -.227E-06 -.673E+01
   -.247E+00 -.208E-03 0.700E+03   0.247E+00 0.135E-03 -.700E+03   0.326E-03 0.106E-03 0.455E+00
   0.474E+00 -.687E+00 0.701E+03   -.470E+00 0.685E+00 -.701E+03   -.284E-02 0.165E-02 0.449E+00
   -.134E+01 -.320E+01 -.608E+03   0.135E+01 0.321E+01 0.608E+03   -.211E-02 -.107E-01 -.259E+00
   0.219E+01 0.139E-01 -.610E+03   -.219E+01 -.156E-01 0.610E+03   0.171E-02 0.134E-02 -.261E+00
   -.390E+01 0.110E-02 -.193E+04   0.391E+01 -.704E-02 0.192E+04   -.127E-01 0.722E-02 0.594E+01
   0.135E+02 -.159E+02 -.191E+04   -.135E+02 0.159E+02 0.191E+04   0.260E-01 0.195E-01 0.594E+01
   -.858E-01 0.204E+00 0.202E+04   0.855E-01 -.203E+00 -.201E+04   0.188E-03 -.394E-03 -.673E+01
   0.144E+00 -.522E-03 0.202E+04   -.143E+00 0.530E-03 -.201E+04   -.651E-03 -.165E-05 -.674E+01
   -.262E+00 -.200E-02 0.701E+03   0.257E+00 0.244E-02 -.702E+03   0.347E-02 -.307E-03 0.436E+00
   0.465E+00 0.688E+00 0.701E+03   -.461E+00 -.685E+00 -.701E+03   -.250E-02 -.163E-02 0.449E+00
   -.135E+01 0.322E+01 -.608E+03   0.135E+01 -.323E+01 0.608E+03   -.179E-02 0.111E-01 -.260E+00
   0.336E+01 -.176E-01 -.602E+03   -.336E+01 0.178E-01 0.603E+03   0.642E-03 -.523E-03 -.374E+00
   -.940E+01 0.379E-04 -.191E+04   0.945E+01 0.640E-02 0.190E+04   -.506E-01 -.789E-02 0.594E+01
   0.135E+02 0.160E+02 -.191E+04   -.136E+02 -.159E+02 0.191E+04   0.435E-01 -.193E-01 0.595E+01
   0.856E-01 -.215E+00 0.202E+04   -.854E-01 0.214E+00 -.201E+04   -.144E-03 0.895E-03 -.674E+01
   -.133E+00 0.523E-03 0.202E+04   0.133E+00 -.529E-03 -.201E+04   0.249E-03 0.482E-05 -.673E+01
   0.246E+00 -.224E-02 0.701E+03   -.247E+00 0.229E-02 -.701E+03   0.499E-03 -.328E-04 0.442E+00
   -.474E+00 -.691E+00 0.701E+03   0.469E+00 0.685E+00 -.702E+03   0.348E-02 0.437E-02 0.454E+00
   0.135E+01 -.460E+01 -.602E+03   -.135E+01 0.459E+01 0.602E+03   0.188E-02 0.130E-01 -.304E+00
   -.220E+01 0.139E-01 -.608E+03   0.220E+01 -.154E-01 0.608E+03   -.349E-02 0.134E-02 -.251E+00
   0.395E+01 0.201E+00 -.192E+04   -.397E+01 -.199E+00 0.191E+04   0.119E-01 -.327E-02 0.593E+01
   -.136E+02 -.215E+02 -.190E+04   0.137E+02 0.215E+02 0.189E+04   -.196E-01 -.285E-01 0.593E+01
   0.856E-01 0.215E+00 0.202E+04   -.854E-01 -.214E+00 -.201E+04   -.145E-03 -.887E-03 -.674E+01
   -.144E+00 -.615E-03 0.202E+04   0.143E+00 0.608E-03 -.201E+04   0.648E-03 0.386E-05 -.674E+01
   0.257E+00 0.505E-03 0.702E+03   -.253E+00 -.893E-03 -.703E+03   -.319E-02 0.264E-03 0.467E+00
   -.464E+00 0.692E+00 0.701E+03   0.459E+00 -.686E+00 -.702E+03   0.319E-02 -.419E-02 0.455E+00
   0.135E+01 0.461E+01 -.602E+03   -.135E+01 -.459E+01 0.602E+03   0.154E-02 -.135E-01 -.305E+00
   -.337E+01 -.199E-01 -.599E+03   0.337E+01 0.206E-01 0.600E+03   -.126E-02 -.708E-03 -.347E+00
   0.983E+01 -.338E+00 -.186E+04   -.987E+01 0.346E+00 0.185E+04   0.373E-01 -.451E-02 0.589E+01
   -.137E+02 0.215E+02 -.190E+04   0.137E+02 -.215E+02 0.189E+04   -.368E-01 0.286E-01 0.593E+01
   -.194E+00 -.512E+00 0.525E+03   0.195E+00 0.506E+00 -.525E+03   -.122E-02 0.729E-02 -.749E-01
   0.342E+00 0.236E-03 0.525E+03   -.338E+00 -.222E-03 -.525E+03   -.535E-02 -.249E-06 -.790E-01
   -.628E-01 0.551E-03 0.151E+04   0.627E-01 -.567E-03 -.152E+04   0.175E-04 0.294E-04 0.363E+01
   0.104E+00 -.155E+00 0.151E+04   -.103E+00 0.154E+00 -.152E+04   -.102E-02 0.101E-02 0.362E+01
   -.496E+01 -.957E+01 -.146E+04   0.496E+01 0.955E+01 0.146E+04   -.484E-03 0.221E-01 -.495E+01
   0.598E+01 0.702E-01 -.146E+04   -.597E+01 -.708E-01 0.147E+04   -.128E-01 0.109E-02 -.494E+01
   -.791E+00 -.120E-01 -.454E+03   0.788E+00 0.157E-01 0.453E+03   0.408E-02 -.385E-02 0.248E+00
   0.205E+01 -.269E+01 -.450E+03   -.204E+01 0.268E+01 0.449E+03   -.400E-02 0.145E-01 0.283E+00
   -.195E+00 0.515E+00 0.525E+03   0.196E+00 -.510E+00 -.525E+03   -.139E-02 -.660E-02 -.749E-01
   0.393E+00 -.391E-03 0.526E+03   -.396E+00 0.327E-03 -.525E+03   0.389E-02 0.641E-04 -.900E-01
   -.656E-01 -.648E-03 0.151E+04   0.651E-01 0.651E-03 -.152E+04   0.725E-03 -.228E-05 0.362E+01
   0.103E+00 0.155E+00 0.151E+04   -.103E+00 -.154E+00 -.152E+04   -.102E-02 -.101E-02 0.362E+01
   -.497E+01 0.956E+01 -.146E+04   0.497E+01 -.954E+01 0.146E+04   -.505E-03 -.228E-01 -.495E+01
   0.162E+02 -.951E-01 -.144E+04   -.161E+02 0.936E-01 0.144E+04   -.699E-01 0.129E-02 -.503E+01
   -.117E+01 -.578E-02 -.448E+03   0.117E+01 0.596E-02 0.448E+03   -.539E-02 -.773E-03 0.286E+00
   0.201E+01 0.269E+01 -.450E+03   -.200E+01 -.268E+01 0.449E+03   -.537E-02 -.170E-01 0.286E+00
   0.189E+00 -.582E+00 0.526E+03   -.189E+00 0.586E+00 -.526E+03   -.664E-03 -.497E-02 -.884E-01
   -.347E+00 0.663E-04 0.525E+03   0.345E+00 0.789E-04 -.525E+03   0.281E-02 -.172E-03 -.785E-01
   0.628E-01 0.142E-03 0.151E+04   -.628E-01 -.133E-03 -.152E+04   -.105E-03 -.151E-04 0.362E+01
   -.104E+00 -.158E+00 0.151E+04   0.103E+00 0.157E+00 -.152E+04   0.957E-03 0.162E-02 0.362E+01
   0.504E+01 -.203E+02 -.144E+04   -.504E+01 0.203E+02 0.144E+04   -.335E-02 0.448E-01 -.496E+01
   -.604E+01 0.807E-01 -.146E+04   0.604E+01 -.818E-01 0.146E+04   0.748E-02 0.192E-02 -.495E+01
   0.815E+00 0.185E-01 -.450E+03   -.818E+00 -.192E-01 0.450E+03   0.451E-02 0.846E-03 0.298E+00
   -.204E+01 -.300E+01 -.448E+03   0.203E+01 0.299E+01 0.447E+03   0.809E-02 0.134E-01 0.297E+00
   0.190E+00 0.582E+00 0.526E+03   -.189E+00 -.586E+00 -.526E+03   -.620E-03 0.443E-02 -.886E-01
   -.392E+00 -.131E-02 0.526E+03   0.395E+00 0.145E-02 -.526E+03   -.459E-02 -.214E-03 -.100E+00
   0.655E-01 -.150E-03 0.151E+04   -.650E-01 0.159E-03 -.152E+04   -.713E-03 -.817E-05 0.362E+01
   -.103E+00 0.158E+00 0.151E+04   0.103E+00 -.157E+00 -.152E+04   0.946E-03 -.163E-02 0.362E+01
   0.506E+01 0.204E+02 -.143E+04   -.506E+01 -.204E+02 0.144E+04   -.247E-02 -.436E-01 -.495E+01
   -.165E+02 -.970E-01 -.142E+04   0.165E+02 0.942E-01 0.143E+04   0.447E-01 0.270E-02 -.497E+01
   0.118E+01 -.243E-01 -.443E+03   -.118E+01 0.254E-01 0.443E+03   0.615E-02 -.134E-02 0.225E+00
   -.200E+01 0.300E+01 -.447E+03   0.199E+01 -.299E+01 0.447E+03   0.990E-02 -.143E-01 0.299E+00
   0.244E+00 0.384E-02 0.144E+02   0.369E-12 0.313E-12 -.523E-11   -.243E+00 -.382E-02 -.144E+02

 POSITION                                       TOTAL-FORCE (eV/Angst)
      4.31048      4.25963     17.30994         0.393862      0.006772      0.113185
      5.78573      4.26874     17.75489        -0.363681      0.005115     -0.086593
      4.09171      3.38669     16.67948        -0.020263     -0.110527     -0.077410
      4.06316      5.16533     16.73943        -0.023130      0.104893     -0.079325
      3.63259      4.21907     18.17233        -0.065117     -0.000068      0.062639
      6.45921      4.28706     16.88780         0.044073      0.004347     -0.103199
      6.02517      3.37689     18.34857         0.024291     -0.069151      0.043301
      6.00661      5.14978     18.37193         0.020600      0.056915      0.046142
      0.00000      6.40959      7.50000        -0.000081     -0.000160      0.483805
      2.13653      0.00000      7.50000         0.000088     -0.000006      0.484033
      0.00000      0.00000      9.63653        -0.000199      0.000033      0.019620
      2.13653      6.40959      9.63653         0.001278     -0.001007      0.021539
      8.54600      6.41003     11.78273         0.000815     -0.001963      0.000449
      2.13633      8.54610     11.78295         0.000371     -0.000296     -0.000754
      0.00058      8.54574     13.90838        -0.002652      0.001215     -0.166073
      2.13574      6.40944     13.90545         0.000587     -0.005231     -0.156894
      0.00000      2.13653      7.50000        -0.000086      0.000171      0.483799
      2.13653      4.27306      7.50000         0.000210      0.000006      0.484427
      0.00000      4.27306      9.63653        -0.001332      0.000132      0.023338
      2.13653      2.13653      9.63653         0.001201      0.001012      0.021595
      8.54598      2.13619     11.78273         0.000969      0.000836      0.000277
      2.13650      4.27309     11.78421         0.001481     -0.000241     -0.001760
      0.00122      4.27326     13.90461         0.002645     -0.001387     -0.154743
      2.13517      2.13639     13.90529         0.002229      0.005643     -0.156249
      4.27306      6.40959      7.50000         0.000047     -0.000308      0.484447
      6.40959      0.00000      7.50000        -0.000110     -0.000002      0.483884
      4.27306      0.00000      9.63653        -0.000281      0.000009      0.022733
      6.40959      6.40959      9.63653        -0.001692     -0.002169      0.021839
      4.27289      6.40899     11.78423         0.000307      0.000589     -0.003932
      6.40943      8.54607     11.78303         0.001490     -0.000149     -0.001562
      4.27267      0.00000     13.90506         0.001563     -0.001013     -0.153509
      6.41040      6.41067     13.90534        -0.002742     -0.004632     -0.153816
      4.27306      2.13653      7.50000         0.000054      0.000295      0.484458
      6.40959      4.27306      7.50000        -0.000227     -0.000004      0.484929
      4.27306      4.27306      9.63653         0.001267     -0.000122      0.025513
      6.40959      2.13653      9.63653        -0.001646      0.002075      0.021833
      4.27290      2.13708     11.78431         0.000269     -0.000729     -0.004855
      6.40951      4.27306     11.78524        -0.001602     -0.000021     -0.009061
      4.27225      4.27288     13.91118        -0.005335      0.002484     -0.123153
      6.41095      2.13511     13.90524        -0.004151      0.005574     -0.153705
      0.00000      6.40959      9.63653        -0.000345      0.001806      0.043119
      2.13653      0.00000      9.63653        -0.001386      0.000014      0.042852
      0.00000      0.00000      7.50000        -0.000004      0.000012     -0.248367
      2.13653      6.40959      7.50000        -0.000301      0.000293     -0.248701
      0.00006      6.41014     13.94700        -0.002292     -0.001572     -0.138515
      2.13654      8.54596     13.94701        -0.000207      0.000532     -0.137522
      8.54593      8.54607     11.77791         0.000690     -0.000135     -0.000126
      2.13620      6.41004     11.77759         0.001146      0.000674     -0.001818
      0.00000      2.13653      9.63653        -0.000384     -0.001656      0.043155
      2.13653      4.27306      9.63653         0.001285      0.000001      0.045385
      0.00000      4.27306      7.50000         0.000219      0.000000     -0.248779
      2.13653      2.13653      7.50000        -0.000302     -0.000294     -0.248695
      0.00004      2.13577     13.94693        -0.002223      0.001655     -0.138601
      2.13483      4.27296     13.94387         0.000168     -0.000217     -0.143322
      8.54593      4.27316     11.77713        -0.001668     -0.000595     -0.002545
      2.13604      2.13608     11.77759         0.002137     -0.001232     -0.001767
      4.27306      6.40959      9.63653        -0.000100     -0.001322      0.045881
      6.40959      0.00000      9.63653         0.000787     -0.000027      0.043284
      4.27306      0.00000      7.50000        -0.000032     -0.000006     -0.248673
      6.40959      6.40959      7.50000         0.000269      0.000462     -0.248794
      4.27311      6.41024     13.94681        -0.000668      0.003558     -0.130234
      6.40970      8.54593     13.94776        -0.000271      0.000802     -0.141606
      4.27293      8.54610     11.77732         0.000961      0.000217      0.001845
      6.40970      6.41025     11.77783        -0.000500     -0.002235     -0.000365
      4.27306      2.13653      9.63653        -0.000086      0.001169      0.046190
      6.40959      4.27306      9.63653        -0.001474     -0.000071      0.046887
      4.27306      4.27306      7.50000        -0.000203      0.000001     -0.249275
      6.40959      2.13653      7.50000         0.000264     -0.000468     -0.248795
      4.27313      2.13551     13.94669        -0.000617     -0.002022     -0.128781
      6.41131      4.27296     13.94599        -0.000769     -0.000050     -0.127510
      4.27308      4.27300     11.77937         0.001953     -0.000175     -0.006663
      6.40984      2.13584     11.77783        -0.001418      0.001945     -0.000334
    total drift:                                0.000152      0.000019     -0.002456

  FREE ENERGIE OF THE ION-ELECTRON SYSTEM (eV)
  free  energy   TOTEN  =      -301.88648096 eV

  energy  without entropy=     -301.88648096  energy(sigma->0) =     -301.88648096