 vasp.6.4.2 20Jul23 (build Feb 22 2024 13:53:45) complex
 executed on              LinuxNV date 2024.08.27  16:05:33
 OpenACC runtime initialized ...    4 GPUs detected

 INCAR:
   SYSTEM = Oxide-Surface
   ISMEAR = 0
   SIGMA = 0.05
   EDIFF = 1E-5
   ALGO = Normal
   IBRION = -1
   NSW = 0
   ISYM = 0
   DIPOL = 0.5 0.5 0.5
   IDIPOL = 3
   LDIPOL = .TRUE.
   ISTART = 0
   LHFCALC = .FALSE.
   GGA = PE
   IVDW = 21
   VDW_SR = 0.96
   HFRCUT = -1
   ENCUT = 1000
   PREC = Normal
   PRECFOCK = Normal
   LASPH = .TRUE.
   LREAL = Auto
   ISPIN = 1
   NELM = 200
   NELMIN = 8
   NCORE = 1
   KPAR = 1
   LWAVE = .FALSE.
   LCHARG = .FALSE.

 POTCAR:    PAW_PBE C_h 06Feb2004
 POTCAR:    PAW_PBE O_h 06Feb2004
 POTCAR:    PAW_PBE Mg_sv 12Apr2007
 POTCAR:    PAW_PBE O_h 06Feb2004
 POTCAR:    PAW_PBE C_h 06Feb2004
   VRHFIN =C: s2p2

   TITEL  = PAW_PBE C_h 06Feb2004
   POMASS =   12.011; ZVAL   =    4.000    mass and valenz
   ENMAX  =  700.000; ENMIN  =  500.000 eV

[...]

   TITEL  = PAW_PBE Mg_sv 12Apr2007
   POMASS =   24.305; ZVAL   =   10.000    mass and valenz
   ENMAX  =  495.223; ENMIN  =  371.417 eV

   TITEL  = PAW_PBE O_h 06Feb2004
   POMASS =   16.000; ZVAL   =    6.000    mass and valenz
   ENMAX  =  700.000; ENMIN  =  500.000 eV

 Optimization of the real space projectors (new method)

 maximal supplied QI-value         = 34.20
 optimisation between [QCUT,QGAM] = [ 16.08, 32.15] = [ 72.37,289.48] Ry
 Optimized for a Real-space Cutoff    0.71 Angstroem

   l    n(q)    QCUT    max X(q) W(low)/X(q) W(high)/X(q)  e(spline)
   0      7    16.076   134.812    0.49E-03    0.92E-03    0.59E-07
   0      7    16.076    80.524    0.48E-03    0.91E-03    0.58E-07
   1      6    16.076    79.026    0.37E-03    0.58E-03    0.12E-06
   1      6    16.076    45.188    0.36E-03    0.56E-03    0.12E-06
 Optimization of the real space projectors (new method)

[...]

   l    n(q)    QCUT    max X(q) W(low)/X(q) W(high)/X(q)  e(spline)
   0      9    16.140     8.730    0.14E-04    0.12E-04    0.27E-07
   0      9    16.140     8.910    0.19E-04    0.17E-04    0.41E-07
   1      9    16.140     2.513    0.16E-04    0.28E-04    0.54E-07
   1      9    16.140     3.341    0.27E-04    0.13E-03    0.17E-06
   2      9    16.140     3.683    0.18E-03    0.21E-03    0.81E-07
 Optimization of the real space projectors (new method)

 maximal supplied QI-value         = 34.20
 optimisation between [QCUT,QGAM] = [ 16.08, 32.15] = [ 72.37,289.48] Ry
 Optimized for a Real-space Cutoff    0.71 Angstroem

   l    n(q)    QCUT    max X(q) W(low)/X(q) W(high)/X(q)  e(spline)
   0      7    16.076   280.207    0.42E-03    0.69E-03    0.60E-07
   0      7    16.076   228.978    0.42E-03    0.69E-03    0.61E-07
   1      6    16.076    86.127    0.11E-03    0.66E-03    0.10E-06
   1      6    16.076    65.368    0.11E-03    0.65E-03    0.10E-06
  PAW_PBE C_h 06Feb2004                 :
  PAW_PBE O_h 06Feb2004                 :
  PAW_PBE Mg_sv 12Apr2007               :
  PAW_PBE O_h 06Feb2004                 :

 POSCAR:  C  O Mg  O
  positions in direct lattice
 exchange correlation table for  LEXCH =        8
   RHO(1)=    0.500       N(1)  =     2000
   RHO(2)=  100.500       N(2)  =     4000

 ion  position               nearest neighbor table
   1  0.624  0.624  0.726-   2 1.15
   2  0.624  0.624  0.793-   1 1.15
   3  0.124  0.874  0.207-
   4  0.374  0.124  0.207-
   5  0.124  0.124  0.331-
   6  0.374  0.874  0.331-
   7  0.124  0.874  0.456-
   8  0.374  0.124  0.456-
   9  0.124  0.124  0.580-
  10  0.374  0.875  0.579-
  11  0.124  0.374  0.207-
  12  0.374  0.624  0.207-
  13  0.124  0.624  0.331-
  14  0.374  0.374  0.331-
  15  0.124  0.374  0.456-
  16  0.375  0.624  0.456-
  17  0.124  0.624  0.580-
  18  0.374  0.374  0.579-
  19  0.624  0.874  0.207-
  20  0.874  0.124  0.207-
  21  0.624  0.124  0.331-
  22  0.874  0.874  0.331-
  23  0.624  0.874  0.456-
  24  0.874  0.124  0.456-
  25  0.624  0.124  0.580-
  26  0.875  0.875  0.579-
  27  0.624  0.374  0.207-
  28  0.874  0.624  0.207-
  29  0.624  0.624  0.331-
  30  0.874  0.374  0.331-
  31  0.624  0.375  0.456-
  32  0.874  0.624  0.456-
  33  0.624  0.624  0.582-
  34  0.875  0.374  0.579-
  35  0.124  0.874  0.331-
  36  0.374  0.124  0.331-
  37  0.124  0.124  0.207-
  38  0.374  0.874  0.207-
  39  0.124  0.875  0.583-
  40  0.374  0.124  0.583-
  41  0.124  0.124  0.456-
  42  0.374  0.874  0.456-
  43  0.124  0.374  0.331-
  44  0.374  0.624  0.331-
  45  0.124  0.624  0.207-
  46  0.374  0.374  0.207-
  47  0.124  0.374  0.583-
  48  0.373  0.624  0.582-
  49  0.124  0.624  0.456-
  50  0.374  0.374  0.456-
  51  0.624  0.874  0.331-
  52  0.874  0.124  0.331-
  53  0.624  0.124  0.207-
  54  0.874  0.874  0.207-
  55  0.624  0.876  0.582-
  56  0.875  0.124  0.583-
  57  0.624  0.124  0.456-
  58  0.874  0.874  0.456-
  59  0.624  0.374  0.331-
  60  0.874  0.624  0.331-
  61  0.624  0.624  0.207-
  62  0.874  0.374  0.207-
  63  0.624  0.373  0.582-
  64  0.876  0.624  0.582-
  65  0.624  0.624  0.456-
  66  0.874  0.374  0.456-

IMPORTANT INFORMATION: All symmetrisations will be switched off!
NOSYMM: (Re-)initialisation of all symmetry stuff for point group C_1.

                                     Primitive cell

  volume of cell :    1211.2538

  direct lattice vectors                    reciprocal lattice vectors
     8.440984654  0.000000000  0.000000000     0.118469591  0.000000000  0.000000000
     0.000000000  8.440984654  0.000000000     0.000000000  0.118469591  0.000000000
     0.000000000  0.000000000 17.000000000     0.000000000  0.000000000  0.058823529

  length of vectors
     8.440984654  8.440984654 17.000000000     0.118469591  0.118469591  0.058823529

  position of ions in fractional coordinates (direct lattice)
     0.624411355  0.624411355  0.725657141
     0.624411355  0.624411355  0.793117130
     0.124411355  0.874411355  0.206882870
     0.374411355  0.124411355  0.206882870
     0.124411355  0.124411355  0.331014998
     0.374411355  0.874411355  0.331014998
     0.124411355  0.874350623  0.455922972
     0.374472087  0.124411355  0.455922972
     0.124411355  0.124411355  0.579719137
     0.374269682  0.874553028  0.579498600
     0.124411355  0.374411355  0.206882870
     0.374411355  0.624411355  0.206882870
     0.124411355  0.624411355  0.331014998
     0.374411355  0.374411355  0.331014998
     0.124411355  0.374472087  0.455922972
     0.374789734  0.624411355  0.456093975
     0.124411355  0.624411355  0.579555984
     0.374269682  0.374269682  0.579498600
     0.624411355  0.874411355  0.206882870
     0.874411355  0.124411355  0.206882870
     0.624411355  0.124411355  0.331014998
     0.874411355  0.874411355  0.331014998
     0.624411355  0.874032976  0.456093975
     0.874350623  0.124411355  0.455922972
     0.624411355  0.124411355  0.579555984
     0.874553028  0.874553028  0.579498600
     0.624411355  0.374411355  0.206882870
     0.874411355  0.624411355  0.206882870
     0.624411355  0.624411355  0.331014998
     0.874411355  0.374411355  0.331014998
     0.624411355  0.374789734  0.456093975
     0.874032976  0.624411355  0.456093975
     0.624411355  0.624411355  0.582067590
     0.874553028  0.374269682  0.579498600
     0.124411355  0.874411355  0.331014998
     0.374411355  0.124411355  0.331014998
     0.124411355  0.124411355  0.206882870
     0.374411355  0.874411355  0.206882870
     0.124411355  0.874629888  0.582522179
     0.374192822  0.124411355  0.582522179
     0.124411355  0.124411355  0.455579988
     0.374357125  0.874465584  0.455641750
     0.124411355  0.374411355  0.331014998
     0.374411355  0.624411355  0.331014998
     0.124411355  0.624411355  0.206882870
     0.374411355  0.374411355  0.206882870
     0.124411355  0.374192822  0.582522179
     0.373234064  0.624411355  0.582401242
     0.124411355  0.624411355  0.455520732
     0.374357125  0.374357125  0.455641750
     0.624411355  0.874411355  0.331014998
     0.874411355  0.124411355  0.331014998
     0.624411355  0.124411355  0.206882870
     0.874411355  0.874411355  0.206882870
     0.624411355  0.875588645  0.582401242
     0.874629888  0.124411355  0.582522179
     0.624411355  0.124411355  0.455520732
     0.874465584  0.874465584  0.455641750
     0.624411355  0.374411355  0.331014998
     0.874411355  0.624411355  0.331014998
     0.624411355  0.624411355  0.206882870
     0.874411355  0.374411355  0.206882870
     0.624411355  0.373234064  0.582401242
     0.875588645  0.624411355  0.582401242
     0.624411355  0.624411355  0.456108822
     0.874465584  0.374357125  0.455641750

  ion indices of the primitive-cell ions
   primitive index   ion index
                 1           1
                 2           2
                 3           3
                 4           4
                 5           5
                 6           6
                 7           7
                 8           8
                 9           9
                10          10
                11          11
                12          12
                13          13
                14          14
                15          15
                16          16
                17          17
                18          18
                19          19
                20          20
                21          21
                22          22
                23          23
                24          24
                25          25
                26          26
                27          27
                28          28
                29          29
                30          30
                31          31
                32          32
                33          33
                34          34
                35          35
                36          36
                37          37
                38          38
                39          39
                40          40
                41          41
                42          42
                43          43
                44          44
                45          45
                46          46
                47          47
                48          48
                49          49
                50          50
                51          51
                52          52
                53          53
                54          54
                55          55
                56          56
                57          57
                58          58
                59          59
                60          60
                61          61
                62          62
                63          63
                64          64
                65          65
                66          66

 KPOINTS: pymatgen v2020.8.13 with grid density =

Automatic generation of k-mesh.
 Grid dimensions read from file:
 generate k-points for:    2    2    1

 Generating k-lattice:

  Cartesian coordinates                     Fractional coordinates (reciprocal lattice)
     0.059234796  0.000000000  0.000000000     0.500000000  0.000000000  0.000000000
     0.000000000  0.059234796  0.000000000     0.000000000  0.500000000  0.000000000
[...]
   O         188.380          4.837         18.765          3.47499572

  vdW correction parametrized for the method #    þ

  IVDW =  21
  VDW_RADIUS =    50.000 A
  VDW_IDAMPF =  0
  VDW_S6 =     1.000
  VDW_SR =     0.960
  VDW_D =    20.000
  LVDW_ONECELL = F F F
  LVDW_SAMETYPE T T T T
  LVDW_EWALD = F

  Number of pair interactions contributing to vdW energy:  949078
  Edisp (eV):   -3.69473

  FORCE on cell =-STRESS in cart. coord.  units (eV):
  Direction    XX          YY          ZZ          XY          YZ          ZX
  Alpha Z  1227.42868  1227.42868  1227.42868
  Ewald  107190.75749107190.75749************    -0.00000    -0.00000    -0.00000
  Hartree124157.33732124157.33730************    -0.00015     0.00017     0.00016
  E(xc)   -3269.76393 -3269.76392 -3274.83623     0.00002     0.00000     0.00001
  Local  ************************240383.57795     0.00025    -0.00049    -0.00050
  n-local -5621.97439 -5621.97439 -5626.34020    -0.02544     0.01571     0.01571
  augment   724.68328   724.68329   715.58314     0.00259    -0.00032    -0.00032
  Kinetic 12740.20355 12740.20359 12737.57799    -0.00331     0.00093     0.00092
  Fock        0.00000     0.00000     0.00000     0.00000     0.00000     0.00000
  vdW        -5.20296    -5.20296    -3.61500    -0.00000     0.00000     0.00000
  Total     -20.19441   -20.19435     2.89194    -0.02604     0.01601     0.01599
  in kB     -26.71202   -26.71193     3.82530    -0.03444     0.02118     0.02114

 VOLUME and BASIS-vectors are now :
  energy-cutoff  :     1000.00
  volume of cell :     1211.25
      direct lattice vectors                 reciprocal lattice vectors
     8.440984654  0.000000000  0.000000000     0.118469591  0.000000000  0.000000000
     0.000000000  8.440984654  0.000000000     0.000000000  0.118469591  0.000000000
     0.000000000  0.000000000 17.000000000     0.000000000  0.000000000  0.058823529

  length of vectors
     8.440984654  8.440984654 17.000000000     0.118469591  0.118469591  0.058823529

 FORCES acting on ions
    electron-ion (+dipol)            ewald-force                    non-local-force                 convergence-correction
   0.931E-03 0.933E-03 -.641E+03   0.167E-13 0.355E-14 0.616E+03   0.388E-01 0.388E-01 0.259E+02   0.384E-05 0.483E-05 -.599E-02
   0.712E-03 0.711E-03 -.999E+03   0.155E-14 0.866E-14 0.105E+04   -.376E-03 -.376E-03 -.526E+02   0.633E-05 0.859E-05 0.102E-02
   -.208E-03 -.994E+00 0.244E+04   -.178E-13 0.993E+00 -.243E+04   0.419E-02 -.292E-02 -.915E+01   0.268E-04 0.626E-03 -.456E-02
   0.995E+00 -.193E-03 0.244E+04   -.993E+00 -.213E-13 -.243E+04   -.374E-02 0.418E-02 -.915E+01   -.616E-03 0.165E-04 -.449E-02
   -.950E-03 -.935E-03 0.827E+03   -.355E-14 0.746E-13 -.827E+03   -.961E-03 -.976E-03 0.657E+00   -.544E-04 -.594E-04 0.350E-02
   0.734E+00 -.733E+00 0.828E+03   -.728E+00 0.728E+00 -.828E+03   -.512E-02 0.246E-02 0.687E+00   -.186E-03 0.187E-03 0.337E-02
   -.311E-03 -.352E+01 -.777E+03   0.107E-13 0.351E+01 0.777E+03   0.196E-02 0.149E-01 -.255E+00   0.368E-04 0.359E-03 0.616E-02
   0.352E+01 -.217E-03 -.777E+03   -.351E+01 0.817E-13 0.777E+03   -.228E-01 0.218E-02 -.255E+00   -.346E-03 -.107E-03 0.618E-02
   -.958E-04 -.120E-03 -.238E+04   0.426E-13 0.000E+00 0.238E+04   0.605E-03 0.588E-03 0.774E+01   -.724E-04 -.335E-04 0.344E-02
   0.226E+02 -.226E+02 -.236E+04   -.227E+02 0.227E+02 0.235E+04   0.115E+00 -.126E+00 0.785E+01   -.185E-03 0.173E-03 0.332E-02
   -.174E-03 0.996E+00 0.244E+04   0.302E-13 -.993E+00 -.243E+04   0.417E-02 -.374E-02 -.915E+01   0.145E-04 -.649E-03 -.454E-02
   0.131E+01 -.177E-03 0.244E+04   -.130E+01 0.222E-13 -.243E+04   -.796E-02 0.420E-02 -.916E+01   -.513E-03 -.168E-04 -.391E-02
   -.996E-03 -.988E-03 0.828E+03   -.107E-12 0.000E+00 -.828E+03   -.983E-03 -.102E-02 0.612E+00   0.373E-05 0.482E-04 0.336E-02
   0.734E+00 0.734E+00 0.828E+03   -.728E+00 -.728E+00 -.828E+03   -.516E-02 -.511E-02 0.687E+00   -.110E-03 -.212E-03 0.332E-02
   -.270E-03 0.352E+01 -.777E+03   0.853E-13 -.351E+01 0.777E+03   0.214E-02 -.228E-01 -.255E+00   -.198E-04 -.343E-03 0.633E-02
   0.486E+01 -.311E-03 -.768E+03   -.476E+01 -.497E-13 0.769E+03   -.106E+00 0.116E-02 -.380E+00   0.247E-03 0.808E-04 0.679E-02
   -.479E-04 -.169E-03 -.237E+04   -.142E-13 -.426E-13 0.236E+04   0.115E-02 0.127E-02 0.775E+01   -.176E-04 -.313E-04 0.386E-02
   0.226E+02 0.226E+02 -.236E+04   -.227E+02 -.227E+02 0.235E+04   0.115E+00 0.115E+00 0.785E+01   -.206E-03 -.203E-03 0.326E-02
   -.173E-03 -.131E+01 0.244E+04   -.168E-12 0.130E+01 -.243E+04   0.419E-02 0.129E-02 -.916E+01   -.617E-05 0.533E-03 -.398E-02
   -.994E+00 -.230E-03 0.244E+04   0.993E+00 -.302E-13 -.243E+04   -.294E-02 0.417E-02 -.915E+01   0.613E-03 0.680E-04 -.459E-02
   -.935E-03 -.991E-03 0.828E+03   -.185E-12 0.107E-13 -.828E+03   -.969E-03 -.105E-02 0.612E+00   -.633E-04 0.694E-04 0.330E-02
   -.733E+00 -.733E+00 0.828E+03   0.728E+00 0.728E+00 -.828E+03   0.245E-02 0.244E-02 0.687E+00   0.194E-03 0.228E-03 0.351E-02
   -.422E-03 -.485E+01 -.768E+03   0.959E-13 0.476E+01 0.769E+03   0.118E-02 0.100E+00 -.382E+00   0.582E-04 -.226E-03 0.689E-02
   -.352E+01 -.259E-03 -.777E+03   0.351E+01 0.568E-13 0.777E+03   0.149E-01 0.199E-02 -.255E+00   0.296E-03 -.367E-04 0.616E-02
   -.198E-03 -.336E-04 -.237E+04   -.121E-12 -.355E-14 0.236E+04   0.126E-02 0.115E-02 0.775E+01   0.324E-05 -.312E-04 0.376E-02
   -.226E+02 -.226E+02 -.236E+04   0.227E+02 0.227E+02 0.235E+04   -.126E+00 -.126E+00 0.785E+01   0.210E-03 0.287E-03 0.334E-02
   -.176E-03 0.131E+01 0.244E+04   -.117E-12 -.130E+01 -.243E+04   0.419E-02 -.798E-02 -.916E+01   -.872E-05 -.535E-03 -.397E-02
   -.131E+01 -.162E-03 0.244E+04   0.130E+01 -.551E-13 -.243E+04   0.132E-02 0.417E-02 -.916E+01   0.452E-03 0.110E-05 -.403E-02
   -.898E-03 -.105E-02 0.827E+03   -.114E-12 -.178E-13 -.828E+03   -.957E-03 -.106E-02 0.783E+00   -.102E-03 0.144E-03 0.410E-02
   -.733E+00 0.734E+00 0.828E+03   0.728E+00 -.728E+00 -.828E+03   0.243E-02 -.505E-02 0.687E+00   0.254E-03 -.328E-03 0.332E-02
   -.272E-03 0.486E+01 -.768E+03   -.171E-12 -.476E+01 0.769E+03   0.120E-02 -.106E+00 -.380E+00   0.146E-04 0.203E-03 0.693E-02
   -.485E+01 -.435E-03 -.768E+03   0.476E+01 -.284E-13 0.769E+03   0.100E+00 0.122E-02 -.382E+00   -.269E-03 0.434E-04 0.691E-02
   -.158E-02 -.160E-02 -.227E+04   -.142E-13 -.391E-13 0.226E+04   -.459E-03 -.511E-03 0.505E+01   -.297E-04 0.338E-04 -.225E-02
   -.226E+02 0.226E+02 -.236E+04   0.227E+02 -.227E+02 0.235E+04   -.126E+00 0.115E+00 0.785E+01   0.177E-03 -.209E-03 0.324E-02
   0.232E-03 -.489E+00 0.495E+03   0.622E-14 0.481E+00 -.495E+03   -.171E-02 0.143E-01 -.802E-01   0.852E-04 0.427E-03 0.554E-02
   0.488E+00 0.332E-03 0.495E+03   -.481E+00 -.115E-13 -.495E+03   -.336E-02 -.168E-02 -.802E-01   -.338E-03 -.353E-04 0.557E-02
   0.809E-03 0.828E-03 0.148E+04   0.799E-14 -.129E-13 -.148E+04   -.147E-02 -.148E-02 0.262E+01   0.218E-04 0.115E-04 -.298E-02
   0.687E+00 -.689E+00 0.148E+04   -.685E+00 0.685E+00 -.148E+04   -.135E-02 0.447E-02 0.262E+01   -.285E-03 0.265E-03 -.259E-02
   0.678E-03 -.721E+01 -.146E+04   -.128E-12 0.716E+01 0.146E+04   -.149E-02 0.550E-01 -.464E+01   -.186E-04 -.447E-05 0.597E-02
   0.721E+01 0.648E-03 -.146E+04   -.716E+01 -.115E-13 0.146E+04   -.561E-01 -.228E-02 -.464E+01   0.829E-04 -.556E-04 0.595E-02
   0.178E-03 0.245E-03 -.462E+03   0.355E-13 -.142E-13 0.462E+03   -.314E-02 -.312E-02 0.273E+00   0.178E-04 -.614E-04 0.904E-02
   0.250E+01 -.250E+01 -.457E+03   -.249E+01 0.249E+01 0.457E+03   -.868E-02 0.280E-02 0.338E+00   -.247E-04 0.274E-04 0.944E-02
   0.314E-03 0.488E+00 0.495E+03   -.497E-13 -.481E+00 -.495E+03   -.168E-02 -.335E-02 -.802E-01   -.147E-04 -.407E-03 0.548E-02
   0.509E+00 0.238E-03 0.496E+03   -.542E+00 -.195E-13 -.495E+03   0.469E-01 -.171E-02 -.914E-01   0.615E-04 0.793E-04 0.582E-02
   0.802E-03 0.804E-03 0.148E+04   -.147E-13 -.546E-13 -.148E+04   -.149E-02 -.147E-02 0.262E+01   0.404E-04 0.282E-04 -.277E-02
   0.687E+00 0.687E+00 0.148E+04   -.685E+00 -.685E+00 -.148E+04   -.135E-02 -.135E-02 0.262E+01   -.287E-03 -.277E-03 -.261E-02
   0.594E-03 0.721E+01 -.146E+04   -.121E-12 -.716E+01 0.146E+04   -.227E-02 -.561E-01 -.464E+01   -.878E-05 0.572E-04 0.583E-02
   0.232E+02 0.340E-03 -.143E+04   -.229E+02 -.799E-14 0.143E+04   -.377E+00 -.191E-02 -.468E+01   0.200E-03 0.924E-04 0.615E-02
   0.207E-03 0.197E-03 -.457E+03   0.995E-13 -.213E-13 0.457E+03   -.316E-02 -.313E-02 0.293E+00   0.216E-05 0.274E-05 0.963E-02
   0.250E+01 0.250E+01 -.457E+03   -.249E+01 -.249E+01 0.457E+03   -.856E-02 -.855E-02 0.338E+00   -.178E-04 0.439E-04 0.946E-02
   0.291E-03 -.510E+00 0.496E+03   0.409E-13 0.542E+00 -.495E+03   -.168E-02 -.359E-01 -.914E-01   0.611E-05 -.463E-04 0.579E-02
   -.489E+00 0.307E-03 0.495E+03   0.481E+00 -.142E-13 -.495E+03   0.144E-01 -.169E-02 -.802E-01   0.398E-03 -.256E-06 0.559E-02
   0.807E-03 0.845E-03 0.148E+04   0.103E-12 0.444E-15 -.148E+04   -.148E-02 -.148E-02 0.262E+01   0.309E-04 -.461E-05 -.277E-02
   -.689E+00 -.689E+00 0.148E+04   0.685E+00 0.685E+00 -.148E+04   0.448E-02 0.446E-02 0.262E+01   0.310E-03 0.261E-03 -.264E-02
   0.804E-03 -.232E+02 -.143E+04   0.160E-13 0.229E+02 0.143E+04   -.439E-03 0.378E+00 -.468E+01   0.540E-04 -.119E-03 0.608E-02
   -.721E+01 0.683E-03 -.146E+04   0.716E+01 0.426E-13 0.146E+04   0.550E-01 -.148E-02 -.464E+01   0.106E-05 -.320E-04 0.597E-02
   0.202E-03 0.234E-03 -.457E+03   0.142E-13 0.782E-13 0.457E+03   -.313E-02 -.314E-02 0.293E+00   -.277E-05 -.421E-04 0.966E-02
   -.250E+01 -.250E+01 -.457E+03   0.249E+01 0.249E+01 0.457E+03   0.455E-02 0.454E-02 0.337E+00   -.303E-04 0.524E-04 0.944E-02
   0.355E-03 0.509E+00 0.496E+03   0.107E-12 -.542E+00 -.495E+03   -.167E-02 0.469E-01 -.914E-01   -.680E-04 -.936E-04 0.575E-02
   -.510E+00 0.283E-03 0.496E+03   0.542E+00 0.426E-13 -.495E+03   -.359E-01 -.171E-02 -.914E-01   -.198E-04 0.344E-04 0.580E-02
   0.832E-03 0.822E-03 0.147E+04   0.702E-13 -.488E-14 -.148E+04   -.147E-02 -.148E-02 0.262E+01   0.170E-05 0.167E-04 -.235E-02
   -.689E+00 0.687E+00 0.148E+04   0.685E+00 -.685E+00 -.148E+04   0.447E-02 -.133E-02 0.262E+01   0.293E-03 -.301E-03 -.268E-02
   0.439E-03 0.232E+02 -.143E+04   0.000E+00 -.229E+02 0.143E+04   -.192E-02 -.377E+00 -.468E+01   0.719E-05 0.161E-03 0.612E-02
   -.232E+02 0.834E-03 -.143E+04   0.229E+02 -.142E-13 0.143E+04   0.378E+00 -.444E-03 -.468E+01   -.131E-03 0.294E-04 0.621E-02
   0.443E-03 0.345E-03 -.458E+03   0.121E-12 0.284E-13 0.458E+03   -.116E-03 -.128E-03 -.185E+00   -.261E-04 0.751E-04 0.999E-02
   -.250E+01 0.250E+01 -.457E+03   0.249E+01 -.249E+01 0.457E+03   0.281E-02 -.867E-02 0.338E+00   0.208E-04 -.113E-04 0.960E-02
   0.333E-02 0.344E-02 0.522E+02   -.579E-12 0.114E-12 0.136E-11   -.352E-02 -.374E-02 -.524E+02   0.167E-03 0.266E-03 0.212E+00

 POSITION                                       TOTAL-FORCE (eV/Angst)
      5.27065      5.27065     12.33617         0.039707      0.039707      1.198989
      5.27065      5.27065     13.48299         0.000343      0.000344     -1.190797
      1.05015      7.38089      3.51701         0.004008     -0.002768      0.335042
      3.16040      1.05015      3.51701        -0.002380      0.004009      0.335044
      1.05015      1.05015      5.62725        -0.001965     -0.001969      0.034955
      3.16040      7.38089      5.62725         0.001009     -0.002269      0.029761
      1.05015      7.38038      7.75069         0.001691     -0.001838      0.042114
      3.16091      1.05015      7.75069        -0.004659      0.001860      0.041989
      1.05015      1.05015      9.85523         0.000437      0.000436      0.009267
      3.15920      7.38209      9.85148        -0.011078      0.002044      0.003159
      1.05015      3.16040      3.51701         0.004012     -0.002381      0.335044
      3.16040      5.27065      3.51701        -0.001470      0.004011      0.334095
      1.05015      5.27065      5.62725        -0.001975     -0.001956      0.042896
      3.16040      3.16040      5.62725         0.001007      0.001006      0.029767
      1.05015      3.16091      7.75069         0.001855     -0.004666      0.041953
      3.16359      5.27065      7.75360        -0.007315      0.000932      0.045033
      1.05015      5.27065      9.85245         0.001089      0.001070      0.004296
      3.15920      3.15920      9.85148        -0.011475     -0.011479      0.002671
      5.27065      7.38089      3.51701         0.004011     -0.003675      0.334095
      7.38089      1.05015      3.51701        -0.002768      0.004007      0.335041
      5.27065      1.05015      5.62725        -0.001967     -0.001967      0.042893
      7.38089      7.38089      5.62725        -0.002268     -0.002283      0.029778
      5.27065      7.37770      7.75360         0.000820      0.002933      0.043758
      7.38038      1.05015      7.75069        -0.001839      0.001691      0.042105
      5.27065      1.05015      9.85245         0.001069      0.001086      0.004303
      7.38209      7.38209      9.85148         0.002501      0.002499      0.004717
      5.27065      3.16040      3.51701         0.004009     -0.001468      0.334095
      7.38089      5.27065      3.51701        -0.003676      0.004014      0.334099
      5.27065      5.27065      5.62725        -0.001957     -0.001968      0.049317
      7.38089      3.16040      5.62725        -0.002276      0.001018      0.029760
      5.27065      3.16359      7.75360         0.000942     -0.007328      0.045028
      7.37770      5.27065      7.75360         0.002938      0.000828      0.043742
      5.27065      5.27065      9.89515        -0.002065     -0.002074      0.104915
      7.38209      3.15920      9.85148         0.002043     -0.011070      0.003155
      1.05015      7.38089      5.62725        -0.001390      0.007222      0.066457
      3.16040      1.05015      5.62725         0.003158     -0.001380      0.066459
      1.05015      1.05015      3.51701        -0.000640     -0.000641     -0.517178
      3.16040      7.38089      3.51701        -0.000180      0.000935     -0.522180
      1.05015      7.38274      9.90288        -0.000831     -0.003160      0.017330
      3.15856      1.05015      9.90288         0.001210     -0.001688      0.016099
      1.05015      1.05015      7.74486        -0.002943     -0.002938      0.004465
      3.15994      7.38135      7.74591         0.001191     -0.008542      0.007759
      1.05015      3.16040      5.62725        -0.001382      0.003165      0.066466
      3.16040      5.27065      5.62725         0.013977     -0.001392      0.075557
      1.05015      5.27065      3.51701        -0.000643     -0.000638     -0.516640
      3.16040      3.16040      3.51701        -0.000178     -0.000177     -0.522177
      1.05015      3.15856      9.90288        -0.001690      0.001210      0.016101
      3.15046      5.27065      9.90082        -0.016883     -0.001477      0.002698
      1.05015      5.27065      7.74385        -0.002954     -0.002934      0.003937
      3.15994      3.15994      7.74591         0.001303      0.001303      0.007736
      5.27065      7.38089      5.62725        -0.001383     -0.003593      0.075554
      7.38089      1.05015      5.62725         0.007223     -0.001387      0.066458
      5.27065      1.05015      3.51701        -0.000641     -0.000641     -0.516645
      7.38089      7.38089      3.51701         0.000936      0.000934     -0.522175
      5.27065      7.39083      9.90082         0.000420      0.017269      0.007468
      7.38274      1.05015      9.90288        -0.003163     -0.000833      0.017331
      5.27065      1.05015      7.74385        -0.002933     -0.002952      0.003939
      7.38135      7.38135      7.74591        -0.006810     -0.006812      0.006912
      5.27065      3.16040      5.62725        -0.001381      0.013990      0.075562
      7.38089      5.27065      5.62725        -0.003597     -0.001388      0.075551
      5.27065      5.27065      3.51701        -0.000638     -0.000637     -0.516014
      7.38089      3.16040      3.51701         0.000934     -0.000175     -0.522174
      5.27065      3.15046      9.90082        -0.001478     -0.016883      0.002701
      7.39083      5.27065      9.90082         0.017265      0.000420      0.007468
      5.27065      5.27065      7.75385         0.000301      0.000293      0.001351
      7.38135      3.15994      7.74591        -0.008543      0.001192      0.007749
    total drift:                               -0.000028     -0.000037      0.062665

  FREE ENERGIE OF THE ION-ELECTRON SYSTEM (eV)
  free  energy   TOTEN  =      -391.42567162 eV

  energy  without entropy=     -391.42567162  energy(sigma->0) =     -391.42567162