 vasp.6.4.2 20Jul23 (build Feb 22 2024 13:53:45) complex
 executed on              LinuxNV date 2024.08.27  16:14:51
 OpenACC runtime initialized ...    4 GPUs detected

 INCAR:
   SYSTEM = Oxide-Surface
   ISMEAR = 0
   SIGMA = 0.05
   EDIFF = 1E-5
   ALGO = Normal
   IBRION = -1
   NSW = 0
   ISYM = 0
   DIPOL = 0.5 0.5 0.5
   IDIPOL = 3
   LDIPOL = .TRUE.
   ISTART = 1
   LHFCALC = .TRUE.
   GGA = PE
   IVDW = 21
   VDW_SR = 0.96
   HFRCUT = -1
   ENCUT = 520
   PREC = Normal
   PRECFOCK = Normal
   LASPH = .TRUE.
   LREAL = Auto
   ISPIN = 1
   NELM = 200
   NELMIN = 8
   NCORE = 1
   KPAR = 1
   LWAVE = .FALSE.
   LCHARG = .FALSE.

 POTCAR:    PAW_PBE C 08Apr2002
 POTCAR:    PAW_PBE O 08Apr2002
 POTCAR:    PAW_PBE Mg_pv 13Apr2007
 POTCAR:    PAW_PBE O 08Apr2002
 POTCAR:    PAW_PBE C 08Apr2002
   VRHFIN =C: s2p2

   TITEL  = PAW_PBE C 08Apr2002
   POMASS =   12.011; ZVAL   =    4.000    mass and valenz
   ENMAX  =  400.000; ENMIN  =  300.000 eV

[...]

   TITEL  = PAW_PBE Mg_pv 13Apr2007
   POMASS =   24.305; ZVAL   =    8.000    mass and valenz
   ENMAX  =  403.929; ENMIN  =  302.947 eV

   TITEL  = PAW_PBE O 08Apr2002
   POMASS =   16.000; ZVAL   =    6.000    mass and valenz
   ENMAX  =  400.000; ENMIN  =  300.000 eV

 Optimization of the real space projectors (new method)

 maximal supplied QI-value         = 25.13
 optimisation between [QCUT,QGAM] = [ 11.56, 23.12] = [ 37.43,149.72] Ry
 Optimized for a Real-space Cutoff    1.04 Angstroem

   l    n(q)    QCUT    max X(q) W(low)/X(q) W(high)/X(q)  e(spline)
   0      7    11.561   115.676    0.20E-03    0.60E-03    0.21E-06
   0      7    11.561    87.132    0.20E-03    0.59E-03    0.21E-06
   1      7    11.561     4.429    0.23E-03    0.35E-03    0.15E-06
   1      7    11.561     2.733    0.18E-03    0.25E-03    0.12E-06
 Optimization of the real space projectors (new method)

[...]

   l    n(q)    QCUT    max X(q) W(low)/X(q) W(high)/X(q)  e(spline)
   1      8    11.527     2.974    0.16E-03    0.13E-03    0.98E-07
   1      8    11.527     4.279    0.42E-03    0.30E-03    0.22E-06
   0      8    11.527    16.381    0.13E-03    0.20E-03    0.72E-07
   0      8    11.527     5.611    0.88E-04    0.13E-03    0.50E-07
   2      7    11.527     4.652    0.25E-03    0.73E-04    0.51E-07
 Optimization of the real space projectors (new method)

 maximal supplied QI-value         = 24.76
 optimisation between [QCUT,QGAM] = [ 11.64, 23.27] = [ 37.91,151.63] Ry
 Optimized for a Real-space Cutoff    1.04 Angstroem

   l    n(q)    QCUT    max X(q) W(low)/X(q) W(high)/X(q)  e(spline)
   0      7    11.635    20.381    0.14E-03    0.49E-03    0.18E-06
   0      7    11.635    15.268    0.16E-03    0.52E-03    0.19E-06
   1      7    11.635     5.964    0.30E-03    0.44E-03    0.22E-06
   1      7    11.635     5.382    0.27E-03    0.34E-03    0.19E-06
  PAW_PBE C 08Apr2002                   :
  PAW_PBE O 08Apr2002                   :
  PAW_PBE Mg_pv 13Apr2007               :
  PAW_PBE O 08Apr2002                   :

 POSCAR:  C  O Mg  O
  positions in direct lattice
 exchange correlation table for  LEXCH =        8
   RHO(1)=    0.500       N(1)  =     2000
   RHO(2)=  100.500       N(2)  =     4000

 ion  position               nearest neighbor table
   1  0.624  0.624  0.726-   2 1.15
   2  0.624  0.624  0.793-   1 1.15
   3  0.124  0.874  0.207-  35 2.11  37 2.11  38 2.11  45 2.11  54 2.11
   4  0.374  0.124  0.207-  36 2.11  37 2.11  38 2.11  46 2.11  53 2.11
   5  0.124  0.124  0.331-  37 2.11  36 2.11  35 2.11  43 2.11  52 2.11  41 2.12
   6  0.374  0.874  0.331-  38 2.11  36 2.11  35 2.11  44 2.11  51 2.11  42 2.12
   7  0.124  0.874  0.456-  49 2.11  42 2.11  58 2.11  41 2.11  35 2.12  39 2.15
   8  0.374  0.124  0.456-  57 2.11  50 2.11  42 2.11  41 2.11  36 2.12  40 2.15
   9  0.124  0.124  0.580-  39 2.11  40 2.11  47 2.11  56 2.11  41 2.11
  10  0.374  0.875  0.579-  42 2.11  40 2.11  39 2.11  48 2.11  55 2.11
  11  0.124  0.374  0.207-  43 2.11  37 2.11  45 2.11  46 2.11  62 2.11
  12  0.374  0.624  0.207-  44 2.11  38 2.11  45 2.11  46 2.11  61 2.11
  13  0.124  0.624  0.331-  45 2.11  43 2.11  44 2.11  35 2.11  60 2.11  49 2.12
  14  0.374  0.374  0.331-  46 2.11  43 2.11  44 2.11  36 2.11  59 2.11  50 2.12
  15  0.124  0.374  0.456-  49 2.11  50 2.11  66 2.11  41 2.11  43 2.12  47 2.15
  16  0.375  0.624  0.456-  65 2.11  50 2.11  42 2.11  49 2.11  44 2.13  48 2.15
  17  0.124  0.624  0.580-  48 2.10  64 2.10  49 2.11  47 2.11  39 2.11
  18  0.374  0.374  0.579-  50 2.11  47 2.11  40 2.11  48 2.11  63 2.11
  19  0.624  0.874  0.207-  51 2.11  38 2.11  53 2.11  54 2.11  61 2.11
  20  0.874  0.124  0.207-  52 2.11  37 2.11  53 2.11  54 2.11  62 2.11
  21  0.624  0.124  0.331-  53 2.11  51 2.11  52 2.11  36 2.11  59 2.11  57 2.12
  22  0.874  0.874  0.331-  54 2.11  51 2.11  52 2.11  35 2.11  60 2.11  58 2.12
  23  0.624  0.874  0.456-  65 2.11  58 2.11  42 2.11  57 2.11  51 2.13  55 2.15
  24  0.874  0.124  0.456-  57 2.11  58 2.11  66 2.11  41 2.11  52 2.12  56 2.15
  25  0.624  0.124  0.580-  55 2.10  63 2.10  57 2.11  40 2.11  56 2.11
  26  0.875  0.875  0.579-  58 2.11  56 2.11  39 2.11  55 2.11  64 2.11
  27  0.624  0.374  0.207-  59 2.11  53 2.11  46 2.11  61 2.11  62 2.11
  28  0.874  0.624  0.207-  60 2.11  54 2.11  45 2.11  61 2.11  62 2.11
  29  0.624  0.624  0.331-  61 2.11  51 2.11  59 2.11  60 2.11  44 2.11  65 2.13
  30  0.874  0.374  0.331-  62 2.11  52 2.11  59 2.11  60 2.11  43 2.11  66 2.12
  31  0.624  0.375  0.456-  65 2.11  50 2.11  66 2.11  57 2.11  59 2.13  63 2.15
  32  0.874  0.624  0.456-  65 2.11  58 2.11  66 2.11  49 2.11  60 2.13  64 2.15
  33  0.624  0.624  0.582-  48 2.12  55 2.12  63 2.12  64 2.12  65 2.14
  34  0.875  0.374  0.579-  66 2.11  56 2.11  47 2.11  64 2.11  63 2.11
  35  0.124  0.874  0.331-   3 2.11   5 2.11   6 2.11  13 2.11  22 2.11   7 2.12
  36  0.374  0.124  0.331-   4 2.11   5 2.11   6 2.11  14 2.11  21 2.11   8 2.12
  37  0.124  0.124  0.207-   5 2.11   4 2.11   3 2.11  11 2.11  20 2.11
  38  0.374  0.874  0.207-   6 2.11   4 2.11   3 2.11  12 2.11  19 2.11
  39  0.124  0.875  0.583-   9 2.11  10 2.11  26 2.11  17 2.11   7 2.15
  40  0.374  0.124  0.583-   9 2.11  10 2.11  18 2.11  25 2.11   8 2.15
  41  0.124  0.124  0.456-   9 2.11   8 2.11   7 2.11  15 2.11  24 2.11   5 2.12
  42  0.374  0.874  0.456-  10 2.11   8 2.11   7 2.11  16 2.11  23 2.11   6 2.12
  43  0.124  0.374  0.331-  11 2.11   5 2.11  13 2.11  14 2.11  30 2.11  15 2.12
  44  0.374  0.624  0.331-  12 2.11   6 2.11  13 2.11  14 2.11  29 2.11  16 2.13
  45  0.124  0.624  0.207-  13 2.11  11 2.11  12 2.11   3 2.11  28 2.11
  46  0.374  0.374  0.207-  14 2.11  11 2.11  12 2.11   4 2.11  27 2.11
  47  0.124  0.374  0.583-   9 2.11  18 2.11  34 2.11  17 2.11  15 2.15
  48  0.373  0.624  0.582-  17 2.10  10 2.11  18 2.11  33 2.12  16 2.15
  49  0.124  0.624  0.456-  17 2.11  15 2.11   7 2.11  16 2.11  32 2.11  13 2.12
  50  0.374  0.374  0.456-  18 2.11  15 2.11   8 2.11  16 2.11  31 2.11  14 2.12
  51  0.624  0.874  0.331-  19 2.11   6 2.11  21 2.11  22 2.11  29 2.11  23 2.13
  52  0.874  0.124  0.331-  20 2.11   5 2.11  21 2.11  22 2.11  30 2.11  24 2.12
  53  0.624  0.124  0.207-  21 2.11  19 2.11  20 2.11   4 2.11  27 2.11
  54  0.874  0.874  0.207-  22 2.11  19 2.11  20 2.11   3 2.11  28 2.11
  55  0.624  0.876  0.582-  25 2.10  10 2.11  26 2.11  33 2.12  23 2.15
  56  0.875  0.124  0.583-   9 2.11  26 2.11  34 2.11  25 2.11  24 2.15
  57  0.624  0.124  0.456-  25 2.11  24 2.11   8 2.11  23 2.11  31 2.11  21 2.12
  58  0.874  0.874  0.456-  26 2.11  24 2.11   7 2.11  23 2.11  32 2.11  22 2.12
  59  0.624  0.374  0.331-  27 2.11  21 2.11  14 2.11  29 2.11  30 2.11  31 2.13
  60  0.874  0.624  0.331-  28 2.11  22 2.11  13 2.11  29 2.11  30 2.11  32 2.13
  61  0.624  0.624  0.207-  29 2.11  19 2.11  27 2.11  28 2.11  12 2.11
  62  0.874  0.374  0.207-  30 2.11  20 2.11  27 2.11  28 2.11  11 2.11
  63  0.624  0.373  0.582-  25 2.10  18 2.11  34 2.11  33 2.12  31 2.15
  64  0.876  0.624  0.582-  17 2.10  26 2.11  34 2.11  33 2.12  32 2.15
  65  0.624  0.624  0.456-  16 2.11  23 2.11  31 2.11  32 2.11  29 2.13  33 2.14
  66  0.874  0.374  0.456-  34 2.11  24 2.11  15 2.11  32 2.11  31 2.11  30 2.12

IMPORTANT INFORMATION: All symmetrisations will be switched off!
NOSYMM: (Re-)initialisation of all symmetry stuff for point group C_1.

                                     Primitive cell

  volume of cell :    1211.2538

  direct lattice vectors                    reciprocal lattice vectors
     8.440984654  0.000000000  0.000000000     0.118469591  0.000000000  0.000000000
     0.000000000  8.440984654  0.000000000     0.000000000  0.118469591  0.000000000
     0.000000000  0.000000000 17.000000000     0.000000000  0.000000000  0.058823529

  length of vectors
     8.440984654  8.440984654 17.000000000     0.118469591  0.118469591  0.058823529

  position of ions in fractional coordinates (direct lattice)
     0.624411355  0.624411355  0.725657141
     0.624411355  0.624411355  0.793117130
     0.124411355  0.874411355  0.206882870
     0.374411355  0.124411355  0.206882870
     0.124411355  0.124411355  0.331014998
     0.374411355  0.874411355  0.331014998
     0.124411355  0.874350623  0.455922972
     0.374472087  0.124411355  0.455922972
     0.124411355  0.124411355  0.579719137
     0.374269682  0.874553028  0.579498600
     0.124411355  0.374411355  0.206882870
     0.374411355  0.624411355  0.206882870
     0.124411355  0.624411355  0.331014998
     0.374411355  0.374411355  0.331014998
     0.124411355  0.374472087  0.455922972
     0.374789734  0.624411355  0.456093975
     0.124411355  0.624411355  0.579555984
     0.374269682  0.374269682  0.579498600
     0.624411355  0.874411355  0.206882870
     0.874411355  0.124411355  0.206882870
     0.624411355  0.124411355  0.331014998
     0.874411355  0.874411355  0.331014998
     0.624411355  0.874032976  0.456093975
     0.874350623  0.124411355  0.455922972
     0.624411355  0.124411355  0.579555984
     0.874553028  0.874553028  0.579498600
     0.624411355  0.374411355  0.206882870
     0.874411355  0.624411355  0.206882870
     0.624411355  0.624411355  0.331014998
     0.874411355  0.374411355  0.331014998
     0.624411355  0.374789734  0.456093975
     0.874032976  0.624411355  0.456093975
     0.624411355  0.624411355  0.582067590
     0.874553028  0.374269682  0.579498600
     0.124411355  0.874411355  0.331014998
     0.374411355  0.124411355  0.331014998
     0.124411355  0.124411355  0.206882870
     0.374411355  0.874411355  0.206882870
     0.124411355  0.874629888  0.582522179
     0.374192822  0.124411355  0.582522179
     0.124411355  0.124411355  0.455579988
     0.374357125  0.874465584  0.455641750
     0.124411355  0.374411355  0.331014998
     0.374411355  0.624411355  0.331014998
     0.124411355  0.624411355  0.206882870
     0.374411355  0.374411355  0.206882870
     0.124411355  0.374192822  0.582522179
     0.373234064  0.624411355  0.582401242
     0.124411355  0.624411355  0.455520732
     0.374357125  0.374357125  0.455641750
     0.624411355  0.874411355  0.331014998
     0.874411355  0.124411355  0.331014998
[...]
   O         237.769          5.029         21.082          3.90403952
   O         237.610          5.028         21.075          3.90273532
   O         197.358          4.875         19.207          3.55683757
   O         197.303          4.875         19.204          3.55634201
   O         207.592          4.916         19.699          3.64788716
   O         192.676          4.856         18.978          3.51439341
   O         241.556          5.042         21.249          3.93500397
   O         242.231          5.044         21.279          3.94049839
   O         237.765          5.029         21.082          3.90400232
   O         237.769          5.029         21.082          3.90403968
   O         197.396          4.875         19.209          3.55718140
   O         197.365          4.875         19.207          3.55690170
   O         206.931          4.914         19.667          3.64207344
   O         207.592          4.916         19.699          3.64788705
   O         240.950          5.040         21.222          3.93006453
   O         242.292          5.045         21.281          3.94099770

  vdW correction parametrized for the method ð²>    þ

  IVDW =  21
  VDW_RADIUS =    50.000 A
  VDW_IDAMPF =  0
  VDW_S6 =     1.000
  VDW_SR =     0.960
  VDW_D =    20.000
  LVDW_ONECELL = F F F
  LVDW_SAMETYPE T T T T
  LVDW_EWALD = F

  Number of pair interactions contributing to vdW energy:  949078
  Edisp (eV):   -3.99122

 VOLUME and BASIS-vectors are now :
  energy-cutoff  :      520.00
  volume of cell :     1211.25
      direct lattice vectors                 reciprocal lattice vectors
     8.440984654  0.000000000  0.000000000     0.118469591  0.000000000  0.000000000
     0.000000000  8.440984654  0.000000000     0.000000000  0.118469591  0.000000000
     0.000000000  0.000000000 17.000000000     0.000000000  0.000000000  0.058823529

  length of vectors
     8.440984654  8.440984654 17.000000000     0.118469591  0.118469591  0.058823529

 FORCES acting on ions
    electron-ion (+dipol)            ewald-force                    non-local-force                 convergence-correction
   0.808E-05 0.786E-05 -.531E+03   0.244E-14 -.355E-14 0.505E+03   -.308E-03 -.308E-03 0.259E+02   -.180E-06 -.319E-06 0.824E-01
   -.647E-04 -.647E-04 -.892E+03   0.511E-14 0.333E-14 0.952E+03   0.191E-03 0.191E-03 -.533E+02   -.121E-05 -.142E-05 0.107E+00
   0.309E-03 -.807E+00 0.171E+04   0.182E-13 0.806E+00 -.170E+04   -.144E-02 -.719E-03 -.675E+01   0.654E-06 0.122E-03 -.151E+00
   0.807E+00 0.305E-03 0.171E+04   -.806E+00 0.488E-14 -.170E+04   -.214E-02 -.144E-02 -.675E+01   -.121E-03 0.567E-05 -.151E+00
   0.275E-03 0.273E-03 0.580E+03   -.995E-13 -.213E-13 -.580E+03   -.225E-02 -.225E-02 0.450E+00   -.243E-06 0.249E-06 -.963E-01
   0.639E+00 -.639E+00 0.581E+03   -.634E+00 0.634E+00 -.581E+03   -.522E-02 0.732E-03 0.473E+00   0.217E-03 -.215E-03 -.956E-01
   0.260E-03 -.288E+01 -.540E+03   -.183E-12 0.286E+01 0.540E+03   -.246E-02 0.161E-01 -.134E+00   0.502E-05 -.861E-03 -.547E-02
   0.288E+01 0.264E-03 -.540E+03   -.286E+01 -.995E-13 0.540E+03   -.208E-01 -.221E-02 -.134E+00   0.859E-03 -.548E-06 -.547E-02
   0.269E-03 0.270E-03 -.167E+04   0.249E-13 0.178E-13 0.166E+04   -.167E-03 -.168E-03 0.570E+01   -.390E-06 0.497E-06 0.852E-01
   0.181E+02 -.181E+02 -.165E+04   -.182E+02 0.182E+02 0.164E+04   0.727E-01 -.754E-01 0.579E+01   0.215E-02 -.215E-02 0.846E-01
   0.305E-03 0.807E+00 0.171E+04   0.586E-13 -.806E+00 -.170E+04   -.143E-02 -.214E-02 -.675E+01   0.241E-06 -.123E-03 -.151E+00
   0.105E+01 0.309E-03 0.171E+04   -.105E+01 0.577E-14 -.170E+04   -.481E-02 -.141E-02 -.676E+01   -.211E-03 -.177E-05 -.150E+00
   0.271E-03 0.275E-03 0.581E+03   0.107E-13 -.462E-13 -.581E+03   -.225E-02 -.225E-02 0.413E+00   0.723E-06 0.597E-06 -.956E-01
   0.639E+00 0.639E+00 0.581E+03   -.634E+00 -.634E+00 -.581E+03   -.522E-02 -.522E-02 0.473E+00   0.221E-03 0.216E-03 -.956E-01
   0.270E-03 0.288E+01 -.540E+03   -.114E-12 -.286E+01 0.540E+03   -.221E-02 -.207E-01 -.134E+00   -.577E-05 0.862E-03 -.547E-02
   0.417E+01 0.283E-03 -.533E+03   -.409E+01 -.515E-13 0.533E+03   -.745E-01 -.195E-02 -.250E+00   0.747E-03 -.962E-07 -.342E-02
   0.236E-03 0.297E-03 -.165E+04   -.167E-12 -.497E-13 0.165E+04   -.757E-03 -.697E-03 0.571E+01   -.176E-06 -.181E-05 0.843E-01
   0.181E+02 0.181E+02 -.165E+04   -.182E+02 -.182E+02 0.164E+04   0.729E-01 0.729E-01 0.578E+01   0.216E-02 0.215E-02 0.846E-01
   0.310E-03 -.105E+01 0.171E+04   0.200E-13 0.105E+01 -.170E+04   -.142E-02 0.194E-02 -.676E+01   0.454E-05 0.211E-03 -.150E+00
   -.807E+00 0.308E-03 0.171E+04   0.806E+00 0.888E-15 -.170E+04   -.722E-03 -.143E-02 -.675E+01   0.119E-03 -.102E-05 -.151E+00
   0.275E-03 0.270E-03 0.581E+03   0.142E-13 0.107E-13 -.581E+03   -.225E-02 -.225E-02 0.413E+00   0.170E-05 0.203E-05 -.956E-01
   -.639E+00 -.639E+00 0.581E+03   0.634E+00 0.634E+00 -.581E+03   0.733E-03 0.734E-03 0.473E+00   -.220E-03 -.216E-03 -.956E-01
   0.273E-03 -.416E+01 -.533E+03   -.147E-12 0.409E+01 0.533E+03   -.223E-02 0.710E-01 -.250E+00   0.606E-06 -.746E-03 -.341E-02
   -.288E+01 0.264E-03 -.540E+03   0.286E+01 -.853E-13 0.540E+03   0.161E-01 -.246E-02 -.134E+00   -.859E-03 0.122E-05 -.546E-02
   0.295E-03 0.235E-03 -.165E+04   -.853E-13 0.711E-14 0.165E+04   -.696E-03 -.755E-03 0.571E+01   0.213E-06 -.691E-06 0.843E-01
   -.181E+02 -.181E+02 -.165E+04   0.182E+02 0.182E+02 0.164E+04   -.748E-01 -.748E-01 0.579E+01   -.216E-02 -.215E-02 0.846E-01
   0.308E-03 0.105E+01 0.171E+04   0.107E-13 -.105E+01 -.170E+04   -.141E-02 -.481E-02 -.676E+01   -.238E-05 -.211E-03 -.150E+00
   -.105E+01 0.309E-03 0.171E+04   0.105E+01 0.187E-13 -.170E+04   0.193E-02 -.142E-02 -.676E+01   0.211E-03 -.570E-06 -.150E+00
   0.278E-03 0.278E-03 0.580E+03   -.320E-13 0.355E-13 -.581E+03   -.224E-02 -.224E-02 0.544E+00   0.974E-06 -.822E-06 -.950E-01
   -.639E+00 0.639E+00 0.581E+03   0.634E+00 -.634E+00 -.581E+03   0.729E-03 -.523E-02 0.473E+00   -.219E-03 0.214E-03 -.956E-01
   0.288E-03 0.417E+01 -.533E+03   -.171E-12 -.409E+01 0.533E+03   -.196E-02 -.745E-01 -.250E+00   -.474E-05 0.748E-03 -.341E-02
   -.416E+01 0.277E-03 -.533E+03   0.409E+01 0.000E+00 0.533E+03   0.710E-01 -.224E-02 -.250E+00   -.744E-03 -.189E-05 -.342E-02
   0.358E-03 0.357E-03 -.157E+04   -.110E-12 -.639E-13 0.157E+04   -.115E-02 -.115E-02 0.386E+01   -.104E-05 0.113E-05 0.946E-01
   -.181E+02 0.181E+02 -.165E+04   0.182E+02 -.182E+02 0.164E+04   -.754E-01 0.727E-01 0.579E+01   -.215E-02 0.215E-02 0.846E-01
   0.277E-04 -.521E+00 0.435E+03   -.790E-13 0.514E+00 -.435E+03   -.161E-02 0.618E-02 -.919E-01   -.680E-06 -.197E-03 -.750E-01
   0.521E+00 0.183E-04 0.435E+03   -.514E+00 -.115E-13 -.435E+03   -.938E-02 -.160E-02 -.919E-01   0.198E-03 0.358E-05 -.750E-01
   0.363E-05 0.423E-05 0.129E+04   -.488E-13 -.271E-13 -.129E+04   -.867E-03 -.865E-03 0.306E+01   0.150E-05 0.607E-08 -.116E+00
   0.695E+00 -.695E+00 0.128E+04   -.693E+00 0.693E+00 -.129E+04   -.335E-02 0.163E-02 0.306E+01   -.113E-03 0.114E-03 -.115E+00
   -.247E-04 -.734E+01 -.126E+04   0.142E-13 0.727E+01 0.127E+04   0.775E-02 0.630E-01 -.448E+01   -.196E-05 -.941E-03 0.639E-01
   0.734E+01 -.219E-05 -.126E+04   -.727E+01 -.115E-13 0.127E+04   -.495E-01 0.580E-02 -.448E+01   0.944E-03 -.154E-05 0.639E-01
   0.414E-04 0.448E-04 -.402E+03   -.782E-13 -.426E-13 0.402E+03   -.118E-03 -.119E-03 0.255E+00   0.879E-06 0.555E-06 -.935E-02
   0.260E+01 -.260E+01 -.397E+03   -.258E+01 0.258E+01 0.397E+03   -.110E-01 0.725E-02 0.316E+00   0.703E-03 -.696E-03 -.862E-02
   0.217E-04 0.521E+00 0.435E+03   -.497E-13 -.514E+00 -.435E+03   -.160E-02 -.938E-02 -.919E-01   0.463E-06 0.197E-03 -.750E-01
   0.513E+00 0.321E-04 0.435E+03   -.541E+00 0.373E-13 -.435E+03   0.298E-01 -.161E-02 -.111E+00   0.148E-03 -.185E-05 -.746E-01
   0.656E-05 0.684E-05 0.128E+04   -.147E-13 -.262E-13 -.129E+04   -.862E-03 -.859E-03 0.306E+01   0.723E-06 0.122E-05 -.115E+00
   0.695E+00 0.695E+00 0.128E+04   -.693E+00 -.693E+00 -.129E+04   -.334E-02 -.335E-02 0.306E+01   -.116E-03 -.118E-03 -.115E+00
   0.364E-05 0.734E+01 -.126E+04   -.355E-13 -.727E+01 0.127E+04   0.580E-02 -.495E-01 -.448E+01   0.151E-06 0.943E-03 0.639E-01
   0.236E+02 0.321E-04 -.123E+04   -.233E+02 0.488E-13 0.124E+04   -.274E+00 0.741E-02 -.443E+01   0.267E-02 -.199E-06 0.645E-01
   0.338E-04 0.436E-04 -.397E+03   0.426E-13 0.711E-14 0.397E+03   -.345E-04 -.325E-04 0.269E+00   -.200E-05 -.120E-05 -.856E-02
   0.260E+01 0.260E+01 -.397E+03   -.258E+01 -.258E+01 0.397E+03   -.100E-01 -.100E-01 0.317E+00   0.707E-03 0.698E-03 -.862E-02
   0.206E-04 -.513E+00 0.435E+03   -.444E-13 0.541E+00 -.435E+03   -.160E-02 -.330E-01 -.111E+00   0.359E-05 -.150E-03 -.746E-01
   -.521E+00 0.248E-04 0.435E+03   0.514E+00 0.142E-13 -.435E+03   0.617E-02 -.160E-02 -.919E-01   -.198E-03 -.496E-06 -.750E-01
   0.934E-05 0.489E-05 0.128E+04   -.386E-13 0.444E-15 -.129E+04   -.857E-03 -.861E-03 0.306E+01   -.187E-06 0.105E-05 -.115E+00
   -.695E+00 -.695E+00 0.128E+04   0.693E+00 0.693E+00 -.129E+04   0.163E-02 0.163E-02 0.306E+01   0.115E-03 0.116E-03 -.115E+00
   0.164E-05 -.236E+02 -.123E+04   0.444E-13 0.233E+02 0.124E+04   0.506E-02 0.277E+00 -.443E+01   -.206E-05 -.267E-02 0.645E-01
   -.734E+01 -.255E-04 -.126E+04   0.727E+01 0.426E-13 0.127E+04   0.630E-01 0.775E-02 -.448E+01   -.944E-03 0.434E-05 0.639E-01
   0.505E-04 0.335E-04 -.397E+03   -.426E-13 -.711E-14 0.397E+03   -.349E-04 -.359E-04 0.269E+00   -.233E-05 -.133E-06 -.858E-02
   -.260E+01 -.260E+01 -.397E+03   0.258E+01 0.258E+01 0.397E+03   0.626E-02 0.626E-02 0.315E+00   -.707E-03 -.699E-03 -.861E-02
   0.309E-04 0.513E+00 0.435E+03   0.213E-13 -.541E+00 -.435E+03   -.161E-02 0.298E-01 -.111E+00   -.194E-05 0.149E-03 -.746E-01
   -.513E+00 0.237E-04 0.435E+03   0.541E+00 0.426E-13 -.435E+03   -.330E-01 -.160E-02 -.111E+00   -.149E-03 0.113E-05 -.746E-01
   0.535E-05 0.731E-05 0.128E+04   0.133E-13 0.520E-13 -.129E+04   -.841E-03 -.841E-03 0.306E+01   0.733E-06 -.635E-06 -.115E+00
   -.695E+00 0.695E+00 0.128E+04   0.693E+00 -.693E+00 -.129E+04   0.164E-02 -.335E-02 0.306E+01   0.113E-03 -.114E-03 -.115E+00
   0.307E-04 0.236E+02 -.123E+04   -.284E-13 -.233E+02 0.124E+04   0.740E-02 -.274E+00 -.443E+01   0.293E-05 0.267E-02 0.645E-01
   -.236E+02 0.384E-05 -.123E+04   0.233E+02 0.426E-13 0.124E+04   0.277E+00 0.506E-02 -.443E+01   -.267E-02 -.434E-05 0.645E-01
   0.260E-04 0.261E-04 -.396E+03   0.711E-14 0.284E-13 0.396E+03   -.170E-02 -.170E-02 -.164E+00   0.991E-06 -.645E-06 -.711E-02
   -.260E+01 0.260E+01 -.397E+03   0.258E+01 -.258E+01 0.397E+03   0.726E-02 -.110E-01 0.316E+00   -.700E-03 0.698E-03 -.862E-02
   0.970E-02 0.968E-02 0.584E+02   0.330E-12 -.924E-13 0.227E-12   -.405E-01 -.405E-01 -.453E+02   0.385E-06 0.368E-05 -.221E+01

 POSITION                                       TOTAL-FORCE (eV/Angst)
      5.27065      5.27065     12.33617         0.000503      0.000503      2.066298
      5.27065      5.27065     13.48299         0.000898      0.000898     -2.045939
      1.05015      7.38089      3.51701        -0.000856     -0.001216      0.555001
      3.16040      1.05015      3.51701        -0.000490     -0.000858      0.555014
      1.05015      1.05015      5.62725        -0.001743     -0.001742      0.026089
      3.16040      7.38089      5.62725         0.000080     -0.003552      0.028042
      1.05015      7.38038      7.75069        -0.001654     -0.002811      0.031507
      3.16091      1.05015      7.75069        -0.000346     -0.001478      0.031392
      1.05015      1.05015      9.85523        -0.000733     -0.000733     -0.173710
      3.15920      7.38209      9.85148        -0.009179      0.007865     -0.188792
      1.05015      3.16040      3.51701        -0.000857     -0.000491      0.555013
      3.16040      5.27065      3.51701         0.000434     -0.000833      0.553641
      1.05015      5.27065      5.62725        -0.001744     -0.001736      0.036541
      3.16040      3.16040      5.62725         0.000085      0.000085      0.028037
      1.05015      3.16091      7.75069        -0.001481     -0.000342      0.031398
      3.16359      5.27065      7.75360        -0.006703     -0.001523      0.040467
      1.05015      5.27065      9.85245        -0.000696     -0.000586     -0.181568
      3.15920      3.15920      9.85148        -0.009386     -0.009386     -0.188561
      5.27065      7.38089      3.51701        -0.000836     -0.002143      0.553632
      7.38089      1.05015      3.51701        -0.001217     -0.000856      0.555000
      5.27065      1.05015      5.62725        -0.001736     -0.001743      0.036542
      7.38089      7.38089      5.62725        -0.003553     -0.003553      0.028038
      5.27065      7.37770      7.75360        -0.001858      0.003399      0.040738
      7.38038      1.05015      7.75069        -0.002804     -0.001656      0.031506
      5.27065      1.05015      9.85245        -0.000586     -0.000696     -0.181568
      7.38209      7.38209      9.85148         0.008068      0.008070     -0.188705
      5.27065      3.16040      3.51701        -0.000834      0.000435      0.553644
      7.38089      5.27065      3.51701        -0.002142     -0.000835      0.553629
      5.27065      5.27065      5.62725        -0.001727     -0.001727      0.040729
      7.38089      3.16040      5.62725        -0.003553      0.000079      0.028041
      5.27065      3.16359      7.75360        -0.001526     -0.006700      0.040478
      7.37770      5.27065      7.75360         0.003402     -0.001861      0.040724
      5.27065      5.27065      9.89515        -0.000337     -0.000336     -0.120797
      7.38209      3.15920      9.85148         0.007865     -0.009179     -0.188793
      1.05015      7.38089      5.62725        -0.000403      0.002630      0.056423
      3.16040      1.05015      5.62725        -0.003453     -0.000407      0.056433
      1.05015      1.05015      3.51701         0.000049      0.000049     -0.431640
      3.16040      7.38089      3.51701        -0.000676      0.000792     -0.430561
      1.05015      7.38274      9.90288         0.007033      0.007208     -0.108404
      3.15856      1.05015      9.90288         0.005230      0.005419     -0.109641
      1.05015      1.05015      7.74486         0.000838      0.000840      0.034962
      3.15994      7.38135      7.74591         0.001502     -0.002749      0.031862
      1.05015      3.16040      5.62725        -0.000405     -0.003454      0.056427
      3.16040      5.27065      5.62725         0.009153     -0.000419      0.064695
      1.05015      5.27065      3.51701         0.000055      0.000063     -0.431134
      3.16040      3.16040      3.51701        -0.000674     -0.000672     -0.430556
      1.05015      3.15856      9.90288         0.005420      0.005228     -0.109629
      3.15046      5.27065      9.90082        -0.008492      0.006843     -0.105999
      1.05015      5.27065      7.74385         0.000893      0.000888      0.030627
      3.15994      3.15994      7.74591         0.002328      0.002335      0.032769
      5.27065      7.38089      5.62725        -0.000421     -0.009977      0.064688
      7.38089      1.05015      5.62725         0.002628     -0.000403      0.056423
      5.27065      1.05015      3.51701         0.000065      0.000055     -0.431128
      7.38089      7.38089      3.51701         0.000789      0.000790     -0.430552
      5.27065      7.39083      9.90082         0.004846      0.012364     -0.104383
      7.38274      1.05015      9.90288         0.007207      0.007032     -0.108407
      5.27065      1.05015      7.74385         0.000890      0.000893      0.030634
      7.38135      7.38135      7.74591        -0.003587     -0.003594      0.030919
      5.27065      3.16040      5.62725        -0.000419      0.009149      0.064692
      7.38089      5.27065      5.62725        -0.009982     -0.000421      0.064691
      5.27065      5.27065      3.51701         0.000078      0.000078     -0.429836
      7.38089      3.16040      3.51701         0.000793     -0.000677     -0.430562
      5.27065      3.15046      9.90082         0.006843     -0.008494     -0.106008
      7.39083      5.27065      9.90082         0.012363      0.004849     -0.104370
      5.27065      5.27065      7.75385        -0.000504     -0.000504      0.011994
      7.38135      3.15994      7.74591        -0.002745      0.001503      0.031860
    total drift:                               -0.052828     -0.052836      0.486203

  FREE ENERGIE OF THE ION-ELECTRON SYSTEM (eV)
  free  energy   TOTEN  =      -486.88850904 eV

  energy  without entropy=     -486.88850904  energy(sigma->0) =     -486.88850904