 vasp.6.3.0 20Jan22 (build Apr  1 2022 16:44:48) complex
 executed on        HPECrayEX_GCC date 2022.11.13  07:42:07

 INCAR:
   SYSTEM = MgO-rocksalt
   ISMEAR = 0
   SIGMA = 0.05
   EDIFF = 1E-6
   ALGO = ALL
   ISTART = 0
   IBRION = -1
   NSW = 0
   ISYM = 0
   DIPOL = 0.5 0.5 0.5
   IDIPOL = 3
   LDIPOL = .TRUE.
   LHFCALC = .TRUE.
   GGA = B5
   AEXX = 0.2
   AGGAX = 0.72
   AGGAC = 0.81
   ALDAC = 0.19
   IVDW = 1
   VDW_S6 = 1.05
   VDW_C6 = 1.75 0.70 0.14 0.63 0.70
   VDW_R0 = 1.452 1.342 1.001 1.243 1.342
   ENCUT = 600
   PREC = Accurate
   LASPH = .TRUE.
   LREAL = .FALSE.
   ISPIN = 1
   NELM = 200
   NELMIN = 8
   NCORE = 8
   KPAR = 1
   LWAVE = .FALSE.
   LCHARG = .FALSE.

 POTCAR:    PAW_PBE C 08Apr2002
 POTCAR:    PAW_PBE O 08Apr2002
 POTCAR:    PAW_PBE H 15Jun2001
 POTCAR:    PAW_PBE Mg_pv 13Apr2007
 POTCAR:    PAW_PBE O 08Apr2002
 POTCAR:    PAW_PBE C 08Apr2002
   VRHFIN =C: s2p2

   TITEL  = PAW_PBE C 08Apr2002
   POMASS =   12.011; ZVAL   =    4.000    mass and valenz
   ENMAX  =  400.000; ENMIN  =  300.000 eV

[...]

   TITEL  = PAW_PBE H 15Jun2001
   POMASS =    1.000; ZVAL   =    1.000    mass and valenz
   ENMAX  =  250.000; ENMIN  =  200.000 eV

   TITEL  = PAW_PBE Mg_pv 13Apr2007
   POMASS =   24.305; ZVAL   =    8.000    mass and valenz
   ENMAX  =  403.929; ENMIN  =  302.947 eV

   TITEL  = PAW_PBE O 08Apr2002
   POMASS =   16.000; ZVAL   =    6.000    mass and valenz
   ENMAX  =  400.000; ENMIN  =  300.000 eV

  PAW_PBE C 08Apr2002                   :
  PAW_PBE O 08Apr2002                   :
  PAW_PBE H 15Jun2001                   :
  PAW_PBE Mg_pv 13Apr2007               :
  PAW_PBE O 08Apr2002                   :

 POSCAR:  C  O  H Mg  O
  positions in direct lattice
 exchange correlation table for  LEXCH =       12
   RHO(1)=    0.500       N(1)  =     2000
   RHO(2)=  100.500       N(2)  =     4000

 ion  position               nearest neighbor table
   1  0.500  0.443  0.790-   3 1.10   5 1.11   6 1.11   2 1.43
   2  0.500  0.277  0.778-   4 1.00   1 1.43
   3  0.500  0.462  0.841-   1 1.10
   4  0.500  0.262  0.732-   2 1.00
   5  0.607  0.502  0.771-   1 1.11
   6  0.393  0.502  0.771-   1 1.11
   7  0.250  0.000  0.351-  39 2.12  41 2.12  42 2.12  49 2.12  58 2.12
   8  0.500  0.250  0.351-  40 2.12  41 2.12  42 2.12  50 2.12  57 2.12
   9  0.250  0.250  0.450-  41 2.12  40 2.12  39 2.12  47 2.12  56 2.12  45 2.13
  10  0.500  0.000  0.450-  42 2.12  40 2.12  39 2.12  48 2.12  55 2.12  46 2.12
  11  0.250  0.000  0.550-  62 2.12  45 2.12  46 2.12  53 2.12  39 2.13  43 2.14
  12  0.500  0.250  0.550-  45 2.11  61 2.11  54 2.11  46 2.11  40 2.13  44 2.17
  13  0.248  0.250  0.649-  60 2.10  45 2.11  43 2.11  51 2.12  44 2.14
  14  0.500  0.998  0.649-  52 2.09  46 2.11  59 2.12  43 2.12  44 2.14
  15  0.250  0.500  0.351-  47 2.12  41 2.12  49 2.12  50 2.12  66 2.12
  16  0.500  0.750  0.351-  48 2.12  42 2.12  49 2.12  50 2.12  65 2.12
  17  0.250  0.750  0.450-  49 2.12  47 2.12  48 2.12  39 2.12  64 2.12  53 2.12
  18  0.500  0.500  0.450-  50 2.12  47 2.12  48 2.12  40 2.12  63 2.12  54 2.13
  19  0.250  0.500  0.550-  45 2.12  70 2.12  53 2.12  54 2.12  47 2.13  51 2.14
  20  0.500  0.750  0.550-  53 2.12  69 2.12  46 2.12  54 2.12  48 2.13  52 2.14
  21  0.249  0.750  0.649-  53 2.11  68 2.11  43 2.11  51 2.12  52 2.12
  22  0.500  0.503  0.649-  52 2.09  54 2.11  67 2.12  51 2.12  44 2.15
  23  0.750  0.000  0.351-  55 2.12  42 2.12  57 2.12  58 2.12  65 2.12
  24  0.000  0.250  0.351-  56 2.12  41 2.12  57 2.12  58 2.12  66 2.12
  25  0.750  0.250  0.450-  57 2.12  55 2.12  56 2.12  40 2.12  63 2.12  61 2.13
  26  0.000  0.000  0.450-  58 2.12  55 2.12  56 2.12  39 2.12  64 2.12  62 2.12
  27  0.750  0.000  0.550-  62 2.12  61 2.12  46 2.12  69 2.12  55 2.13  59 2.14
  28  0.000  0.250  0.550-  62 2.12  70 2.12  45 2.12  61 2.12  56 2.13  60 2.14
  29  0.752  0.250  0.649-  60 2.10  61 2.11  59 2.11  67 2.12  44 2.14
  30  0.000  1.000  0.649-  62 2.11  68 2.11  59 2.12  43 2.12  60 2.12
  31  0.750  0.500  0.351-  63 2.12  57 2.12  50 2.12  65 2.12  66 2.12
  32  0.000  0.750  0.351-  64 2.12  58 2.12  49 2.12  65 2.12  66 2.12
  33  0.750  0.750  0.450-  65 2.12  55 2.12  63 2.12  64 2.12  48 2.12  69 2.12
  34  0.000  0.500  0.450-  66 2.12  56 2.12  63 2.12  64 2.12  47 2.12  70 2.12
  35  0.750  0.500  0.550-  61 2.12  70 2.12  69 2.12  54 2.12  63 2.13  67 2.14
  36  0.000  0.750  0.550-  62 2.12  53 2.12  69 2.12  70 2.12  64 2.13  68 2.14
  37  0.751  0.750  0.649-  69 2.11  68 2.11  59 2.11  67 2.12  52 2.12
  38  1.000  0.500  0.649-  70 2.11  68 2.11  67 2.12  51 2.12  60 2.12
  39  0.250  0.000  0.450-   7 2.12   9 2.12  10 2.12  17 2.12  26 2.12  11 2.13
  40  0.500  0.250  0.450-   8 2.12   9 2.12  10 2.12  18 2.12  25 2.12  12 2.13
  41  0.250  0.250  0.351-   9 2.12   8 2.12   7 2.12  15 2.12  24 2.12
  42  0.500  0.000  0.351-  10 2.12   8 2.12   7 2.12  16 2.12  23 2.12
  43  0.250  0.000  0.650-  13 2.11  21 2.11  14 2.12  30 2.12  11 2.14
  44  0.500  0.250  0.652-  14 2.14  29 2.14  13 2.14  22 2.15  12 2.17
  45  0.250  0.250  0.550-  13 2.11  12 2.11  19 2.12  11 2.12  28 2.12   9 2.13
  46  0.500  0.001  0.550-  14 2.11  12 2.11  11 2.12  27 2.12  20 2.12  10 2.12
  47  0.250  0.500  0.450-  15 2.12   9 2.12  17 2.12  18 2.12  34 2.12  19 2.13
  48  0.500  0.750  0.450-  16 2.12  10 2.12  17 2.12  18 2.12  33 2.12  20 2.13
  49  0.250  0.750  0.351-  17 2.12  15 2.12  16 2.12   7 2.12  32 2.12
  50  0.500  0.500  0.351-  18 2.12  15 2.12  16 2.12   8 2.12  31 2.12
  51  0.250  0.500  0.651-  38 2.12  22 2.12  13 2.12  21 2.12  19 2.14
  52  0.500  0.750  0.650-  22 2.09  14 2.09  21 2.12  37 2.12  20 2.14
  53  0.250  0.750  0.550-  21 2.11  20 2.12  19 2.12  36 2.12  11 2.12  17 2.12
  54  0.500  0.500  0.550-  22 2.11  12 2.11  19 2.12  35 2.12  20 2.12  18 2.13
  55  0.750  0.000  0.450-  23 2.12  10 2.12  25 2.12  26 2.12  33 2.12  27 2.13
  56  0.000  0.250  0.450-  24 2.12   9 2.12  25 2.12  26 2.12  34 2.12  28 2.13
  57  0.750  0.250  0.351-  25 2.12  23 2.12  24 2.12   8 2.12  31 2.12
  58  0.000  0.000  0.351-  26 2.12  23 2.12  24 2.12   7 2.12  32 2.12
  59  0.750  0.000  0.650-  29 2.11  37 2.11  14 2.12  30 2.12  27 2.14
  60  0.000  0.250  0.650-  13 2.10  29 2.10  30 2.12  38 2.12  28 2.14
  61  0.750  0.250  0.550-  29 2.11  12 2.11  35 2.12  27 2.12  28 2.12  25 2.13
  62  0.000  0.000  0.550-  30 2.11  28 2.12  11 2.12  27 2.12  36 2.12  26 2.12
  63  0.750  0.500  0.450-  31 2.12  25 2.12  18 2.12  33 2.12  34 2.12  35 2.13
  64  0.000  0.750  0.450-  32 2.12  26 2.12  17 2.12  33 2.12  34 2.12  36 2.13
  65  0.750  0.750  0.351-  33 2.12  23 2.12  31 2.12  32 2.12  16 2.12
  66  0.000  0.500  0.351-  34 2.12  24 2.12  31 2.12  32 2.12  15 2.12
  67  0.750  0.500  0.651-  38 2.12  22 2.12  29 2.12  37 2.12  35 2.14
  68  0.000  0.750  0.651-  21 2.11  37 2.11  30 2.11  38 2.11  36 2.14
  69  0.750  0.750  0.550-  37 2.11  20 2.12  35 2.12  36 2.12  27 2.12  33 2.12
  70  0.000  0.500  0.550-  38 2.11  28 2.12  19 2.12  35 2.12  36 2.12  34 2.12

IMPORTANT INFORMATION: All symmetrisations will be switched off!
NOSYMM: (Re-)initialisation of all symmetry stuff for point group C_1.

                                     Primitive cell

  volume of cell :    1530.6606

  direct lattice vectors                    reciprocal lattice vectors
     8.467142631  0.000000000  0.000000000     0.118103597  0.000000000  0.000000000
     0.000000000  8.467142631  0.000000000     0.000000000  0.118103597  0.000000000
     0.000000000  0.000000000 21.350356973     0.000000000  0.000000000  0.046837624

  length of vectors
     8.467142631  8.467142631 21.350356973     0.118103597  0.118103597  0.046837624

  position of ions in fractional coordinates (direct lattice)
     0.500008528  0.442811238  0.789963205
     0.499998388  0.277053578  0.778392399
     0.499999119  0.461514427  0.840893130
     0.499999705  0.262460587  0.731855014
     0.606594014  0.501547589  0.770644098
     0.393396995  0.501551373  0.770642808
     0.250000000  0.000000000  0.351282183
     0.500000000  0.250000000  0.351282183
     0.250000000  0.250000000  0.450427394
     0.500000000  0.000000000  0.450427394
     0.249964764  0.000103943  0.550210473
     0.500000013  0.250138470  0.550111617
     0.247597848  0.249703690  0.648900299
     0.500000032  0.997643372  0.648608803
     0.250000000  0.500000000  0.351282183
     0.500000000  0.750000000  0.351282183
     0.250000000  0.750000000  0.450427394
     0.500000000  0.500000000  0.450427394
     0.249934161  0.499954919  0.550269800
     0.500000022  0.750149179  0.550016067
     0.249426732  0.750347777  0.648525466
     0.500000179  0.503438886  0.648721349
     0.750000000  0.000000000  0.351282183
     0.000000000  0.250000000  0.351282183
     0.750000000  0.250000000  0.450427394
     0.000000000  0.000000000  0.450427394
     0.750035290  0.000103918  0.550210466
     0.000000051  0.249990522  0.550104389
     0.752402216  0.249703736  0.648900218
     0.000000027  0.999614871  0.648653615
     0.750000000  0.500000000  0.351282183
     0.000000000  0.750000000  0.351282183
     0.750000000  0.750000000  0.450427394
     0.000000000  0.500000000  0.450427394
     0.750065903  0.499954940  0.550269797
     0.000000027  0.750034659  0.550079269
     0.750573312  0.750347718  0.648525471
     0.999999980  0.500399716  0.648586306
     0.250000000  0.000000000  0.450427394
     0.500000000  0.250000000  0.450427394
     0.250000000  0.250000000  0.351282183
     0.500000000  0.000000000  0.351282183
     0.250114915  0.000086456  0.650344163
     0.500000050  0.249944945  0.651875569
     0.250460693  0.250082886  0.550010585
     0.500000019  0.000559136  0.549917948
     0.250000000  0.500000000  0.450427394
     0.500000000  0.750000000  0.450427394
     0.250000000  0.750000000  0.351282183
     0.500000000  0.500000000  0.351282183
     0.249984110  0.499958207  0.650575978
     0.500000000  0.750361752  0.650316494
     0.250088141  0.749973154  0.549737378
     0.500000021  0.499680357  0.550031638
     0.750000000  0.000000000  0.450427394
     0.000000000  0.250000000  0.450427394
     0.750000000  0.250000000  0.351282183
     0.000000000  0.000000000  0.351282183
     0.749885143  0.000086445  0.650344146
     0.000000048  0.249977219  0.650423646
     0.749539362  0.250082885  0.550010571
     0.000000029  0.000099556  0.549739765
     0.750000000  0.500000000  0.450427394
     0.000000000  0.750000000  0.450427394
     0.750000000  0.750000000  0.351282183
     0.000000000  0.500000000  0.351282183
     0.750016029  0.499958202  0.650575913
     0.000000043  0.750029438  0.650509501
     0.749911909  0.749973147  0.549737375
     0.000000034  0.499904715  0.549757805

  ion indices of the primitive-cell ions
   primitive index   ion index
                 1           1
                 2           2
                 3           3
                 4           4
                 5           5
                 6           6
                 7           7
                 8           8
                 9           9
                10          10
[...]
   4.23357159  8.44718873 13.84802947
   2.11678566  4.23357132  7.50000000
   4.23357132  6.35035697  7.50000000
   2.11678566  6.35035697  9.61678566
   4.23357132  4.23357132  9.61678566
   2.11622819  4.23318961 11.74845667
   4.23357150  6.35162009 11.74303937
   2.11193171  6.35330165 13.84625020
   4.23357283  4.26268885 13.85043238
   6.35035697  0.00000000  7.50000000
   0.00000000  2.11678566  7.50000000
   6.35035697  2.11678566  9.61678566
   0.00000000  0.00000000  9.61678566
   6.35065578  0.00087989 11.74718987
   0.00000043  2.11670541 11.74492508
   6.37069688  2.11427715 13.85425130
   0.00000023  8.46388169 13.84898623
   6.35035697  4.23357132  7.50000000
   0.00000000  6.35035697  7.50000000
   6.35035697  6.35035697  9.61678566
   0.00000000  4.23357132  9.61678566
   6.35091498  4.23318978 11.74845661
   0.00000023  6.35065043 11.74438875
   6.35521129  6.35330115 13.84625032
   8.46714246  4.23695576 13.84754916
   2.11678566  0.00000000  9.61678566
   4.23357132  2.11678566  9.61678566
   2.11678566  2.11678566  7.50000000
   4.23357132  0.00000000  7.50000000
   2.11775866  0.00073203 13.88508004
   4.23357174  2.11631950 13.91777610
   2.12068641  2.11748746 11.74292232
   4.23357148  0.00473429 11.74094449
   2.11678566  4.23357132  9.61678566
   4.23357132  6.35035697  9.61678566
   2.11678566  6.35035697  7.50000000
   4.23357132  4.23357132  7.50000000
   2.11665112  4.23321745 13.89002937
   4.23357132  6.35341997 13.88448930
   2.11753196  6.35012966 11.73708926
   4.23357149  4.23086485 11.74337181
   6.35035697  0.00000000  9.61678566
   0.00000000  2.11678566  9.61678566
   6.35035697  2.11678566  7.50000000
   0.00000000  0.00000000  7.50000000
   6.34938447  0.00073194 13.88507968
   0.00000040  2.11659276 13.88677702
   6.34645668  2.11748746 11.74292202
   0.00000025  0.00084295 11.73714022
   6.35035697  4.23357132  9.61678566
   0.00000000  6.35035697  9.61678566
   6.35035697  6.35035697  7.50000000
   0.00000000  4.23357132  7.50000000
   6.35049270  4.23321740 13.89002799
   0.00000036  6.35060623 13.88861005
   6.34961109  6.35012961 11.73708921
   0.00000028  4.23276453 11.73752539

--------------------------------------- Iteration      FINAL  ---------------------------------------

--------------------OUTCAR has been truncated-------------------------

[...]

--------------------OUTCAR has been truncated-------------------------

  DFT-D2 method for vdW energy calculation

  Parameters of vdW forcefield:
         C6(Jnm^6/mol)     R0(A)
   C        1.750          1.452
   O        0.700          1.342
   H        0.140          1.001
   Mg       0.630          1.243
   O        0.700          1.342

  vdW correction parametrized for the method        ,:

  IVDW =   1
  VDW_RADIUS =    50.000 A
  VDW_S6 =     1.050
  VDW_SR =     1.000
  VDW_D =    20.000
  LVDW_EWALD = F

  Number of pair interactions contributing to vdW energy:  857449
  Edisp (eV):   -5.28031

 VOLUME and BASIS-vectors are now :
  energy-cutoff  :      600.00
  volume of cell :     1530.66
      direct lattice vectors                 reciprocal lattice vectors
     8.467142631  0.000000000  0.000000000     0.118103597  0.000000000  0.000000000
     0.000000000  8.467142631  0.000000000     0.000000000  0.118103597  0.000000000
     0.000000000  0.000000000 21.350356973     0.000000000  0.000000000  0.046837624

  length of vectors
     8.467142631  8.467142631 21.350356973     0.118103597  0.118103597  0.046837624

 FORCES acting on ions:
    Electron-Ion                     Ewald-Force                    Non-Local-Force
   -.458E-02 -.121E+03 -.977E+03   0.232E-02 0.126E+03 0.979E+03   -.314E-02 -.452E+01 -.137E+01
   0.800E-02 0.166E+03 -.152E+04   -.112E-01 -.200E+03 0.155E+04   0.330E-02 0.299E+02 -.261E+02
   0.325E-02 -.198E+02 -.246E+03   -.345E-02 0.205E+02 0.251E+03   0.514E-03 -.807E+00 -.560E+01
   -.372E-03 0.245E+02 -.213E+03   0.429E-03 -.257E+02 0.206E+03   -.570E-04 0.115E+01 0.710E+01
   -.486E+02 -.373E+02 -.239E+03   0.530E+02 0.396E+02 0.238E+03   -.446E+01 -.243E+01 0.190E+01
   0.486E+02 -.373E+02 -.239E+03   -.530E+02 0.396E+02 0.238E+03   0.446E+01 -.243E+01 0.190E+01
   0.260E+00 0.122E+00 0.207E+04   -.262E+00 -.123E+00 -.207E+04   0.164E-02 0.563E-03 -.638E+01
   0.385E-05 0.149E+00 0.207E+04   -.579E-05 -.148E+00 -.207E+04   -.776E-06 -.322E-03 -.637E+01
   0.139E+01 0.607E+00 0.727E+03   -.137E+01 -.600E+00 -.728E+03   -.132E-01 -.419E-02 0.480E+00
   0.135E-04 0.759E+00 0.727E+03   -.186E-04 -.726E+00 -.728E+03   0.274E-05 -.219E-01 0.454E+00
   0.515E+01 0.354E+01 -.612E+03   -.516E+01 -.352E+01 0.612E+03   0.124E-01 -.188E-01 -.431E+00
   0.734E-04 0.421E+01 -.601E+03   -.936E-04 -.422E+01 0.601E+03   0.147E-04 0.359E-02 0.562E+00
   0.388E+02 0.165E+02 -.192E+04   -.399E+02 -.167E+02 0.192E+04   0.925E+00 0.109E+00 0.551E+01
   -.305E-04 0.252E+02 -.193E+04   0.324E-04 -.262E+02 0.193E+04   -.107E-05 0.933E+00 0.550E+01
   0.273E+00 -.123E+00 0.207E+04   -.275E+00 0.124E+00 -.207E+04   0.156E-02 -.627E-03 -.638E+01
   0.692E-05 -.147E+00 0.207E+04   -.605E-05 0.147E+00 -.207E+04   -.564E-07 -.122E-03 -.637E+01
   0.111E+01 -.592E+00 0.727E+03   -.114E+01 0.587E+00 -.727E+03   0.184E-01 0.332E-02 0.373E+00
   0.308E-04 -.760E+00 0.729E+03   -.320E-04 0.741E+00 -.729E+03   0.228E-05 0.138E-01 0.497E+00
   0.689E+01 -.360E+01 -.606E+03   -.692E+01 0.358E+01 0.606E+03   0.217E-01 0.183E-01 -.372E+00
   0.554E-04 -.418E+01 -.604E+03   -.688E-04 0.419E+01 0.605E+03   0.596E-05 -.872E-02 -.298E+00
   0.200E+02 -.146E+02 -.196E+04   -.202E+02 0.147E+02 0.195E+04   0.179E+00 -.110E+00 0.545E+01
   0.526E-03 -.311E+02 -.187E+04   -.710E-03 0.324E+02 0.186E+04   0.101E-03 -.116E+01 0.561E+01
   -.260E+00 0.122E+00 0.207E+04   0.262E+00 -.123E+00 -.207E+04   -.164E-02 0.553E-03 -.638E+01
   0.440E-07 0.134E+00 0.207E+04   0.566E-05 -.135E+00 -.207E+04   -.518E-05 0.563E-04 -.637E+01
   -.139E+01 0.607E+00 0.727E+03   0.137E+01 -.600E+00 -.728E+03   0.132E-01 -.419E-02 0.480E+00
   -.124E-04 0.486E+00 0.726E+03   0.168E-04 -.505E+00 -.726E+03   0.131E-05 0.126E-01 0.371E+00
   -.515E+01 0.354E+01 -.612E+03   0.516E+01 -.352E+01 0.612E+03   -.124E-01 -.188E-01 -.431E+00
   -.438E-04 0.244E+01 -.610E+03   0.616E-04 -.244E+01 0.611E+03   -.147E-04 0.359E-02 -.316E+00
   -.388E+02 0.165E+02 -.192E+04   0.399E+02 -.167E+02 0.192E+04   -.925E+00 0.109E+00 0.551E+01
   0.310E-04 0.992E+01 -.197E+04   -.192E-04 -.100E+02 0.197E+04   -.678E-05 0.113E+00 0.542E+01
   -.273E+00 -.123E+00 0.207E+04   0.275E+00 0.124E+00 -.207E+04   -.155E-02 -.624E-03 -.638E+01
   -.620E-06 -.134E+00 0.207E+04   0.607E-05 0.134E+00 -.207E+04   -.154E-05 -.344E-04 -.639E+01
   -.111E+01 -.592E+00 0.727E+03   0.114E+01 0.587E+00 -.727E+03   -.184E-01 0.331E-02 0.373E+00
   -.272E-04 -.492E+00 0.727E+03   0.312E-04 0.512E+00 -.727E+03   -.551E-05 -.126E-01 0.380E+00
   -.689E+01 -.360E+01 -.606E+03   0.692E+01 0.358E+01 0.606E+03   -.217E-01 0.183E-01 -.372E+00
   -.601E-04 -.235E+01 -.617E+03   0.705E-04 0.236E+01 0.617E+03   -.532E-05 -.104E-01 -.247E+00
   -.200E+02 -.146E+02 -.196E+04   0.202E+02 0.147E+02 0.195E+04   -.179E+00 -.110E+00 0.545E+01
   -.403E-03 -.103E+02 -.196E+04   0.502E-03 0.104E+02 0.195E+04   -.599E-04 -.118E+00 0.543E+01
   0.767E+00 0.375E+00 0.544E+03   -.781E+00 -.393E+00 -.544E+03   0.180E-01 0.234E-01 -.117E+00
   0.152E-04 0.497E+00 0.547E+03   -.201E-04 -.510E+00 -.546E+03   0.338E-05 0.163E-01 -.769E-01
   0.213E+00 0.106E+00 0.156E+04   -.213E+00 -.106E+00 -.156E+04   0.168E-03 -.369E-03 0.313E+01
   -.274E-06 0.104E+00 0.156E+04   -.386E-05 -.103E+00 -.156E+04   0.616E-06 -.133E-02 0.314E+01
   0.167E+02 0.139E+02 -.149E+04   -.167E+02 -.139E+02 0.149E+04   -.233E-01 -.279E-01 -.479E+01
   0.934E-04 0.243E+02 -.140E+04   -.128E-03 -.244E+02 0.140E+04   0.439E-04 0.101E+00 -.181E+01
   0.476E+01 0.245E+01 -.450E+03   -.481E+01 -.245E+01 0.449E+03   0.402E-01 0.443E-02 0.278E+00
   0.203E-05 0.270E+01 -.450E+03   -.651E-05 -.273E+01 0.450E+03   0.265E-05 0.252E-01 0.324E+00
   0.844E+00 -.375E+00 0.545E+03   -.862E+00 0.392E+00 -.545E+03   0.231E-01 -.213E-01 -.126E+00
   0.183E-04 -.460E+00 0.546E+03   -.222E-04 0.456E+00 -.545E+03   0.340E-05 0.351E-02 -.427E-01
   0.192E+00 -.106E+00 0.156E+04   -.197E+00 0.106E+00 -.156E+04   0.589E-02 0.402E-03 0.313E+01
   0.114E-04 -.105E+00 0.156E+04   -.497E-05 0.103E+00 -.156E+04   -.182E-05 0.196E-02 0.314E+01
   0.313E+02 -.154E+02 -.146E+04   -.312E+02 0.153E+02 0.147E+04   -.280E-01 0.407E-01 -.475E+01
   0.604E-04 -.192E+02 -.147E+04   -.123E-03 0.193E+02 0.148E+04   0.741E-04 -.636E-01 -.475E+01
   0.412E+01 -.238E+01 -.453E+03   -.412E+01 0.238E+01 0.453E+03   0.268E-02 -.630E-03 0.279E+00
   0.118E-03 -.274E+01 -.444E+03   -.139E-03 0.278E+01 0.443E+03   0.223E-04 -.358E-01 0.345E+00
   -.767E+00 0.375E+00 0.544E+03   0.781E+00 -.393E+00 -.544E+03   -.180E-01 0.234E-01 -.117E+00
   -.922E-05 0.396E+00 0.544E+03   0.948E-05 -.396E+00 -.544E+03   0.163E-05 0.162E-04 -.624E-01
   -.213E+00 0.106E+00 0.156E+04   0.213E+00 -.106E+00 -.156E+04   -.166E-03 -.371E-03 0.313E+01
   -.256E-05 0.835E-01 0.156E+04   0.388E-05 -.868E-01 -.156E+04   0.126E-05 0.406E-02 0.313E+01
   -.167E+02 0.139E+02 -.149E+04   0.167E+02 -.139E+02 0.149E+04   0.233E-01 -.279E-01 -.479E+01
   -.446E-04 0.649E+01 -.149E+04   0.721E-04 -.648E+01 0.149E+04   -.349E-04 -.627E-02 -.472E+01
   -.476E+01 0.245E+01 -.450E+03   0.481E+01 -.245E+01 0.449E+03   -.402E-01 0.445E-02 0.278E+00
   -.131E-04 0.224E+01 -.456E+03   0.183E-04 -.226E+01 0.456E+03   -.432E-05 0.151E-01 0.239E+00
   -.844E+00 -.375E+00 0.545E+03   0.862E+00 0.392E+00 -.545E+03   -.231E-01 -.213E-01 -.126E+00
   -.122E-04 -.387E+00 0.544E+03   0.165E-04 0.387E+00 -.544E+03   -.509E-06 0.156E-03 -.104E+00
   -.192E+00 -.106E+00 0.156E+04   0.197E+00 0.106E+00 -.156E+04   -.589E-02 0.399E-03 0.313E+01
   -.740E-05 -.838E-01 0.156E+04   0.503E-05 0.871E-01 -.156E+04   0.154E-05 -.405E-02 0.313E+01
   -.313E+02 -.154E+02 -.146E+04   0.312E+02 0.153E+02 0.147E+04   0.279E-01 0.407E-01 -.475E+01
   -.309E-04 -.625E+01 -.150E+04   0.655E-04 0.623E+01 0.150E+04   -.357E-04 0.168E-01 -.471E+01
   -.412E+01 -.238E+01 -.453E+03   0.412E+01 0.238E+01 0.453E+03   -.268E-02 -.646E-03 0.279E+00
   -.115E-03 -.229E+01 -.453E+03   0.136E-03 0.231E+01 0.453E+03   -.252E-04 -.110E-01 0.279E+00
   0.135E-02 -.240E+02 0.415E+02   -.746E-12 0.274E-12 0.296E-11   -.149E-02 0.207E+02 -.363E+02

 POSITION                                       TOTAL-FORCE (eV/Angst)
      4.23364      3.74935     16.86600        -0.005550      0.198241      0.133050
      4.23356      2.34585     16.61896         0.000493      0.184347     -0.522731
      4.23356      3.90771     17.95337         0.000336     -0.051038     -0.277487
      4.23357      2.22229     15.62537        -0.000003     -0.005789      0.490033
      5.13612      4.24667     16.45353        -0.246228     -0.180441      0.094381
      3.33095      4.24671     16.45350         0.251014     -0.182327      0.096234
      2.11679      0.00000      7.50000        -0.000772     -0.000324      0.510104
      4.23357      2.11679      7.50000        -0.000003      0.000102      0.508931
      2.11679      2.11679      9.61679         0.003719      0.001708      0.034094
      4.23357      0.00000      9.61679        -0.000003      0.008465      0.031392
      2.11649      0.00088     11.74719        -0.000847      0.000186     -0.006052
      4.23357      2.11796     11.74508        -0.000005     -0.000752     -0.016058
      2.09645      2.11428     13.85425        -0.016268     -0.003472     -0.078287
      4.23357      8.44719     13.84803         0.000001     -0.010492     -0.064629
      2.11679      4.23357      7.50000        -0.000704      0.000310      0.511098
      4.23357      6.35036      7.50000         0.000000      0.000059      0.506367
      2.11679      6.35036      9.61679        -0.007789     -0.001445      0.034489
      4.23357      4.23357      9.61679         0.000001     -0.003530      0.033378
      2.11623      4.23319     11.74846         0.000881     -0.000100     -0.008316
      4.23357      6.35162     11.74304        -0.000007      0.000054     -0.008849
      2.11193      6.35330     13.84625        -0.001893      0.003857     -0.068345
      4.23357      4.26269     13.85043        -0.000069      0.018698     -0.103013
      6.35036      0.00000      7.50000         0.000771     -0.000337      0.510107
      0.00000      2.11679      7.50000         0.000001     -0.000017      0.507403
      6.35036      2.11679      9.61679        -0.003717      0.001712      0.034105
      0.00000      0.00000      9.61679         0.000005     -0.005300      0.034385
      6.35066      0.00088     11.74719         0.000845      0.000187     -0.006046
      0.00000      2.11671     11.74493         0.000001      0.000068     -0.007528
      6.37070      2.11428     13.85425         0.016276     -0.003518     -0.078419
      0.00000      8.46388     13.84899         0.000004      0.002326     -0.060852
      6.35036      4.23357      7.50000         0.000700      0.000312      0.511087
      0.00000      6.35036      7.50000         0.000004      0.000020      0.512200
      6.35036      6.35036      9.61679         0.007790     -0.001452      0.034495
      0.00000      4.23357      9.61679        -0.000002      0.005298      0.035377
      6.35091      4.23319     11.74846        -0.000878     -0.000097     -0.008340
      0.00000      6.35065     11.74439         0.000004      0.000403     -0.011427
      6.35521      6.35330     13.84625         0.001899      0.003892     -0.068386
      8.46714      4.23696     13.84755         0.000031     -0.000354     -0.067840
      2.11679      0.00000      9.61679         0.006622      0.008064      0.048614
      4.23357      2.11679      9.61679        -0.000001      0.005373      0.051518
      2.11679      2.11679      7.50000         0.000039     -0.000149     -0.391782
      4.23357      0.00000      7.50000        -0.000004     -0.000438     -0.391363
      2.11776      0.00073     13.88508         0.001547      0.001221     -0.139608
      4.23357      2.11632     13.91778         0.000016      0.015624     -0.104467
      2.12069      2.11749     11.74292        -0.000328      0.000365      0.009069
      4.23357      0.00473     11.74094        -0.000002     -0.001513      0.010089
      2.11679      4.23357      9.61679         0.008665     -0.007467      0.051331
      4.23357      6.35036      9.61679        -0.000000      0.000369      0.055391
      2.11679      6.35036      7.50000         0.001942      0.000147     -0.393181
      4.23357      4.23357      7.50000         0.000004      0.000697     -0.391604
      2.11665      4.23322     13.89003         0.015122      0.000412     -0.128932
      4.23357      6.35342     13.88449         0.000022     -0.011438     -0.136665
      2.11753      6.35013     11.73709        -0.001566      0.000509      0.012169
      4.23357      4.23086     11.74337         0.000004     -0.000489      0.011538
      6.35036      0.00000      9.61679        -0.006618      0.008063      0.048616
      0.00000      2.11679      9.61679         0.000002      0.000172      0.057688
      6.35036      2.11679      7.50000        -0.000042     -0.000140     -0.391798
      0.00000      0.00000      7.50000         0.000002      0.001320     -0.393459
      6.34938      0.00073     13.88508        -0.001557      0.001227     -0.139623
      0.00000      2.11659     13.88678        -0.000013      0.003855     -0.136132
      6.34646      2.11749     11.74292         0.000328      0.000369      0.009080
      0.00000      0.00084     11.73714         0.000000      0.000715      0.010208
      6.35036      4.23357      9.61679        -0.008666     -0.007465      0.051328
      0.00000      6.35036      9.61679         0.000003     -0.000243      0.039094
      6.35036      6.35036      7.50000        -0.001947      0.000143     -0.393195
      0.00000      4.23357      7.50000        -0.000001     -0.001324     -0.393634
      6.35049      4.23322     13.89003        -0.015163      0.000417     -0.128848
      0.00000      6.35061     13.88861        -0.000006     -0.000424     -0.137088
      6.34961      6.35013     11.73709         0.001568      0.000507      0.012178
      0.00000      4.23276     11.73753        -0.000008      0.002059      0.013363
    total drift:                                0.000025      0.000261      0.017966

  FREE ENERGIE OF THE ION-ELECTRON SYSTEM (eV)
  free  energy   TOTEN  =      -474.14998220 eV

  energy  without entropy=     -474.14998220  energy(sigma->0) =     -474.14998220