 vasp.6.3.0 20Jan22 (build Mar 11 2022 13:48:16) complex

 executed on             LinuxIFC date 2024.02.11  10:41:35

 INCAR:
   SYSTEM = Oxide-Surface
   ISMEAR = 0
   SIGMA = 0.05
   EDIFF = 1E-5
   ALGO = ALL
   ISTART = 0
   IBRION = -1
   NSW = 0
   ISYM = 2
   DIPOL = 0.5 0.5 0.5
   IDIPOL = 3
   LDIPOL = .TRUE.
   GGA = PE
   IVDW = 11
   ENCUT = 600
   PREC = Accurate
   LASPH = .TRUE.
   LREAL = .FALSE.
   ISPIN = 1
   NELM = 200
   NELMIN = 8
   NCORE = 19
   KPAR = 1
   LWAVE = .FALSE.
   LCHARG = .FALSE.

 POTCAR:    PAW_PBE C 08Apr2002
 POTCAR:    PAW_PBE H 15Jun2001
 POTCAR:    PAW_PBE Mg_pv 13Apr2007
 POTCAR:    PAW_PBE O 08Apr2002
 POTCAR:    PAW_PBE C 08Apr2002
   VRHFIN =C: s2p2

   TITEL  = PAW_PBE C 08Apr2002
   POMASS =   12.011; ZVAL   =    4.000    mass and valenz
   ENMAX  =  400.000; ENMIN  =  300.000 eV

   TITEL  = PAW_PBE H 15Jun2001
   POMASS =    1.000; ZVAL   =    1.000    mass and valenz
   ENMAX  =  250.000; ENMIN  =  200.000 eV

   TITEL  = PAW_PBE Mg_pv 13Apr2007
   POMASS =   24.305; ZVAL   =    8.000    mass and valenz
   ENMAX  =  403.929; ENMIN  =  302.947 eV

   TITEL  = PAW_PBE O 08Apr2002
   POMASS =   16.000; ZVAL   =    6.000    mass and valenz
   ENMAX  =  400.000; ENMIN  =  300.000 eV

  PAW_PBE C 08Apr2002                   :
  PAW_PBE H 15Jun2001                   :
  PAW_PBE Mg_pv 13Apr2007               :
  PAW_PBE O 08Apr2002                   :

 POSCAR:  C  H Mg  O
  positions in direct lattice
 exchange correlation table for  LEXCH =        8
   RHO(1)=    0.500       N(1)  =     2000
   RHO(2)=  100.500       N(2)  =     4000

 ion  position               nearest neighbor table
   1  0.504  0.498  0.793-   5 1.10   3 1.10   4 1.10   2 1.53
   2  0.675  0.499  0.817-   6 1.10   8 1.10   7 1.10   1 1.53
   3  0.482  0.392  0.764-   1 1.10
   4  0.479  0.604  0.765-   1 1.10
   5  0.418  0.495  0.832-   1 1.10
   6  0.759  0.502  0.778-   2 1.10
   7  0.701  0.394  0.846-   2 1.10
   8  0.698  0.604  0.847-   2 1.10
   9  0.000  0.750  0.352-  41 2.11  43 2.11  44 2.11  51 2.11  60 2.11
  10  0.250  0.000  0.352-  42 2.11  43 2.11  44 2.11  52 2.11  59 2.11
  11  0.000  0.000  0.451-  43 2.11  42 2.11  41 2.11  49 2.11  58 2.11  47 2.12
  12  0.250  0.750  0.451-  44 2.11  42 2.11  41 2.11  50 2.11  57 2.11  48 2.12
  13  1.000  0.750  0.550-  64 2.11  48 2.11  55 2.11  47 2.11  41 2.12  45 2.15
  14  0.250  1.000  0.550-  48 2.11  56 2.11  63 2.11  47 2.11  42 2.12  46 2.15
  15  1.000  1.000  0.649-  46 2.11  62 2.11  47 2.11  45 2.11  53 2.11
  16  0.250  0.750  0.649-  48 2.11  54 2.11  45 2.11  46 2.11  61 2.11
  17  0.000  0.250  0.352-  49 2.11  43 2.11  51 2.11  52 2.11  68 2.11
  18  0.250  0.500  0.352-  50 2.11  44 2.11  51 2.11  52 2.11  67 2.11
  19  0.000  0.500  0.451-  51 2.11  49 2.11  50 2.11  41 2.11  66 2.11  55 2.12
  20  0.250  0.250  0.451-  52 2.11  49 2.11  50 2.11  42 2.11  65 2.11  56 2.12
  21  1.000  0.250  0.550-  72 2.11  56 2.11  55 2.11  47 2.11  49 2.12  53 2.15
  22  0.250  0.500  0.550-  71 2.11  56 2.11  48 2.11  55 2.11  50 2.13  54 2.15
  23  0.000  0.500  0.649-  54 2.11  55 2.11  70 2.11  45 2.11  53 2.11
  24  0.250  0.250  0.649-  56 2.11  53 2.11  54 2.11  46 2.11  69 2.11
  25  0.500  0.750  0.352-  57 2.11  44 2.11  59 2.11  60 2.11  67 2.11
  26  0.750  0.000  0.352-  58 2.11  43 2.11  59 2.11  60 2.11  68 2.11
  27  0.500  0.000  0.451-  59 2.11  57 2.11  58 2.11  42 2.11  65 2.11  63 2.12
  28  0.750  0.750  0.451-  60 2.11  57 2.11  58 2.11  41 2.11  66 2.11  64 2.12
  29  0.500  0.750  0.550-  71 2.11  64 2.11  48 2.11  63 2.11  57 2.13  61 2.15
  30  0.750  1.000  0.550-  64 2.11  72 2.11  47 2.11  63 2.11  58 2.13  62 2.15
  31  0.500  1.000  0.649-  69 2.11  61 2.11  63 2.11  46 2.11  62 2.11
  32  0.750  0.750  0.649-  64 2.11  45 2.11  62 2.11  70 2.11  61 2.11
  33  0.500  0.250  0.352-  65 2.11  59 2.11  52 2.11  67 2.11  68 2.11
  34  0.750  0.500  0.352-  66 2.11  60 2.11  51 2.11  67 2.11  68 2.11
  35  0.500  0.500  0.451-  67 2.11  57 2.11  65 2.11  66 2.11  50 2.11  71 2.12
  36  0.750  0.250  0.451-  68 2.11  58 2.11  65 2.11  66 2.11  49 2.11  72 2.12
  37  0.500  0.250  0.550-  71 2.11  72 2.11  56 2.11  63 2.11  65 2.13  69 2.15
  38  0.750  0.500  0.550-  71 2.11  72 2.11  64 2.11  55 2.11  66 2.13  70 2.15
  39  0.500  0.500  0.649-  54 2.11  61 2.11  69 2.11  70 2.11  71 2.12
  40  0.750  0.250  0.649-  72 2.11  53 2.11  62 2.11  70 2.11  69 2.11
  41  0.000  0.750  0.451-   9 2.11  11 2.11  12 2.11  19 2.11  28 2.11  13 2.12
  42  0.250  0.000  0.451-  10 2.11  11 2.11  12 2.11  20 2.11  27 2.11  14 2.12
  43  0.000  0.000  0.352-  11 2.11  10 2.11   9 2.11  17 2.11  26 2.11
  44  0.250  0.750  0.352-  12 2.11  10 2.11   9 2.11  18 2.11  25 2.11
  45  1.000  0.750  0.651-  32 2.11  16 2.11  23 2.11  15 2.11  13 2.15
  46  0.250  1.000  0.651-  15 2.11  31 2.11  24 2.11  16 2.11  14 2.15
  47  1.000  1.000  0.550-  30 2.11  13 2.11  21 2.11  14 2.11  15 2.11  11 2.12
  48  0.250  0.750  0.550-  16 2.11  14 2.11  13 2.11  29 2.11  22 2.11  12 2.12
  49  0.000  0.250  0.451-  17 2.11  11 2.11  19 2.11  20 2.11  36 2.11  21 2.12
  50  0.250  0.500  0.451-  18 2.11  12 2.11  19 2.11  20 2.11  35 2.11  22 2.13
  51  0.000  0.500  0.352-  19 2.11  17 2.11  18 2.11   9 2.11  34 2.11
  52  0.250  0.250  0.352-  20 2.11  17 2.11  18 2.11  10 2.11  33 2.11
  53  1.000  0.250  0.651-  40 2.11  24 2.11  23 2.11  15 2.11  21 2.15
  54  0.250  0.500  0.651-  23 2.11  16 2.11  24 2.11  39 2.11  22 2.15
  55  1.000  0.500  0.550-  23 2.11  21 2.11  13 2.11  38 2.11  22 2.11  19 2.12
  56  0.250  0.250  0.550-  24 2.11  14 2.11  21 2.11  37 2.11  22 2.11  20 2.12
  57  0.500  0.750  0.451-  25 2.11  12 2.11  27 2.11  28 2.11  35 2.11  29 2.13
  58  0.750  0.000  0.451-  26 2.11  11 2.11  27 2.11  28 2.11  36 2.11  30 2.13
  59  0.500  0.000  0.352-  27 2.11  25 2.11  26 2.11  10 2.11  33 2.11
  60  0.750  0.750  0.352-  28 2.11  25 2.11  26 2.11   9 2.11  34 2.11
  61  0.500  0.750  0.651-  31 2.11  32 2.11  16 2.11  39 2.11  29 2.15
  62  0.750  1.000  0.651-  40 2.11  15 2.11  32 2.11  31 2.11  30 2.15
  63  0.500  1.000  0.550-  31 2.11  30 2.11  14 2.11  29 2.11  37 2.11  27 2.12
  64  0.750  0.750  0.550-  32 2.11  30 2.11  13 2.11  29 2.11  38 2.11  28 2.12
  65  0.500  0.250  0.451-  33 2.11  27 2.11  20 2.11  35 2.11  36 2.11  37 2.13
  66  0.750  0.500  0.451-  34 2.11  28 2.11  19 2.11  35 2.11  36 2.11  38 2.13
  67  0.500  0.500  0.352-  35 2.11  25 2.11  33 2.11  34 2.11  18 2.11
  68  0.750  0.250  0.352-  36 2.11  26 2.11  33 2.11  34 2.11  17 2.11
  69  0.500  0.250  0.651-  31 2.11  40 2.11  24 2.11  39 2.11  37 2.15
  70  0.750  0.500  0.651-  23 2.11  32 2.11  40 2.11  39 2.11  38 2.15
  71  0.500  0.500  0.550-  38 2.11  29 2.11  37 2.11  22 2.11  39 2.12  35 2.12
  72  0.750  0.250  0.550-  40 2.11  30 2.11  21 2.11  37 2.11  38 2.11  36 2.12

  LATTYP: Found a simple tetragonal cell.
 ALAT       =     8.4409846542
 C/A-ratio  =     2.5270438657

  Lattice vectors:

 A1 = (   8.4409846542,   0.0000000000,   0.0000000000)
 A2 = (   0.0000000000,   8.4409846542,   0.0000000000)
 A3 = (   0.0000000000,   0.0000000000,  21.3307384906)

Analysis of symmetry for initial positions (statically):
 Subroutine PRICEL returns:
 Original cell was already a primitive cell.

 Routine SETGRP: Setting up the symmetry group for a
 simple tetragonal supercell.

 Subroutine GETGRP returns: Found  1 space group operations
 (whereof  1 operations were pure point group operations)
 out of a pool of 16 trial point group operations.

The static configuration has the point symmetry C_1 .

Analysis of symmetry for dynamics (positions and initial velocities):
 Subroutine PRICEL returns:
 Original cell was already a primitive cell.

[...]

The dynamic configuration has the point symmetry C_1 .

Analysis of constrained symmetry for selective dynamics:
 Subroutine PRICEL returns:
 Original cell was already a primitive cell.

 Routine SETGRP: Setting up the symmetry group for a
 simple tetragonal supercell.

 Subroutine GETGRP returns: Found  1 space group operations
 (whereof  1 operations were pure point group operations)
 out of a pool of 16 trial point group operations.

The constrained configuration has the point symmetry C_1 .

 Subroutine INISYM returns: Found  1 space group operations
 (whereof  1 operations are pure point group operations),
 and found     1 'primitive' translations

                                     Primitive cell

  volume of cell :    1519.8199

  direct lattice vectors                    reciprocal lattice vectors
     8.440984654  0.000000000  0.000000000     0.118469591  0.000000000  0.000000000
     0.000000000  8.440984654  0.000000000     0.000000000  0.118469591  0.000000000
     0.000000000  0.000000000 21.330738491     0.000000000  0.000000000  0.046880702

  length of vectors
     8.440984654  8.440984654 21.330738491     0.118469591  0.118469591  0.046880702

  position of ions in fractional coordinates (direct lattice)
     0.504434876  0.497571925  0.793182562
     0.675419507  0.499339829  0.817254959
     0.481938651  0.392229692  0.763981212
     0.478802048  0.604112785  0.765085782
     0.417852208  0.495000411  0.831710663
     0.759152897  0.502002316  0.777764631
     0.701471206  0.393571335  0.845561462
     0.698192892  0.603729020  0.846776833
     0.000000000  0.750000000  0.351605267
     0.250000000  0.000000000  0.351605267
     0.000000000  0.000000000  0.450535089
     0.250000000  0.750000000  0.450535089
     0.999969335  0.749932564  0.550143009
     0.249979009  0.999932854  0.550153760
     0.999984729  0.999879620  0.648880782
     0.249865610  0.749814499  0.648764798
     0.000000000  0.250000000  0.351605267
     0.250000000  0.500000000  0.351605267
     0.000000000  0.500000000  0.450535089
     0.250000000  0.250000000  0.450535089
     0.999969716  0.249949331  0.550140365
     0.250119639  0.499932684  0.550205747
     0.000137590  0.499892464  0.648694835
     0.249861482  0.249941717  0.648759231
     0.500000000  0.750000000  0.351605267
     0.750000000  0.000000000  0.351605267
     0.500000000  0.000000000  0.450535089
     0.750000000  0.750000000  0.450535089
     0.499983604  0.749784240  0.550199518
     0.749978902  0.999929979  0.550160720
     0.499953859  0.999865553  0.648719052
     0.750035499  0.749892856  0.648802828
     0.500000000  0.250000000  0.351605267
     0.750000000  0.500000000  0.351605267
     0.500000000  0.500000000  0.450535089
     0.750000000  0.250000000  0.450535089
     0.499985367  0.250051482  0.550198962
     0.749853021  0.499929383  0.550227143
     0.499835929  0.499867681  0.649468757
     0.750050535  0.249858113  0.648796072
     0.000000000  0.750000000  0.450535089
     0.250000000  0.000000000  0.450535089
     0.000000000  0.000000000  0.351605267
     0.250000000  0.750000000  0.351605267
     0.999935709  0.749855480  0.651031248
     0.249938454  0.999880825  0.651034598
     0.999963400  0.999937428  0.549922155
     0.249957400  0.750009151  0.549898012
     0.000000000  0.250000000  0.450535089
     0.250000000  0.500000000  0.450535089
[...]
   2.11024616  4.22049233  9.61024616
   0.00000000  4.22049233  7.50000000
   2.11024616  2.11024616  7.50000000
   8.44046334  2.10952356 13.88681923
   2.10781037  4.21948072 13.88157232
   8.44067617  4.21997558 11.72868458
   2.10981821  2.10904323 11.72965114
   4.22049233  6.33073849  9.61024616
   6.33073849  0.00000000  9.61024616
   4.22049233  0.00000000  7.50000000
   6.33073849  6.33073849  7.50000000
   4.22034095  6.33232534 13.88612710
   6.33073059  8.43995481 13.88762338
   4.22039784  8.44027584 11.72906685
   6.33071641  6.33073421 11.73011252
   4.22049233  2.11024616  9.61024616
   6.33073849  4.22049233  9.61024616
   4.22049233  4.22049233  7.50000000
   6.33073849  2.11024616  7.50000000
   4.22040296  2.10623240 13.88554438
   6.33242376  4.21946895 13.88435643
   4.22055787  4.21990030 11.73287708
   6.33080282  2.10908395 11.73003243

--------------------------------------- Iteration      FINAL  ---------------------------------------

--------------------OUTCAR has been truncated-------------------------

[...]

--------------------OUTCAR has been truncated-------------------------

         DFTD3 V3.0 Rev 1
 IVDW         = 11
 DF pbe
 parameters
 VDW_S6       =    1.0000
 VDW_S8       =    0.7220
 VDW_SR       =    1.2170
 rs18     =    1.0000
 alpha6   =   14.0000
 alpha8   =   16.0000
 k1-k3    =   16.0000    1.3333   -4.0000
 VDW_RADIUS   =   50.2022 A
 VDW_CNRADIUS =   21.1671 A
 Edisp (eV)   -9.60402

 E6    (eV) :    -4.4504
 E8    (eV) :    -5.1536
 % E8        : 53.66

  FORCE on cell =-STRESS in cart. coord.  units (eV):
  Direction    XX          YY          ZZ          XY          YZ          ZX
  Alpha Z   919.54008   919.54008   919.54008
  Ewald  156080.39735155923.67114************     1.29653     0.04928    48.08590
  Hartree166374.70296166251.49821************     0.98752     0.11914    36.25084
  E(xc)   -2505.17251 -2505.22196 -2510.22667     0.00069     0.00047     0.02025
  Local  ************************331939.76408    -2.35350    -0.19742   -86.24576
  n-local -2836.84214 -2838.02977 -2858.80890     0.01153    -0.01142     0.44606
  augment  1047.90026  1047.84396  1038.57407     0.00061    -0.00243     0.01831
  Kinetic  7489.59268  7485.26103  7527.65782     0.05492     0.11277     1.47072
  Fock        0.00000     0.00000     0.00000     0.00000     0.00000     0.00000
  vdW       -12.19547   -12.19039    -7.85565    -0.00024    -0.00167    -0.00398
  Total     -31.39453   -31.31306    -3.35516    -0.00195     0.06873     0.04234
  in kB     -33.09576   -33.00989    -3.53697    -0.00205     0.07245     0.04463

 VOLUME and BASIS-vectors are now :
  energy-cutoff  :      600.00
  volume of cell :     1519.82
      direct lattice vectors                 reciprocal lattice vectors
     8.440984654  0.000000000  0.000000000     0.118469591  0.000000000  0.000000000
     0.000000000  8.440984654  0.000000000     0.000000000  0.118469591  0.000000000
     0.000000000  0.000000000 21.330738491     0.000000000  0.000000000  0.046880702

  length of vectors
     8.440984654  8.440984654 21.330738491     0.118469591  0.118469591  0.046880702

 FORCES acting on ions:
    Electron-Ion                     Ewald-Force                    Non-Local-Force
   0.690E+02 0.736E+00 -.916E+03   -.689E+02 -.748E+00 0.916E+03   -.310E-01 0.178E-01 -.149E+00
   -.692E+02 -.734E+00 -.862E+03   0.695E+02 0.746E+00 0.862E+03   -.418E+00 -.148E-01 0.209E+00
   0.181E+02 0.464E+02 -.231E+03   -.190E+02 -.508E+02 0.228E+03   0.973E+00 0.446E+01 0.301E+01
   0.194E+02 -.467E+02 -.231E+03   -.205E+02 0.512E+02 0.229E+03   0.110E+01 -.450E+01 0.289E+01
   0.456E+02 0.122E+01 -.234E+03   -.492E+02 -.133E+01 0.238E+03   0.366E+01 0.108E+00 -.406E+01
   -.448E+02 -.127E+01 -.211E+03   0.484E+02 0.138E+01 0.207E+03   -.353E+01 -.110E+00 0.424E+01
   -.195E+02 0.463E+02 -.213E+03   0.207E+02 -.507E+02 0.216E+03   -.113E+01 0.442E+01 -.301E+01
   -.181E+02 -.459E+02 -.213E+03   0.191E+02 0.503E+02 0.216E+03   -.993E+00 -.437E+01 -.314E+01
   -.911E-01 -.233E+00 0.208E+04   0.910E-01 0.233E+00 -.207E+04   0.898E-04 0.136E-03 -.704E+01
   0.158E+00 0.373E-02 0.208E+04   -.159E+00 -.390E-02 -.207E+04   0.155E-03 0.143E-03 -.705E+01
   -.291E+00 0.108E-01 0.723E+03   0.290E+00 -.132E-01 -.723E+03   0.486E-03 0.159E-02 0.540E+00
   0.641E+00 -.872E+00 0.724E+03   -.639E+00 0.869E+00 -.724E+03   -.132E-02 0.157E-02 0.529E+00
   -.161E+01 -.412E+01 -.624E+03   0.161E+01 0.411E+01 0.624E+03   0.167E-02 0.522E-02 -.196E+00
   0.282E+01 0.594E-01 -.627E+03   -.282E+01 -.598E-01 0.627E+03   -.211E-02 0.248E-03 -.199E+00
   -.460E+01 0.102E+00 -.198E+04   0.460E+01 -.100E+00 0.198E+04   -.264E-02 -.719E-03 0.599E+01
   0.170E+02 -.197E+02 -.196E+04   -.171E+02 0.197E+02 0.196E+04   0.549E-01 0.193E-01 0.603E+01
   -.912E-01 0.233E+00 0.208E+04   0.911E-01 -.233E+00 -.207E+04   0.109E-03 0.102E-03 -.704E+01
   0.166E+00 -.414E-02 0.208E+04   -.165E+00 0.400E-02 -.207E+04   -.805E-03 0.922E-04 -.705E+01
   -.355E+00 -.251E-01 0.725E+03   0.352E+00 0.228E-01 -.725E+03   0.247E-02 0.152E-02 0.501E+00
   0.635E+00 0.860E+00 0.724E+03   -.634E+00 -.862E+00 -.724E+03   -.949E-03 0.183E-02 0.528E+00
   -.162E+01 0.413E+01 -.624E+03   0.162E+01 -.413E+01 0.624E+03   0.171E-02 -.579E-02 -.198E+00
   0.436E+01 -.567E-01 -.617E+03   -.434E+01 0.572E-01 0.618E+03   -.287E-01 -.479E-03 -.360E+00
   -.113E+02 -.900E-01 -.196E+04   0.114E+02 0.912E-01 0.195E+04   -.879E-01 -.170E-02 0.602E+01
   0.172E+02 0.197E+02 -.196E+04   -.173E+02 -.197E+02 0.196E+04   0.625E-01 -.201E-01 0.603E+01
   0.909E-01 -.241E+00 0.208E+04   -.909E-01 0.239E+00 -.207E+04   -.673E-06 0.114E-02 -.705E+01
   -.159E+00 0.383E-02 0.208E+04   0.159E+00 -.400E-02 -.207E+04   -.763E-04 0.127E-03 -.704E+01
   0.284E+00 0.812E-02 0.724E+03   -.285E+00 -.118E-01 -.724E+03   0.632E-03 0.245E-02 0.513E+00
   -.644E+00 -.938E+00 0.724E+03   0.641E+00 0.932E+00 -.725E+03   0.266E-02 0.379E-02 0.536E+00
   0.163E+01 -.565E+01 -.617E+03   -.163E+01 0.563E+01 0.617E+03   -.129E-02 0.288E-01 -.239E+00
   -.281E+01 0.638E-01 -.624E+03   0.281E+01 -.642E-01 0.625E+03   0.659E-04 0.254E-03 -.197E+00
   0.465E+01 0.330E+00 -.197E+04   -.465E+01 -.328E+00 0.196E+04   0.230E-02 -.166E-02 0.600E+01
   -.172E+02 -.268E+02 -.195E+04   0.172E+02 0.269E+02 0.194E+04   -.500E-01 -.409E-01 0.604E+01
   0.910E-01 0.240E+00 0.208E+04   -.910E-01 -.239E+00 -.207E+04   -.934E-05 -.855E-03 -.705E+01
   -.166E+00 -.426E-02 0.208E+04   0.165E+00 0.413E-02 -.207E+04   0.864E-03 0.111E-03 -.705E+01
   0.352E+00 -.175E-01 0.726E+03   -.350E+00 0.149E-01 -.726E+03   -.176E-02 0.164E-02 0.560E+00
   -.639E+00 0.926E+00 0.725E+03   0.635E+00 -.925E+00 -.725E+03   0.212E-02 -.235E-03 0.535E+00
   0.163E+01 0.564E+01 -.617E+03   -.163E+01 -.561E+01 0.617E+03   -.147E-02 -.286E-01 -.246E+00
   -.440E+01 -.630E-01 -.613E+03   0.437E+01 0.641E-01 0.614E+03   0.309E-01 -.732E-03 -.296E+00
   0.120E+02 -.507E+00 -.189E+04   -.121E+02 0.521E+00 0.189E+04   0.747E-01 -.105E-01 0.579E+01
   -.174E+02 0.269E+02 -.195E+04   0.175E+02 -.269E+02 0.194E+04   -.574E-01 0.399E-01 0.604E+01
   -.239E+00 -.688E+00 0.542E+03   0.241E+00 0.686E+00 -.542E+03   -.303E-02 0.420E-02 -.970E-01
   0.472E+00 0.705E-02 0.542E+03   -.467E+00 -.371E-02 -.542E+03   -.753E-02 -.447E-02 -.103E+00
   -.649E-01 0.323E-02 0.156E+04   0.650E-01 -.314E-02 -.157E+04   -.134E-03 -.127E-03 0.349E+01
   0.122E+00 -.174E+00 0.156E+04   -.121E+00 0.173E+00 -.157E+04   -.699E-03 0.494E-03 0.349E+01
   -.594E+01 -.117E+02 -.150E+04   0.594E+01 0.117E+02 0.150E+04   -.208E-02 0.116E-01 -.501E+01
   0.731E+01 0.147E+00 -.151E+04   -.729E+01 -.150E+00 0.151E+04   -.173E-01 0.366E-02 -.501E+01
   -.964E+00 0.290E-01 -.466E+03   0.966E+00 -.272E-01 0.466E+03   -.577E-03 -.218E-02 0.251E+00
   0.264E+01 -.335E+01 -.461E+03   -.263E+01 0.333E+01 0.461E+03   -.449E-02 0.195E-01 0.275E+00
   -.240E+00 0.681E+00 0.542E+03   0.242E+00 -.672E+00 -.542E+03   -.297E-02 -.120E-01 -.971E-01
   0.518E+00 -.181E-01 0.543E+03   -.528E+00 0.213E-01 -.543E+03   0.132E-01 -.426E-02 -.111E+00
   -.717E-01 -.306E-02 0.156E+04   0.715E-01 0.317E-02 -.157E+04   0.329E-03 -.151E-03 0.349E+01
   0.121E+00 0.174E+00 0.156E+04   -.121E+00 -.173E+00 -.157E+04   -.608E-03 -.777E-03 0.349E+01
   -.595E+01 0.117E+02 -.150E+04   0.595E+01 -.117E+02 0.150E+04   -.292E-02 -.834E-02 -.501E+01
   0.211E+02 -.168E+00 -.148E+04   -.210E+02 0.166E+00 0.148E+04   -.102E+00 0.246E-02 -.509E+01
   -.144E+01 -.446E-01 -.459E+03   0.144E+01 0.447E-01 0.459E+03   -.101E-01 0.139E-03 0.275E+00
   0.264E+01 0.335E+01 -.461E+03   -.263E+01 -.333E+01 0.461E+03   -.358E-02 -.185E-01 0.275E+00
   0.235E+00 -.737E+00 0.543E+03   -.234E+00 0.750E+00 -.543E+03   -.281E-03 -.172E-01 -.107E+00
   -.474E+00 0.741E-02 0.542E+03   0.471E+00 -.386E-02 -.542E+03   0.460E-02 -.464E-02 -.102E+00
   0.649E-01 0.296E-02 0.156E+04   -.650E-01 -.290E-02 -.157E+04   0.326E-04 -.101E-03 0.349E+01
   -.121E+00 -.180E+00 0.156E+04   0.121E+00 0.180E+00 -.157E+04   0.566E-03 0.869E-03 0.349E+01
   0.603E+01 -.259E+02 -.147E+04   -.603E+01 0.259E+02 0.148E+04   -.147E-02 0.875E-01 -.497E+01
   -.736E+01 0.162E+00 -.150E+04   0.735E+01 -.165E+00 0.151E+04   0.146E-01 0.432E-02 -.501E+01
   0.957E+00 0.621E-01 -.461E+03   -.960E+00 -.644E-01 0.461E+03   0.298E-02 0.305E-02 0.291E+00
   -.264E+01 -.385E+01 -.459E+03   0.264E+01 0.383E+01 0.459E+03   0.363E-02 0.116E-01 0.278E+00
   0.236E+00 0.721E+00 0.543E+03   -.236E+00 -.725E+00 -.543E+03   -.156E-03 0.633E-02 -.106E+00
   -.520E+00 -.193E-01 0.544E+03   0.531E+00 0.228E-01 -.543E+03   -.147E-01 -.451E-02 -.116E+00
   0.718E-01 -.252E-02 0.156E+04   -.715E-01 0.272E-02 -.157E+04   -.363E-03 -.265E-03 0.348E+01
   -.121E+00 0.180E+00 0.156E+04   0.121E+00 -.180E+00 -.157E+04   0.484E-03 -.118E-02 0.349E+01
   0.606E+01 0.261E+02 -.147E+04   -.606E+01 -.260E+02 0.148E+04   -.761E-03 -.802E-01 -.497E+01
   -.216E+02 -.179E+00 -.145E+04   0.216E+02 0.176E+00 0.146E+04   0.757E-01 0.423E-02 -.500E+01
   0.146E+01 -.339E-01 -.455E+03   -.147E+01 0.307E-01 0.454E+03   0.831E-02 0.303E-02 0.952E-01
   -.265E+01 0.385E+01 -.459E+03   0.264E+01 -.384E+01 0.458E+03   0.313E-02 -.912E-02 0.279E+00
   0.414E+00 -.914E-02 0.171E+02   0.156E-12 0.107E-13 0.392E-11   -.414E+00 0.697E-02 -.171E+02

 POSITION                                       TOTAL-FORCE (eV/Angst)
      4.25793      4.20000     16.91917         0.084239      0.005337      0.065621
      5.70121      4.21492     17.43265        -0.090154     -0.002719      0.001509
      4.06804      3.31080     16.29628        -0.003110     -0.017876      0.002396
      4.04156      5.09931     16.31984        -0.003128      0.013222      0.001661
      3.52708      4.17829     17.74100         0.011012      0.000848     -0.033636
      6.40800      4.23739     16.59029         0.002341      0.000402     -0.012101
      5.92111      3.32213     18.03645         0.004546      0.020356     -0.023067
      5.89344      5.09607     18.06238         0.007422     -0.019420     -0.025377
      0.00000      6.33074      7.50000        -0.000036     -0.000032      0.377227
      2.11025      0.00000      7.50000        -0.000076      0.000003      0.377471
      0.00000      0.00000      9.61025        -0.000189     -0.000718      0.095782
      2.11025      6.33074      9.61025         0.000623     -0.001247      0.097349
      8.44073      6.33017     11.73496        -0.000045     -0.001733     -0.013874
      2.11007      8.44042     11.73519         0.000723     -0.000141     -0.015326
      8.44086      8.43997     13.84111        -0.001737      0.000977     -0.041284
      2.10911      6.32917     13.83863        -0.000443     -0.005372     -0.037125
      0.00000      2.11025      7.50000        -0.000024      0.000069      0.377259
      2.11025      4.22049      7.50000         0.000242     -0.000013      0.377645
      0.00000      4.22049      9.61025        -0.000777     -0.000696      0.099779
      2.11025      2.11025      9.61025         0.000480     -0.000340      0.097175
      8.44073      2.10982     11.73490         0.000144      0.000955     -0.013462
      2.11126      4.21992     11.73629        -0.000084      0.000076     -0.009904
      0.00116      4.21958     13.83714         0.003853     -0.000485     -0.033009
      2.10908      2.10975     13.83851        -0.001637      0.006740     -0.036898
      4.22049      6.33074      7.50000         0.000031     -0.000326      0.377515
      6.33074      0.00000      7.50000         0.000077     -0.000013      0.377311
      4.22049      0.00000      9.61025        -0.000282     -0.001171      0.099178
      6.33074      6.33074      9.61025        -0.001299     -0.002088      0.097428
      4.22035      6.32892     11.73616        -0.000047     -0.000030     -0.011667
      6.33056      8.44039     11.73533        -0.000663     -0.000085     -0.014604
      4.22010      8.43985     13.83766         0.001260      0.000036     -0.031617
      6.33104      6.32983     13.83944        -0.000889      0.000243     -0.034315
      4.22049      2.11025      7.50000         0.000024      0.000294      0.377468
      6.33074      4.22049      7.50000        -0.000230      0.000010      0.377814
      4.22049      4.22049      9.61025         0.000642     -0.000887      0.103293
      6.33074      2.11025      9.61025        -0.001178      0.000387      0.097228
      4.22037      2.11068     11.73615        -0.000117      0.001347     -0.012533
      6.32950      4.21990     11.73675        -0.000452      0.000379     -0.013509
      4.21911      4.21938     13.85365        -0.003225      0.003481     -0.071292
      6.33117      2.10905     13.83930         0.000509      0.001476     -0.034600
      0.00000      6.33074      9.61025        -0.000770      0.001377      0.078172
      2.11025      0.00000      9.61025        -0.002024     -0.001109      0.077490
      0.00000      0.00000      7.50000        -0.000054     -0.000001     -0.517512
      2.11025      6.33074      7.50000        -0.000174      0.000116     -0.517680
      8.44044      6.32952     13.88698        -0.001997      0.002735      0.020773
      2.10973      8.43998     13.88705         0.000193      0.000942      0.020654
      8.44068      8.44046     11.73025         0.000791     -0.000338     -0.000052
      2.10989      6.33082     11.72973         0.000909      0.000669     -0.001590
      0.00000      2.11025      9.61025        -0.000817     -0.003217      0.077849
      2.11025      4.22049      9.61025         0.003642     -0.001021      0.080851
      0.00000      4.22049      7.50000         0.000093     -0.000018     -0.517634
      2.11025      2.11025      7.50000        -0.000129     -0.000142     -0.517664
      8.44046      2.10952     13.88682        -0.001968     -0.001535      0.020995
      2.10781      4.21948     13.88157        -0.006491      0.000336      0.011749
      8.44068      4.21998     11.72868        -0.002646      0.000284     -0.002139
      2.10982      2.10904     11.72965         0.001887     -0.000423     -0.001291
      4.22049      6.33074      9.61025        -0.000006     -0.004460      0.081198
      6.33074      0.00000      9.61025         0.001279     -0.001075      0.078497
      4.22049      0.00000      7.50000        -0.000002     -0.000009     -0.517508
      6.33074      6.33074      7.50000         0.000144      0.000249     -0.517633
      4.22034      6.33233     13.88613        -0.000982      0.008574      0.022363
      6.33073      8.43995     13.88762        -0.000334      0.001159      0.018829
      4.22040      8.44028     11.72907         0.000169      0.000798      0.002296
      6.33072      6.33073     11.73011        -0.001068     -0.001955      0.000306
      4.22049      2.11025      9.61025         0.000063      0.001774      0.081473
      6.33074      4.22049      9.61025        -0.003896     -0.001077      0.081578
      4.22049      4.22049      7.50000        -0.000073     -0.000042     -0.518076
      6.33074      2.11025      7.50000         0.000135     -0.000309     -0.517650
      4.22040      2.10623     13.88554        -0.000956     -0.006464      0.023167
      6.33242      4.21947     13.88436         0.006828      0.000619      0.013773
      4.22056      4.21990     11.73288         0.001899     -0.000182     -0.004966
      6.33080      2.10908     11.73003        -0.001991      0.002496      0.000472
    total drift:                               -0.000583     -0.002173     -0.003570

  FREE ENERGIE OF THE ION-ELECTRON SYSTEM (eV)
  free  energy   TOTEN  =      -422.30338904 eV

  energy  without entropy=     -422.30338904  energy(sigma->0) =     -422.30338904