 vasp.6.3.0 20Jan22 (build Mar 11 2022 13:48:16) complex

 executed on             LinuxIFC date 2024.01.25  14:15:47

 INCAR:
   SYSTEM = MgO-rocksalt
   ISMEAR = 0
   SIGMA = 0.05
   EDIFF = 1E-7
   ALGO = ALL
   ISTART = 0
   IBRION = 2
   NSW = 1000
   ISYM = 0
   ISIF = 2
   EDIFFG = -0.01
   DIPOL = 0.5 0.5 0.5
   IDIPOL = 3
   LDIPOL = .TRUE.
   GGA = RE
   AGGAC = 0.0
   LUSE_VDW = .TRUE.
   LASPH = .TRUE.
   ENCUT = 600
   PREC = Accurate
   LASPH = .TRUE.
   LREAL = .FALSE.
   ISPIN = 1
   NELM = 200
   NELMIN = 8
   NCORE = 2
   KPAR = 1
   LWAVE = .FALSE.
   LCHARG = .FALSE.

 POTCAR:    PAW_PBE Ti_pv 07Sep2000
 POTCAR:    PAW_PBE O 08Apr2002
|           W    W    AA    RRRRR   N    N  II  N    N   GGGG   !!!           |
|           W    W   A  A   R    R  NN   N  II  NN   N  G    G  !!!           |
|           W    W  A    A  R    R  N N  N  II  N N  N  G       !!!           |
|           W WW W  AAAAAA  RRRRR   N  N N  II  N  N N  G  GGG   !            |
|           WW  WW  A    A  R   R   N   NN  II  N   NN  G    G                |
|           W    W  A    A  R    R  N    N  II  N    N   GGGG   !!!           |
|     For optimal performance we recommend to set                             |
|       NCORE = 2 up to number-of-cores-per-socket                            |
|     This setting can greatly improve the performance of VASP for DFT.       |
|     The default, NCORE=1 might be grossly inefficient on modern             |
|     multi-core architectures or massively parallel machines. Do your        |
|     Unfortunately you need to use the default for GW and RPA                |
|     calculations (for HF NCORE is supported but not extensively tested      |
|     yet).                                                                   |

   TITEL  = PAW_PBE Ti_pv 07Sep2000
   POMASS =   47.880; ZVAL   =   10.000    mass and valenz
   ENMAX  =  222.335; ENMIN  =  166.751 eV

   TITEL  = PAW_PBE O 08Apr2002
   POMASS =   16.000; ZVAL   =    6.000    mass and valenz
   ENMAX  =  400.000; ENMIN  =  300.000 eV

  PAW_PBE Ti_pv 07Sep2000               :
  PAW_PBE O 08Apr2002                   :

 POSCAR: Ti  O
  positions in direct lattice
  velocities in cartesian coordinates
 exchange correlation table for  LEXCH =       40
   RHO(1)=    0.500       N(1)  =     2000
   RHO(2)=  100.500       N(2)  =     4000

 ion  position               nearest neighbor table
   1  0.750  0.625  0.285-  82 1.98 142 1.98 141 1.98  81 1.98  84 2.02 163 2.02  11 3.00  31 3.00

   2  0.000  0.750  0.285-  83 1.98  84 1.98 103 1.98 104 1.98  85 2.02  32 3.00  12 3.00
   3  0.000  0.625  0.393-  85 1.98 145 1.98  86 1.98 146 1.98  87 2.02  88 2.02  13 3.00  33 3.00

[...]

  80  0.501  0.500  0.710- 234 1.84 239 1.97 179 1.97 240 1.98 180 1.98  70 2.99  50 2.99
  81  0.750  0.750  0.243-   1 1.98  11 1.98
  82  0.750  0.750  0.327-   1 1.98  11 1.98   4 2.02
  83  0.098  0.625  0.285-   2 1.98  32 1.98  41 2.02
  84  0.902  0.625  0.285-   2 1.98  32 1.98   1 2.02
  85  0.000  0.750  0.351-   3 1.98  13 1.98   2 2.02
  86  0.000  0.750  0.434-   3 1.98  13 1.98   6 2.02
  87  0.848  0.625  0.393-   4 1.98  34 1.98   3 2.02
  88  0.152  0.625  0.393-  44 1.98  74 1.98   3 2.02
  89  0.750  0.750  0.458-   5 1.98  15 1.98   4 2.02
  90  0.750  0.750  0.542-   5 1.98  15 1.98   8 2.17
  91  0.098  0.625  0.500-   6 1.98  36 1.98  45 2.02
  92  0.902  0.625  0.500-   6 1.98  36 1.98   5 2.02
  93  1.000  0.750  0.566-  17 1.92   7 1.92   6 2.05
  94  0.000  0.750  0.651-  10 1.83   7 2.05  17 2.05
  95  0.850  0.625  0.608-   7 1.87  38 2.07   8 2.07
  96  0.151  0.625  0.608-  48 1.93  78 1.93   7 2.13
  97  0.750  0.750  0.673-   8 1.88   9 2.13  19 2.13
  98  0.750  0.750  0.758-   9 1.85  19 1.85
  99  0.094  0.625  0.721-  10 1.97  40 1.97  49 2.08
 100  0.907  0.625  0.721-  40 1.98  10 1.98   9 2.07
 101  0.750  0.000  0.243-  11 1.98  21 1.98
 102  0.750  0.000  0.327-  11 1.98  21 1.98  14 2.02
 103  0.098  0.875  0.285-   2 1.98  12 1.98  51 2.02
 104  0.902  0.875  0.285-   2 1.98  12 1.98  11 2.02
 105  0.000  0.000  0.351-  13 1.98  23 1.98  12 2.02
 106  0.000  0.000  0.434-  13 1.98  23 1.98  16 2.02
 107  0.848  0.875  0.393-   4 1.98  14 1.98  13 2.02
 108  0.152  0.875  0.393-  44 1.98  54 1.98  13 2.02
 109  0.750  0.000  0.458-  15 1.98  25 1.98  14 2.02
 110  0.750  0.000  0.542-  15 1.98  25 1.98  18 2.17
 111  0.098  0.875  0.500-   6 1.98  16 1.98  55 2.02
 112  0.902  0.875  0.500-   6 1.98  16 1.98  15 2.02
 113  0.000  1.000  0.566-  27 1.92  17 1.92  16 2.05
 114  0.000  0.000  0.651-  20 1.83  27 2.05  17 2.05
 115  0.850  0.875  0.608-  17 1.87  18 2.07   8 2.07
 116  0.151  0.875  0.608-  48 1.93  58 1.93  17 2.13
 117  0.750  0.000  0.673-  18 1.88  29 2.13  19 2.13
 118  0.751  0.000  0.758-  19 1.85  29 1.85
 119  0.094  0.875  0.721-  10 1.97  20 1.97  59 2.08
 120  0.907  0.875  0.721-  10 1.98  20 1.98  19 2.07
 121  0.750  0.250  0.243-  21 1.98  31 1.98
 122  0.750  0.250  0.327-  21 1.98  31 1.98  24 2.02
 123  0.098  0.125  0.285-  12 1.98  22 1.98  61 2.02
 124  0.902  0.125  0.285-  12 1.98  22 1.98  21 2.02
 125  0.000  0.250  0.351-  23 1.98  33 1.98  22 2.02
 126  0.000  0.250  0.434-  23 1.98  33 1.98  26 2.02
 127  0.848  0.125  0.393-  14 1.98  24 1.98  23 2.02
 128  0.152  0.125  0.393-  54 1.98  64 1.98  23 2.02
 129  0.750  0.250  0.458-  25 1.98  35 1.98  24 2.02
 130  0.750  0.250  0.542-  25 1.98  35 1.98  28 2.17
 131  0.098  0.125  0.500-  16 1.98  26 1.98  65 2.02
 132  0.902  0.125  0.500-  16 1.98  26 1.98  25 2.02
 133  0.000  0.250  0.566-  37 1.92  27 1.92  26 2.05
 134  0.000  0.250  0.651-  30 1.83  27 2.05  37 2.05
 135  0.850  0.125  0.608-  27 1.87  28 2.07  18 2.07
 136  0.151  0.125  0.608-  58 1.93  68 1.93  27 2.13
 137  0.750  0.250  0.673-  28 1.88  39 2.13  29 2.13
 138  0.750  0.250  0.758-  39 1.85  29 1.85
 139  0.094  0.125  0.721-  20 1.97  30 1.97  69 2.08
[...]
 226  0.500  0.500  0.434-  43 1.98  73 1.98  76 2.02
 227  0.348  0.375  0.393-  64 1.98  74 1.98  73 2.02
 228  0.652  0.375  0.393-  24 1.98  34 1.98  73 2.02
 229  0.250  0.500  0.458-  45 1.98  75 1.98  74 2.02
 230  0.250  0.500  0.542-  45 1.98  75 1.98  78 2.17
 231  0.598  0.375  0.500-  66 1.98  76 1.98  35 2.02
 232  0.402  0.375  0.500-  66 1.98  76 1.98  75 2.02
 233  0.500  0.500  0.566-  77 1.92  47 1.92  76 2.05
 234  0.500  0.500  0.651-  80 1.84  77 2.05  47 2.05
 235  0.350  0.375  0.608-  77 1.87  78 2.07  68 2.07
 236  0.651  0.375  0.608-  38 1.93  28 1.93  77 2.13
 237  0.250  0.500  0.673-  78 1.88  79 2.13  49 2.13
 238  0.251  0.500  0.757-  49 1.85  79 1.85
 239  0.594  0.375  0.720-  70 1.97  80 1.97  39 2.08
 240  0.407  0.375  0.721-  70 1.97  80 1.98  79 2.07

IMPORTANT INFORMATION: All symmetrisations will be switched off!
NOSYMM: (Re-)initialisation of all symmetry stuff for point group C_1.

                                     Primitive cell

  volume of cell :    4895.9617

  direct lattice vectors                    reciprocal lattice vectors
    13.251680751  0.000000000  0.000000000     0.075462126  0.000000000  0.000000000
     0.000000000 11.981436613  0.000000000     0.000000000  0.083462445  0.000000000
     0.000000000  0.000000000 30.836008487     0.000000000  0.000000000  0.032429619

  length of vectors
    13.251680751 11.981436613 30.836008487     0.075462126  0.083462445  0.032429619

  position of ions in fractional coordinates (direct lattice)
     0.750000000  0.625000000  0.285126523
     0.000000000  0.750000000  0.285126523
     0.000000000  0.625000000  0.392563261
     0.750000000  0.750000000  0.392563261
     0.750000000  0.625000000  0.500000000
     0.000000000  0.750000000  0.500000000
     0.990860722  0.625010312  0.605211217
     0.742984532  0.750001809  0.612102535
     0.750989427  0.625054114  0.722285544
     0.000805496  0.750059263  0.709966652
     0.750000000  0.875000000  0.285126523
     0.000000000  0.000000000  0.285126523
     0.000000000  0.875000000  0.392563261
     0.750000000  0.000000000  0.392563261
     0.750000000  0.875000000  0.500000000
     0.000000000  0.000000000  0.500000000
     0.990855767  0.875005284  0.605202357
     0.743033464  0.999998594  0.612136516
     0.750833206  0.875005954  0.722394568
     0.000763672  0.999999268  0.709961820
     0.750000000  0.125000000  0.285126523
     0.000000000  0.250000000  0.285126523
     0.000000000  0.125000000  0.392563261
     0.750000000  0.250000000  0.392563261
     0.750000000  0.125000000  0.500000000
     0.000000000  0.250000000  0.500000000
     0.990914333  0.124988265  0.605199383
     0.743116819  0.250008033  0.612107166
     0.750756218  0.125005460  0.722384311
     0.000722150  0.249936450  0.709950987
     0.750000000  0.375000000  0.285126523
     0.000000000  0.500000000  0.285126523
     0.000000000  0.375000000  0.392563261
     0.750000000  0.500000000  0.392563261
     0.750000000  0.375000000  0.500000000
     0.000000000  0.500000000  0.500000000
     0.990953166  0.374996140  0.605194993
     0.743080127  0.499995664  0.612096310
     0.750910787  0.374944737  0.722288471
     0.000764450  0.500001086  0.709968481
     0.250000000  0.625000000  0.285126523
     0.500000000  0.750000000  0.285126523
     0.500000000  0.625000000  0.392563261
     0.250000000  0.750000000  0.392563261
     0.250000000  0.625000000  0.500000000
     0.500000000  0.750000000  0.500000000
     0.490850053  0.624913445  0.605311704
     0.242944062  0.750022121  0.612106072
     0.250874750  0.625057540  0.722296602
     0.500809930  0.749926844  0.709931604
     0.250000000  0.875000000  0.285126523
     0.500000000  0.000000000  0.285126523
     0.500000000  0.875000000  0.392563261
     0.250000000  0.000000000  0.392563261
     0.250000000  0.875000000  0.500000000
     0.500000000  0.000000000  0.500000000
     0.490837474  0.874953042  0.605175292
     0.243079777  0.000002685  0.612139752
     0.251029238  0.875004782  0.722394876
     0.500773699  0.000002913  0.709929401
[...]
     0.500000000  0.500000000  0.434467643
     0.347509432  0.375000000  0.392563261
     0.652490568  0.375000000  0.392563261
     0.250000000  0.500000000  0.458095618
     0.250000000  0.500000000  0.541904382
     0.597509432  0.375000000  0.500000000
     0.402490568  0.375000000  0.500000000
     0.500014597  0.499996645  0.566425033
     0.500030242  0.499976497  0.650659698
     0.350018309  0.375018064  0.608079048
     0.651255145  0.374995887  0.608490286
     0.249942581  0.499992468  0.673120098
     0.250827902  0.499976828  0.757445727
     0.594362019  0.374807285  0.720468009
     0.406754022  0.374760634  0.720509426

  ion indices of the primitive-cell ions
   primitive index   ion index
                 1           1
                 2           2
                 3           3
                 4           4
                 5           5
                 6           6
                 7           7
                 8           8
                 9           9
                10          10
                11          11
                12          12
                13          13
                14          14
[...]
   3.32655932 10.48381433 22.27577452
   6.63609319  0.00003490 21.89138904
[...]
   6.62584038  5.99071831 13.39724792
   4.60508406  4.49303873 12.10508406
   8.64659670  4.49303873 12.10508406
   3.31292019  5.99071831 14.12584038
   3.31292019  5.99071831 16.71016811
   7.91800424  4.49303873 15.41800424
   5.33367651  4.49303873 15.41800424
   6.62603381  5.99067811 17.46628714
   6.62624113  5.99043671 20.06374797
   4.63833089  4.49325517 18.75073068
   8.63022526  4.49298945 18.76341163
   3.31215929  5.99062806 20.75633706
   3.32389129  5.99044068 23.35660286
   7.87629573  4.49072973 22.21635765
   5.39017445  4.49017078 22.21763478

--------------------------------------- Iteration      FINAL  ---------------------------------------

--------------------OUTCAR has been truncated-------------------------

[...]

--------------------OUTCAR has been truncated-------------------------

  FORCE on cell =-STRESS in cart. coord.  units (eV):
  Direction    XX          YY          ZZ          XY          YZ          ZX
  Alpha Z  4468.19931  4468.19931  4468.19931
  Ewald  938393.40231956633.20816************    -0.00443     0.00808    15.75373
  Hartree979238.99453989330.44461************    -0.00184     0.00529     8.65378
  E(xc)   -8791.97524 -8765.23718 -8791.45918    -0.00002     0.00001     0.03950
  Local  ************************************     0.00622    -0.01320   -24.41063
  n-local -5440.89367 -5360.49622 -5477.85911    -0.00008     0.00038     0.30772
  augment  5302.81109  5284.77919  5307.56973    -0.00002    -0.00010     0.03019
  Kinetic 28594.45389 28120.73205 28628.82040     0.00006    -0.00027    -0.95622
  Fock        0.00000     0.00000     0.00000     0.00000     0.00000     0.00000
  Total      11.75796   -32.03460   -33.68632    -0.00009     0.00019    -0.58192
  in kB       3.84773   -10.48315   -11.02367    -0.00003     0.00006    -0.19043

 VOLUME and BASIS-vectors are now :
  energy-cutoff  :      600.00
  volume of cell :     4895.96
      direct lattice vectors                 reciprocal lattice vectors
    13.251680751  0.000000000  0.000000000     0.075462126  0.000000000  0.000000000
     0.000000000 11.981436613  0.000000000     0.000000000  0.083462445  0.000000000
     0.000000000  0.000000000 30.836008487     0.000000000  0.000000000  0.032429619

  length of vectors
    13.251680751 11.981436613 30.836008487     0.075462126  0.083462445  0.032429619

 FORCES acting on ions:
    Electron-Ion                     Ewald-Force                    Non-Local-Force
   0.187E-02 -.454E-03 0.364E+04   -.194E-02 0.467E-03 -.364E+04   -.268E-04 -.208E-05 0.357E+00
   -.392E-02 -.593E-03 0.381E+04   0.388E-02 0.594E-03 -.381E+04   -.661E-05 -.235E-06 -.366E+01
   -.934E-01 -.322E-02 0.185E+04   0.941E-01 0.323E-02 -.185E+04   -.206E-03 0.835E-05 -.472E-01
   0.819E-01 -.285E-02 0.184E+04   -.822E-01 0.287E-02 -.184E+04   -.453E-03 0.832E-05 0.201E+00
   0.153E+01 -.117E-01 -.203E+02   -.155E+01 0.129E-01 0.211E+02   -.109E-02 -.748E-04 -.125E+00
   -.272E+01 -.148E-01 -.989E+01   0.277E+01 0.158E-01 0.882E+01   -.175E-01 -.359E-03 0.377E+00
   -.317E+02 0.143E-01 -.181E+04   0.316E+02 -.148E-01 0.181E+04   0.160E+00 -.118E-03 0.207E+00
   -.108E+02 -.969E-02 -.188E+04   0.107E+02 0.104E-01 0.188E+04   0.192E+00 -.125E-03 -.279E+00
   -.383E+00 -.410E-01 -.363E+04   0.394E+00 0.452E-01 0.363E+04   -.101E-01 -.961E-03 -.334E+00
   -.999E+00 0.366E-01 -.365E+04   0.100E+01 -.402E-01 0.365E+04   -.496E-02 0.664E-03 0.101E+01
   0.187E-02 -.288E-03 0.364E+04   -.194E-02 0.304E-03 -.364E+04   -.294E-04 -.283E-05 0.357E+00
   -.393E-02 0.127E-03 0.381E+04   0.389E-02 -.129E-03 -.381E+04   -.612E-05 0.163E-06 -.366E+01
   -.939E-01 -.192E-02 0.185E+04   0.946E-01 0.194E-02 -.185E+04   -.203E-03 0.541E-05 -.472E-01
   0.815E-01 0.548E-03 0.184E+04   -.818E-01 -.548E-03 -.184E+04   -.457E-03 0.243E-05 0.201E+00
   0.151E+01 -.265E-02 -.203E+02   -.153E+01 0.356E-02 0.211E+02   -.100E-02 -.727E-04 -.125E+00
   -.272E+01 0.528E-02 -.991E+01   0.276E+01 -.538E-02 0.884E+01   -.175E-01 0.408E-04 0.376E+00
   -.317E+02 0.453E-01 -.181E+04   0.316E+02 -.452E-01 0.181E+04   0.161E+00 -.502E-03 0.208E+00
   -.108E+02 0.224E-01 -.188E+04   0.107E+02 -.227E-01 0.188E+04   0.191E+00 0.283E-03 -.279E+00
   -.309E+00 -.104E-01 -.363E+04   0.316E+00 0.113E-01 0.363E+04   -.102E-01 -.528E-03 -.333E+00
   -.102E+01 -.383E-02 -.365E+04   0.102E+01 0.384E-02 0.365E+04   -.515E-02 -.311E-04 0.101E+01
   0.187E-02 0.445E-03 0.364E+04   -.194E-02 -.455E-03 -.364E+04   -.293E-04 0.197E-05 0.357E+00
   -.388E-02 0.592E-03 0.381E+04   0.384E-02 -.593E-03 -.381E+04   -.603E-05 0.212E-06 -.366E+01
   -.935E-01 0.301E-02 0.185E+04   0.942E-01 -.303E-02 -.185E+04   -.201E-03 -.468E-05 -.472E-01
   0.817E-01 0.287E-02 0.184E+04   -.820E-01 -.289E-02 -.184E+04   -.453E-03 -.807E-05 0.201E+00
   0.151E+01 0.561E-02 -.203E+02   -.152E+01 -.613E-02 0.211E+02   -.988E-03 0.395E-04 -.125E+00
   -.271E+01 0.136E-01 -.988E+01   0.275E+01 -.146E-01 0.881E+01   -.175E-01 0.366E-03 0.377E+00
   -.316E+02 -.480E-01 -.181E+04   0.316E+02 0.485E-01 0.181E+04   0.161E+00 0.304E-03 0.207E+00
   -.107E+02 0.161E-01 -.188E+04   0.106E+02 -.169E-01 0.188E+04   0.192E+00 0.918E-04 -.278E+00
   -.294E+00 -.318E-01 -.363E+04   0.300E+00 0.313E-01 0.363E+04   -.922E-02 0.265E-03 -.334E+00
   -.106E+01 -.344E-01 -.365E+04   0.106E+01 0.380E-01 0.365E+04   -.523E-02 -.670E-03 0.101E+01
   0.187E-02 0.297E-03 0.364E+04   -.194E-02 -.316E-03 -.364E+04   -.265E-04 0.293E-05 0.357E+00
   -.387E-02 -.127E-03 0.381E+04   0.383E-02 0.128E-03 -.381E+04   -.658E-05 -.139E-06 -.366E+01
   -.930E-01 0.214E-02 0.185E+04   0.938E-01 -.213E-02 -.185E+04   -.204E-03 -.958E-05 -.472E-01
   0.818E-01 -.567E-03 0.184E+04   -.821E-01 0.567E-03 -.184E+04   -.441E-03 -.249E-05 0.201E+00
   0.152E+01 0.867E-02 -.203E+02   -.154E+01 -.103E-01 0.211E+02   -.108E-02 0.105E-03 -.125E+00
   -.271E+01 -.473E-02 -.985E+01   0.276E+01 0.481E-02 0.878E+01   -.175E-01 -.312E-04 0.376E+00
   -.316E+02 -.994E-02 -.181E+04   0.316E+02 0.990E-02 0.181E+04   0.160E+00 0.303E-03 0.207E+00
   -.107E+02 -.246E-01 -.188E+04   0.106E+02 0.251E-01 0.188E+04   0.191E+00 -.255E-03 -.279E+00
   -.361E+00 0.103E+00 -.363E+04   0.371E+00 -.108E+00 0.363E+04   -.920E-02 0.139E-02 -.334E+00
   -.102E+01 0.378E-02 -.365E+04   0.102E+01 -.376E-02 0.365E+04   -.519E-02 0.111E-04 0.101E+01
   0.628E-02 -.535E-03 0.364E+04   -.617E-02 0.542E-03 -.364E+04   -.759E-04 -.166E-05 0.357E+00
   -.430E-02 -.602E-03 0.381E+04   0.424E-02 0.590E-03 -.381E+04   -.268E-05 0.159E-05 -.366E+01
   -.957E-01 -.390E-02 0.185E+04   0.964E-01 0.351E-02 -.185E+04   -.183E-03 0.746E-04 -.472E-01
   0.103E+00 -.361E-02 0.184E+04   -.103E+00 0.363E-02 -.184E+04   -.533E-03 0.631E-05 0.201E+00
   0.159E+01 -.185E-01 -.203E+02   -.160E+01 0.196E-01 0.211E+02   -.116E-02 -.544E-04 -.125E+00
   -.273E+01 -.681E-02 -.975E+01   0.278E+01 0.793E-02 0.868E+01   -.174E-01 -.445E-03 0.376E+00
   -.317E+02 0.716E-01 -.181E+04   0.317E+02 -.728E-01 0.181E+04   0.160E+00 0.404E-03 0.205E+00
   -.108E+02 0.739E-01 -.188E+04   0.106E+02 -.743E-01 0.188E+04   0.193E+00 0.580E-05 -.279E+00
   -.393E+00 -.646E-01 -.363E+04   0.398E+00 0.698E-01 0.363E+04   -.105E-01 -.116E-02 -.334E+00
   -.946E+00 -.458E-01 -.365E+04   0.949E+00 0.508E-01 0.365E+04   -.521E-02 -.103E-02 0.101E+01
   0.627E-02 -.331E-03 0.364E+04   -.617E-02 0.333E-03 -.364E+04   -.736E-04 -.144E-05 0.357E+00
   -.427E-02 0.117E-03 0.381E+04   0.422E-02 -.119E-03 -.381E+04   -.276E-05 0.162E-06 -.366E+01
   -.951E-01 -.173E-02 0.185E+04   0.957E-01 0.177E-02 -.185E+04   -.190E-03 0.871E-05 -.472E-01
   0.103E+00 0.907E-03 0.184E+04   -.103E+00 -.914E-03 -.184E+04   -.529E-03 0.106E-05 0.201E+00
   0.160E+01 -.605E-02 -.203E+02   -.162E+01 0.644E-02 0.211E+02   -.126E-02 -.240E-04 -.125E+00
   -.271E+01 0.311E-02 -.977E+01   0.276E+01 -.320E-02 0.870E+01   -.175E-01 0.378E-04 0.375E+00
   -.316E+02 -.183E-01 -.181E+04   0.316E+02 0.222E-01 0.181E+04   0.160E+00 -.611E-03 0.208E+00
   -.107E+02 0.213E-01 -.188E+04   0.106E+02 -.218E-01 0.188E+04   0.193E+00 0.320E-03 -.279E+00
   -.432E+00 -.389E-02 -.363E+04   0.441E+00 0.532E-02 0.363E+04   -.112E-01 -.565E-03 -.334E+00
   -.102E+01 -.229E-02 -.365E+04   0.102E+01 0.216E-02 0.365E+04   -.513E-02 -.651E-05 0.100E+01
[...]
   -.560E+02 0.145E-02 0.111E+04   0.602E+02 -.142E-02 -.111E+04   -.376E+01 -.263E-04 0.160E+00
   0.561E+02 0.121E-02 0.111E+04   -.602E+02 -.119E-02 -.111E+04   0.376E+01 -.132E-06 0.160E+00
   0.350E+00 -.166E-02 0.479E+03   -.360E+00 0.168E-02 -.484E+03   0.159E-01 -.437E-04 0.433E+01
   -.740E+00 -.827E-02 -.520E+03   0.103E+01 0.836E-02 0.527E+03   -.292E+00 -.174E-04 -.750E+01
   -.579E+02 0.145E-01 -.759E+01   0.629E+02 -.147E-01 0.737E+01   -.538E+01 -.413E-03 0.325E+00
   0.577E+02 0.209E-01 -.450E+01   -.626E+02 -.210E-01 0.417E+01   0.540E+01 -.855E-03 0.442E+00
   -.188E+02 -.225E-01 -.614E+03   0.206E+02 0.245E-01 0.607E+03   -.180E+01 -.198E-02 0.662E+01
   -.113E+02 0.289E-02 -.155E+04   0.125E+02 -.308E-02 0.155E+04   -.117E+01 0.852E-04 0.298E+01
   0.868E+01 -.777E-01 -.110E+04   -.103E+02 0.825E-01 0.110E+04   0.160E+01 -.354E-02 0.715E+00
   0.690E+02 -.171E-02 -.110E+04   -.765E+02 -.249E-02 0.110E+04   0.756E+01 0.576E-02 0.128E+01
   -.615E+01 -.227E-02 -.176E+04   0.672E+01 0.293E-02 0.176E+04   -.572E+00 -.763E-03 -.240E+01
   0.464E+00 0.109E-01 -.263E+04   -.516E+00 -.108E-01 0.265E+04   0.505E-01 0.482E-04 -.205E+02
   -.243E+02 0.508E-01 -.227E+04   0.303E+02 -.524E-01 0.228E+04   -.601E+01 -.455E-03 -.396E+01
   0.230E+02 0.151E-01 -.227E+04   -.287E+02 -.113E-01 0.228E+04   0.577E+01 -.583E-02 -.399E+01
   -.438E+02 -.176E-02 0.942E+02   -.243E-11 -.149E-11 -.218E-10   0.438E+02 0.177E-02 -.942E+02

 POSITION                                       TOTAL-FORCE (eV/Angst)
      9.93876      7.48840      8.79216        -0.000105      0.000011     -3.341027
      0.00000      8.98608      8.79216        -0.000048      0.000001      2.737104
      0.00000      7.48840     12.10508         0.000501      0.000009      0.492511
      9.93876      8.98608     12.10508        -0.000766      0.000028     -0.680909
      9.93876      7.48840     15.41800        -0.018473      0.001137      0.689126
      0.00000      8.98608     15.41800         0.029311      0.000585     -0.699375
     13.13015      7.48849     18.66222         0.001256     -0.000607      0.001228
      9.84567      8.98608     18.87543         0.001494      0.000527     -0.000966
      9.95002      7.48834     22.27449         0.001900      0.003129      0.001177
      0.00985      8.98613     21.89296        -0.001510     -0.002870     -0.005768
      9.93876     10.48376      8.79216        -0.000098      0.000013     -3.341013
      0.00000      0.00000      8.79216        -0.000048     -0.000001      2.737102
      0.00000     10.48376     12.10508         0.000496      0.000021      0.492559
      9.93876      0.00000     12.10508        -0.000748      0.000002     -0.680726
      9.93876     10.48376     15.41800        -0.018454      0.000848      0.690481
      0.00000      0.00000     15.41800         0.029234     -0.000058     -0.699174
     13.13006     10.48381     18.66253         0.000293     -0.000417     -0.000245
      9.84584      0.00006     18.87554         0.001345      0.000001     -0.000344
      9.95005     10.48378     22.27504        -0.001915      0.000245     -0.000849
      0.00961     -0.00001     21.89293        -0.001104     -0.000012     -0.006149
      9.93876      1.49768      8.79216        -0.000098     -0.000008     -3.341014
      0.00000      2.99536      8.79216        -0.000048     -0.000001      2.737099
      0.00000      1.49768     12.10508         0.000491     -0.000034      0.492549
      9.93876      2.99536     12.10508        -0.000763     -0.000028     -0.680861
      9.93876      1.49768     15.41800        -0.018464     -0.000487      0.690707
      0.00000      2.99536     15.41800         0.029220     -0.000570     -0.699619
     13.13049      1.49757     18.66247        -0.000827      0.000767     -0.000106
      9.84629      2.99536     18.87549         0.000004     -0.000690     -0.001076
      9.94958      1.49764     22.27512        -0.001496     -0.000184     -0.001105
      0.00924      2.99529     21.89289        -0.000853      0.002862     -0.005590
      9.93876      4.49304      8.79216        -0.000104     -0.000016     -3.341028
      0.00000      5.99072      8.79216        -0.000048      0.000001      2.737101
      0.00000      4.49304     12.10508         0.000496      0.000004      0.492504
      9.93876      5.99072     12.10508        -0.000781     -0.000002     -0.681055
      9.93876      4.49304     15.41800        -0.018482     -0.001498      0.689357
      0.00000      5.99072     15.41800         0.029291      0.000040     -0.699836
     13.13057      4.49299     18.66219         0.000258      0.000246      0.001246
      9.84609      5.99066     18.87519        -0.000263      0.000114     -0.002038
      9.94956      4.49320     22.27457         0.002225     -0.003248      0.001016
      0.00956      5.99071     21.89281        -0.001443      0.000023     -0.004250
      3.31292      7.48840      8.79216         0.000027      0.000006     -3.341006
      6.62584      8.98608      8.79216        -0.000062     -0.000010      2.737225
      6.62584      7.48840     12.10508         0.000428     -0.000308      0.493014
      3.31292      8.98608     12.10508        -0.000482      0.000021     -0.680756
      3.31292      7.48840     15.41800        -0.017862      0.001005      0.689848
      6.62584      8.98608     15.41800         0.029077      0.000670     -0.703372
      6.50413      7.48846     18.66164        -0.000487     -0.000669      0.001586
      3.21970      8.98626     18.87552        -0.000876     -0.000305     -0.002176
      3.32422      7.48826     22.27462        -0.004000      0.003848      0.000748
      6.63579      8.98584     21.89227        -0.001754      0.003852     -0.002078
      3.31292     10.48376      8.79216         0.000021      0.000000     -3.340998
      6.62584      0.00000      8.79216        -0.000062     -0.000001      2.737205
      6.62584     10.48376     12.10508         0.000431      0.000044      0.492889
      3.31292      0.00000     12.10508        -0.000496     -0.000006     -0.680656
      3.31292     10.48376     15.41800        -0.017903      0.000366      0.690705
      6.62584      0.00000     15.41800         0.029144     -0.000053     -0.700588
      6.50437     10.48368     18.66222        -0.000645      0.003251     -0.001674
      3.22030      0.00003     18.87557        -0.002004     -0.000145     -0.001050
      3.32430     10.48370     22.27510        -0.000805      0.000771     -0.000361
      6.63537      0.00000     21.89201        -0.001234     -0.000118      0.004077
[...]
      6.62584      5.99072     13.39725        -0.001103     -0.000001     -0.101634
      4.60508      4.49304     12.10508         0.420413      0.000006      0.050216
      8.64660      4.49304     12.10508        -0.419681      0.000023      0.050087
      3.31292      5.99072     14.12584         0.005509     -0.000023     -0.126856
      3.31292      5.99072     16.71017        -0.004204      0.000074     -0.045021
      7.91800      4.49304     15.41800        -0.470554     -0.000634      0.102122
      5.33368      4.49304     15.41800         0.469842     -0.000912      0.107524
      6.62553      5.99073     17.46387        -0.000108      0.000050      0.009982
      6.62699      5.99075     20.05825        -0.001079     -0.000109     -0.000166
      4.63823      4.49293     18.74995        -0.001075      0.001244     -0.000901
      8.62891      4.49298     18.76218        -0.000058      0.001563     -0.001550
      3.31329      5.99077     20.75694         0.001534     -0.000106      0.006015
      3.32094      5.99065     23.35796        -0.002039      0.000143      0.001372
      7.87449      4.49329     22.22196        -0.002874     -0.002096      0.000938
      5.39118      4.49328     22.22357         0.000940     -0.002073      0.000456
    total drift:                               -0.000772      0.000009      0.027925

  FREE ENERGIE OF THE ION-ELECTRON SYSTEM (eV)
  free  energy   TOTEN  =     -1565.95594614 eV

  energy  without entropy=    -1565.95594614  energy(sigma->0) =    -1565.95594614

 d Force = 0.2305468E-05[ 0.290E-06, 0.432E-05]  d Energy = 0.2318789E-05-0.133E-07
 d Force = 0.3385717E+01[ 0.339E+01, 0.339E+01]  d Ewald  = 0.3385717E+01 0.244E-08

 reached required accuracy - stopping structural energy minimisation