 vasp.6.4.2 20Jul23 (build Feb 22 2024 13:53:45) complex
 executed on              LinuxNV date 2024.08.27  18:06:33
 OpenACC runtime initialized ...    4 GPUs detected

 INCAR:
   SYSTEM = Oxide-Surface
   ISMEAR = 0
   SIGMA = 0.05
   EDIFF = 1E-5
   ALGO = Normal
   IBRION = -1
   NSW = 0
   ISYM = 0
   DIPOL = 0.5 0.5 0.5
   IDIPOL = 3
   LDIPOL = .TRUE.
   ISTART = 1
   GGA = PE
   IVDW = 263
   ENCUT = 1000
   PREC = Normal
   PRECFOCK = Normal
   LASPH = .TRUE.
   LREAL = Auto
   ISPIN = 1
   NELM = 200
   NELMIN = 8
   NCORE = 1
   KPAR = 1
   LWAVE = .FALSE.
   LCHARG = .FALSE.

 POTCAR:    PAW_PBE Mg_sv 12Apr2007
 POTCAR:    PAW_PBE O_h 06Feb2004
 POTCAR:    PAW_PBE Mg_sv 12Apr2007
   VRHFIN =Mg: p6s2

   TITEL  = PAW_PBE Mg_sv 12Apr2007
   POMASS =   24.305; ZVAL   =   10.000    mass and valenz
   ENMAX  =  495.223; ENMIN  =  371.417 eV

   TITEL  = PAW_PBE O_h 06Feb2004
   POMASS =   16.000; ZVAL   =    6.000    mass and valenz
   ENMAX  =  700.000; ENMIN  =  500.000 eV

 Optimization of the real space projectors (new method)

 maximal supplied QI-value         = 22.11
 optimisation between [QCUT,QGAM] = [ 16.14, 32.28] = [ 72.95,291.79] Ry
 Optimized for a Real-space Cutoff    0.98 Angstroem

   l    n(q)    QCUT    max X(q) W(low)/X(q) W(high)/X(q)  e(spline)
   0      9    16.140     8.730    0.14E-04    0.12E-04    0.27E-07
   0      9    16.140     8.910    0.19E-04    0.17E-04    0.41E-07
   1      9    16.140     2.513    0.16E-04    0.28E-04    0.54E-07
   1      9    16.140     3.341    0.27E-04    0.13E-03    0.17E-06
   2      9    16.140     3.683    0.18E-03    0.21E-03    0.81E-07
 Optimization of the real space projectors (new method)

 maximal supplied QI-value         = 34.20
 optimisation between [QCUT,QGAM] = [ 16.08, 32.15] = [ 72.37,289.48] Ry
 Optimized for a Real-space Cutoff    0.71 Angstroem

   l    n(q)    QCUT    max X(q) W(low)/X(q) W(high)/X(q)  e(spline)
   0      7    16.076   280.207    0.42E-03    0.69E-03    0.60E-07
   0      7    16.076   228.978    0.42E-03    0.69E-03    0.61E-07
   1      6    16.076    86.127    0.11E-03    0.66E-03    0.10E-06
   1      6    16.076    65.368    0.11E-03    0.65E-03    0.10E-06
  PAW_PBE Mg_sv 12Apr2007               :
  PAW_PBE O_h 06Feb2004                 :

 POSCAR: Mg  O
  positions in direct lattice
 exchange correlation table for  LEXCH =        8
   RHO(1)=    0.500       N(1)  =     2000
   RHO(2)=  100.500       N(2)  =     4000

 ion  position               nearest neighbor table
   1  0.000  0.750  0.252-
   2  0.250  0.000  0.252-
   3  0.000  0.000  0.376-
   4  0.250  0.750  0.376-
   5  1.000  0.750  0.499-
   6  0.252  0.001  0.502-
   7  0.000  0.003  0.624-
   8  0.237  0.750  0.623-  37 2.00
   9  0.000  0.250  0.252-
  10  0.250  0.500  0.252-
  11  0.000  0.500  0.376-
  12  0.250  0.250  0.376-
  13  0.000  0.250  0.500-
  14  0.252  0.500  0.502-
  15  0.000  0.498  0.624-
  16  0.248  0.250  0.625-
  17  0.500  0.750  0.252-
  18  0.750  0.000  0.252-
  19  0.500  0.000  0.376-
  20  0.750  0.750  0.376-
  21  0.500  0.750  0.498-
  22  0.748  0.001  0.502-
  23  0.500  0.011  0.636-  61 2.02
  24  0.763  0.750  0.623-  37 2.00
  25  0.500  0.250  0.252-
  26  0.750  0.500  0.252-
  27  0.500  0.500  0.376-
  28  0.750  0.250  0.376-
  29  0.500  0.250  0.502-
  30  0.748  0.500  0.502-
  31  0.500  0.489  0.636-  61 2.02
  32  0.752  0.250  0.625-
  33  0.000  0.750  0.376-
  34  0.250  0.000  0.376-
  35  0.000  0.000  0.252-
  36  0.250  0.750  0.252-
  37  0.000  0.750  0.626-   8 2.00  24 2.00
  38  0.248  0.999  0.626-
  39  0.000  1.000  0.500-
  40  0.252  0.750  0.501-
  41  0.000  0.250  0.376-
  42  0.250  0.500  0.376-
  43  0.000  0.500  0.252-
  44  0.250  0.250  0.252-
  45  0.000  0.250  0.626-
  46  0.248  0.502  0.626-
  47  0.000  0.501  0.500-
  48  0.251  0.250  0.501-
  49  0.500  0.750  0.376-
  50  0.750  0.000  0.376-
  51  0.500  0.000  0.252-
  52  0.750  0.750  0.252-
  53  0.500  0.750  0.633-
  54  0.752  0.999  0.626-
  55  0.500  0.998  0.502-
  56  0.748  0.750  0.501-
  57  0.500  0.250  0.376-
  58  0.750  0.500  0.376-
  59  0.500  0.500  0.252-
  60  0.750  0.250  0.252-
  61  0.500  0.250  0.628-  23 2.02  31 2.02
  62  0.752  0.502  0.626-
  63  0.500  0.503  0.502-
  64  0.749  0.250  0.501-

IMPORTANT INFORMATION: All symmetrisations will be switched off!
NOSYMM: (Re-)initialisation of all symmetry stuff for point group C_1.

                                     Primitive cell

  volume of cell :    1211.2538

  direct lattice vectors                    reciprocal lattice vectors
     8.440984654  0.000000000  0.000000000     0.118469591  0.000000000  0.000000000
     0.000000000  8.440984654  0.000000000     0.000000000  0.118469591  0.000000000
     0.000000000  0.000000000 17.000000000     0.000000000  0.000000000  0.058823529

  length of vectors
     8.440984654  8.440984654 17.000000000     0.118469591  0.118469591  0.058823529

  position of ions in fractional coordinates (direct lattice)
     0.000000012  0.750271483  0.251856836
     0.250000012  0.000271483  0.251856836
     0.000000012  0.000271483  0.375988963
     0.250000012  0.750271483  0.375988963
     0.999999988  0.750271429  0.499368462
     0.252039891  0.001028111  0.501782346
     0.000000034  0.002582678  0.624444171
     0.237174200  0.750271417  0.622958809
     0.000000012  0.250271483  0.251856836
     0.250000012  0.500271483  0.251856836
     0.000000012  0.500271483  0.375988963
     0.250000012  0.250271483  0.375988963
     0.000000025  0.250271481  0.500321386
     0.252039913  0.499514860  0.501782439
     0.000000033  0.497960304  0.624444240
     0.247666331  0.250271551  0.624926941
     0.500000012  0.750271483  0.251856836
     0.750000012  0.000271483  0.251856836
     0.500000012  0.000271483  0.375988963
     0.750000012  0.750271483  0.375988963
     0.500000031  0.750271498  0.497974947
     0.747960134  0.001028090  0.501782397
     0.500000002  0.011479476  0.636458488
     0.762825859  0.750271422  0.622958927
     0.500000012  0.250271483  0.251856836
     0.750000012  0.500271483  0.251856836
     0.500000012  0.500271483  0.375988963
     0.750000012  0.250271483  0.375988963
     0.500000005  0.250271518  0.502223723
     0.747960113  0.499514886  0.501782491
     0.500000001  0.489064058  0.636458884
     0.752333702  0.250271549  0.624926893
     0.000000012  0.750271483  0.375988963
     0.250000012  0.000271483  0.375988963
     0.000000012  0.000271483  0.251856836
     0.250000012  0.750271483  0.251856836
     0.000000034  0.750271519  0.625525054
     0.248158668  0.998774097  0.625931889
     0.000000015  0.999728517  0.499971061
     0.252314560  0.750271518  0.501128046
     0.000000012  0.250271483  0.375988963
     0.250000012  0.500271483  0.375988963
     0.000000012  0.500271483  0.251856836
     0.250000012  0.250271483  0.251856836
     0.000000017  0.250271467  0.626441503
     0.248158646  0.501768877  0.625931815
     0.000000014  0.500814411  0.499971054
     0.250533599  0.250271460  0.500674415
     0.500000012  0.750271483  0.375988963
     0.750000012  0.000271483  0.375988963
     0.500000012  0.000271483  0.251856836
     0.750000012  0.750271483  0.251856836
     0.499999972  0.750272301  0.632609027
     0.751841373  0.998774078  0.625931895
     0.500000008  0.997971315  0.502167211
     0.747685467  0.750271518  0.501128092
     0.500000012  0.250271483  0.375988963
     0.750000012  0.500271483  0.375988963
     0.500000012  0.500271483  0.251856836
     0.750000012  0.250271483  0.251856836
     0.500000019  0.250271401  0.628355073
     0.751841390  0.501768901  0.625931830
     0.500000009  0.502571702  0.502167205
     0.749466433  0.250271458  0.500674433

  ion indices of the primitive-cell ions
   primitive index   ion index
                 1           1
                 2           2
                 3           3
                 4           4
                 5           5
                 6           6
                 7           7
                 8           8
                 9           9
                10          10
                11          11
                12          12
                13          13
                14          14
                15          15
                16          16
                17          17
                18          18
                19          19
                20          20
                21          21
                22          22
                23          23
                24          24
                25          25
                26          26
                27          27
                28          28
                29          29
                30          30
                31          31
                32          32
                33          33
                34          34
                35          35
                36          36
                37          37
                38          38
                39          39
                40          40
                41          41
                42          42
                43          43
                44          44
                45          45
                46          46
                47          47
                48          48
                49          49
                50          50
                51          51
                52          52
                53          53
                54          54
                55          55
                56          56
                57          57
                58          58
                59          59
                60          60
                61          61
                62          62
                63          63
                64          64

 KPOINTS: pymatgen v2020.8.13 with grid density =

Automatic generation of k-mesh.
 Grid dimensions read from file:
 generate k-points for:    2    2    1

 Generating k-lattice:

  Cartesian coordinates                     Fractional coordinates (reciprocal lattice)
     0.059234796  0.000000000  0.000000000     0.500000000  0.000000000  0.000000000
     0.000000000  0.059234796  0.000000000     0.000000000  0.500000000  0.000000000
     0.000000000  0.000000000  0.058823529     0.000000000  0.000000000  1.000000000

  Length of vectors
     0.059234796  0.059234796  0.058823529

  Shift w.r.t. Gamma in fractional coordinates (k-lattice)
     0.000000000  0.000000000  0.000000000

 Subroutine IBZKPT returns following result:

 Found      4 irreducible k-points:

 Following reciprocal coordinates:
            Coordinates               Weight
  0.000000  0.000000  0.000000      1.000000
  0.500000  0.000000  0.000000      1.000000
  0.000000  0.500000  0.000000      1.000000
  0.500000  0.500000  0.000000      1.000000

 Following cartesian coordinates:
            Coordinates               Weight
  0.000000  0.000000  0.000000      1.000000
  0.059235  0.000000  0.000000      1.000000
  0.000000  0.059235  0.000000      1.000000
  0.059235  0.059235  0.000000      1.000000

 SYSTEM =  Oxide-Surface
 POSCAR =  Mg  O

[...]
   O          22.342          3.321          5.847          2.769          3.391          1.086
   O          22.367          3.321          5.850          2.762          3.365          1.087
   O          22.103          3.315          5.815          2.716          3.199          1.080
   O          22.348          3.321          5.848          2.766          3.377          1.087
   O          21.098          3.291          5.693          2.337          2.038          1.060
   O          20.922          3.287          5.669          2.335          2.032          1.056

  vdW correction parametrized for the method pbe

  IVDW = 263
  VDW_RADIUS =    50.000 A
  VDW_SR =     0.830
  VDW_D =     6.000
  SCSRAD =   120.000 A
  LVDWSCS = T
  LSCSGRAD = T
  LSCALER0 = T
  ITIM =  1
  Edisp (eV):  -17.52526

  FORCE on cell =-STRESS in cart. coord.  units (eV):
  Direction    XX          YY          ZZ          XY          YZ          ZX
  Alpha Z  1191.54525  1191.54525  1191.54525
  Ewald  111577.52009111600.82496************    -0.00000     0.00054    -0.00004
  Hartree128203.07398128220.57260************    -0.00000     0.00018    -0.00003
  E(xc)   -3223.41194 -3223.39295 -3229.66716     0.00000     0.00001     0.00000
  Local  ************************249559.93278     0.00000    -0.00051     0.00006
  n-local -5620.67051 -5620.54423 -5620.17273     0.00000     0.00108    -0.00000
  augment   724.09978   724.11104   714.38877    -0.00000     0.00130     0.00000
  Kinetic 12493.83915 12493.07855 12506.72573    -0.00000    -0.00142    -0.00000
  Fock        0.00000     0.00000     0.00000     0.00000     0.00000     0.00000
  vdW       -22.83772   -22.84169   -15.88096     0.00023     0.00000     0.00001
  Total     -38.39768   -38.81529    -8.92202     0.00023     0.00117     0.00001
  in kB     -50.79026   -51.34265   -11.80154     0.00030     0.00155     0.00001

 VOLUME and BASIS-vectors are now :
  energy-cutoff  :     1000.00
  volume of cell :     1211.25
      direct lattice vectors                 reciprocal lattice vectors
     8.440984654  0.000000000  0.000000000     0.118469591  0.000000000  0.000000000
     0.000000000  8.440984654  0.000000000     0.000000000  0.118469591  0.000000000
     0.000000000  0.000000000 17.000000000     0.000000000  0.000000000  0.058823529

  length of vectors
     8.440984654  8.440984654 17.000000000     0.118469591  0.118469591  0.058823529

 FORCES acting on ions
    electron-ion (+dipol)            ewald-force                    non-local-force                 convergence-correction
   0.208E-04 0.203E-03 0.245E+04   -.210E-04 -.315E-04 -.244E+04   -.242E-06 -.305E-02 -.907E+01   -.436E-07 0.597E-05 0.923E-04
   -.899E+00 -.365E+00 0.245E+04   0.914E+00 0.385E+00 -.244E+04   -.120E-01 -.171E-01 -.920E+01   -.111E-04 -.425E-05 0.107E-03
   0.995E-04 -.984E+00 0.812E+03   -.102E-03 0.102E+01 -.812E+03   0.376E-05 -.271E-01 0.487E+00   -.183E-05 -.822E-05 -.670E-03
   -.178E+01 -.711E-04 0.806E+03   0.177E+01 -.193E-03 -.807E+03   0.342E-02 -.118E-02 0.742E+00   -.104E-05 0.202E-05 -.663E-03
   0.509E-04 0.180E-03 -.786E+03   -.623E-04 -.108E-04 0.785E+03   0.939E-05 -.146E-02 0.697E+00   0.949E-06 0.267E-05 -.177E-02
   -.158E+02 0.513E+01 -.823E+03   0.172E+02 -.556E+01 0.824E+03   -.121E+01 0.256E+00 -.886E+00   0.179E-04 -.190E-04 -.170E-02
   0.199E-06 0.177E+01 -.243E+04   0.628E-05 -.964E+00 0.242E+04   -.650E-05 -.850E+00 0.836E+01   0.101E-05 -.264E-04 -.126E-02
   -.737E+02 -.133E-03 -.241E+04   0.743E+02 0.656E-04 0.240E+04   0.921E+00 -.641E-03 0.803E+01   0.780E-06 0.141E-05 -.128E-02
   0.217E-04 0.146E-03 0.245E+04   -.218E-04 0.324E-04 -.244E+04   0.883E-07 -.305E-02 -.908E+01   -.107E-07 0.414E-06 0.100E-03
   -.899E+00 0.366E+00 0.245E+04   0.914E+00 -.385E+00 -.244E+04   -.120E-01 0.134E-01 -.920E+01   -.126E-04 0.298E-05 0.112E-03
   0.100E-03 0.985E+00 0.812E+03   -.104E-03 -.102E+01 -.812E+03   0.290E-05 0.223E-01 0.487E+00   0.243E-05 0.217E-05 -.670E-03
   -.540E+01 -.433E-03 0.807E+03   0.561E+01 0.196E-03 -.808E+03   -.166E+00 -.120E-02 0.900E+00   -.519E-05 0.156E-05 -.664E-03
   0.686E-04 0.200E-03 -.802E+03   -.621E-04 0.901E-04 0.801E+03   -.109E-05 -.261E-02 0.400E+00   -.496E-05 -.281E-05 -.177E-02
   -.158E+02 -.513E+01 -.823E+03   0.172E+02 0.556E+01 0.824E+03   -.122E+01 -.259E+00 -.885E+00   0.213E-04 0.156E-04 -.170E-02
   0.120E-04 -.177E+01 -.243E+04   -.375E-05 0.964E+00 0.242E+04   -.863E-05 0.849E+00 0.836E+01   0.735E-06 0.277E-04 -.126E-02
   -.546E+01 -.385E-03 -.242E+04   0.360E+01 0.196E-04 0.241E+04   0.169E+01 0.110E-02 0.880E+01   0.125E-04 -.156E-05 -.128E-02
   -.221E-04 0.212E-03 0.245E+04   0.213E-04 -.388E-04 -.244E+04   -.102E-05 -.304E-02 -.907E+01   0.174E-05 0.214E-05 0.978E-04
   0.899E+00 -.365E+00 0.245E+04   -.914E+00 0.385E+00 -.244E+04   0.120E-01 -.171E-01 -.920E+01   0.127E-04 -.302E-05 0.105E-03
   -.102E-03 -.459E+01 0.799E+03   0.105E-03 0.485E+01 -.799E+03   -.230E-05 -.193E+00 0.671E+00   0.109E-05 -.112E-04 -.659E-03
   0.178E+01 -.711E-04 0.806E+03   -.177E+01 -.195E-03 -.807E+03   -.342E-02 -.119E-02 0.742E+00   0.377E-05 0.654E-05 -.665E-03
   -.725E-04 0.832E-03 -.848E+03   0.815E-04 -.632E-03 0.849E+03   -.349E-05 -.214E-02 0.179E+00   -.588E-05 0.395E-05 -.168E-02
   0.158E+02 0.513E+01 -.823E+03   -.172E+02 -.556E+01 0.824E+03   0.121E+01 0.256E+00 -.886E+00   -.164E-04 -.132E-04 -.170E-02
   -.447E-04 0.654E+02 -.248E+04   0.357E-04 -.674E+02 0.247E+04   0.948E-05 0.334E+00 0.953E+01   -.979E-06 0.320E-05 -.115E-02
   0.737E+02 -.128E-03 -.241E+04   -.743E+02 0.584E-04 0.240E+04   -.921E+00 -.644E-03 0.803E+01   0.283E-05 0.435E-05 -.127E-02
   -.236E-04 0.141E-03 0.244E+04   0.219E-04 0.386E-04 -.244E+04   -.370E-05 -.305E-02 -.921E+01   0.329E-05 -.847E-06 0.777E-04
   0.899E+00 0.366E+00 0.245E+04   -.914E+00 -.385E+00 -.244E+04   0.120E-01 0.134E-01 -.920E+01   0.886E-05 0.335E-05 0.963E-04
   -.104E-03 0.459E+01 0.799E+03   0.109E-03 -.485E+01 -.799E+03   -.226E-05 0.188E+00 0.671E+00   -.302E-05 0.656E-05 -.664E-03
   0.540E+01 -.438E-03 0.807E+03   -.561E+01 0.201E-03 -.808E+03   0.166E+00 -.120E-02 0.900E+00   0.340E-05 -.386E-05 -.659E-03
   -.751E-04 -.517E-03 -.829E+03   0.681E-04 0.714E-03 0.828E+03   0.476E-05 -.122E-02 0.763E+00   0.281E-05 0.356E-05 -.173E-02
   0.158E+02 -.513E+01 -.823E+03   -.172E+02 0.556E+01 0.824E+03   0.122E+01 -.259E+00 -.885E+00   -.163E-04 0.902E-05 -.170E-02
   -.403E-04 -.654E+02 -.248E+04   0.338E-04 0.674E+02 0.247E+04   0.785E-05 -.331E+00 0.952E+01   -.205E-05 -.602E-05 -.115E-02
   0.546E+01 -.407E-03 -.242E+04   -.360E+01 0.396E-04 0.241E+04   -.169E+01 0.111E-02 0.880E+01   -.124E-04 -.119E-05 -.128E-02
   0.397E-04 0.338E-05 0.489E+03   -.432E-04 -.482E-04 -.490E+03   -.541E-06 0.168E-02 0.232E+00   0.327E-05 0.359E-05 -.124E-03
   -.227E+01 -.400E+00 0.481E+03   0.223E+01 0.384E+00 -.481E+03   0.483E-01 0.193E-01 -.258E+00   0.696E-05 -.149E-04 -.144E-03
   0.132E-04 -.127E+00 0.148E+04   -.132E-04 0.139E+00 -.149E+04   0.254E-05 -.139E-01 0.264E+01   -.226E-05 0.779E-05 0.273E-03
   -.395E+00 0.128E-03 0.148E+04   0.401E+00 -.224E-04 -.149E+04   -.864E-02 0.191E-02 0.266E+01   -.116E-06 -.212E-05 0.291E-03
   -.480E-04 -.389E-04 -.148E+04   0.502E-04 0.914E-04 0.148E+04   -.334E-05 -.353E-02 -.375E+01   0.159E-05 0.166E-05 -.431E-03
   -.179E+02 0.844E+01 -.147E+04   0.190E+02 -.100E+02 0.147E+04   -.123E+01 0.207E+01 -.248E+01   0.566E-05 -.120E-05 -.442E-03
   0.489E-04 -.885E+00 -.476E+03   -.449E-04 0.707E+00 0.476E+03   0.293E-05 0.253E+00 0.730E+00   -.404E-05 -.149E-04 -.624E-03
   -.133E+02 0.265E-03 -.489E+03   0.143E+02 -.151E-03 0.489E+03   -.141E+01 0.160E-02 -.711E-01   0.249E-04 -.103E-05 -.627E-03
   0.585E-04 -.106E-03 0.487E+03   -.559E-04 0.687E-04 -.487E+03   0.217E-05 0.168E-02 0.178E+00   -.334E-05 -.103E-05 -.141E-03
   -.227E+01 0.400E+00 0.481E+03   0.223E+01 -.384E+00 -.481E+03   0.483E-01 -.156E-01 -.258E+00   0.865E-05 0.138E-04 -.146E-03
   0.527E-05 0.127E+00 0.148E+04   -.134E-04 -.139E+00 -.149E+04   0.476E-06 0.160E-01 0.264E+01   0.621E-05 -.123E-04 0.272E-03
   -.648E+00 0.830E-04 0.148E+04   0.678E+00 0.225E-04 -.148E+04   -.376E-01 0.190E-02 0.262E+01   -.193E-04 0.273E-05 0.266E-03
   0.264E-04 -.183E-03 -.148E+04   -.237E-04 -.438E-04 0.148E+04   0.469E-07 -.199E-02 -.364E+01   -.204E-05 -.416E-05 -.445E-03
   -.179E+02 -.844E+01 -.147E+04   0.190E+02 0.100E+02 0.147E+04   -.123E+01 -.207E+01 -.248E+01   0.173E-04 0.118E-05 -.448E-03
   0.459E-04 0.885E+00 -.476E+03   -.474E-04 -.707E+00 0.476E+03   0.372E-07 -.252E+00 0.731E+00   0.123E-05 0.148E-04 -.628E-03
   -.583E+01 0.145E-04 -.481E+03   0.578E+01 0.162E-03 0.480E+03   0.297E-01 0.109E-02 0.105E+01   0.190E-04 0.257E-05 -.630E-03
   -.441E-04 0.670E-04 0.489E+03   0.475E-04 -.106E-03 -.489E+03   0.249E-05 0.168E-02 0.147E+00   -.535E-05 0.318E-05 -.122E-03
   0.227E+01 -.400E+00 0.481E+03   -.223E+01 0.384E+00 -.481E+03   -.483E-01 0.193E-01 -.258E+00   -.512E-05 -.653E-05 -.141E-03
   -.127E-04 -.381E+00 0.148E+04   0.133E-04 0.415E+00 -.148E+04   -.207E-05 -.429E-01 0.262E+01   0.118E-05 -.728E-05 0.289E-03
   0.395E+00 0.125E-03 0.148E+04   -.401E+00 -.226E-04 -.149E+04   0.864E-02 0.190E-02 0.266E+01   -.121E-05 0.278E-05 0.284E-03
   -.713E-04 0.142E-02 -.147E+04   0.740E-04 -.132E-02 0.148E+04   0.363E-05 -.177E-02 -.193E+01   -.284E-05 -.329E-05 -.483E-03
   0.179E+02 0.844E+01 -.147E+04   -.190E+02 -.100E+02 0.147E+04   0.123E+01 0.207E+01 -.248E+01   -.733E-05 0.346E-05 -.448E-03
   -.493E-04 0.485E+01 -.527E+03   0.465E-04 -.592E+01 0.529E+03   0.196E-05 0.151E+01 -.217E+01   0.182E-05 -.212E-04 -.614E-03
   0.133E+02 0.256E-03 -.489E+03   -.143E+02 -.151E-03 0.489E+03   0.141E+01 0.160E-02 -.711E-01   -.201E-04 0.639E-05 -.627E-03
   -.614E-04 -.130E-03 0.477E+03   0.556E-04 0.954E-04 -.477E+03   -.424E-06 0.168E-02 -.204E+00   0.482E-05 0.105E-05 -.117E-03
   0.227E+01 0.400E+00 0.481E+03   -.223E+01 -.384E+00 -.481E+03   -.483E-01 -.156E-01 -.258E+00   -.733E-05 0.510E-05 -.144E-03
   -.902E-05 0.381E+00 0.148E+04   0.135E-04 -.415E+00 -.148E+04   -.128E-05 0.450E-01 0.262E+01   -.237E-05 0.600E-05 0.288E-03
   0.648E+00 0.875E-04 0.148E+04   -.678E+00 0.228E-04 -.148E+04   0.376E-01 0.190E-02 0.262E+01   0.173E-04 -.332E-05 0.266E-03
   -.244E-04 -.144E-02 -.146E+04   0.226E-04 0.148E-02 0.146E+04   -.230E-06 -.401E-02 -.926E+00   0.134E-05 0.398E-05 -.457E-03
   0.179E+02 -.844E+01 -.147E+04   -.190E+02 0.100E+02 0.147E+04   0.123E+01 -.207E+01 -.248E+01   -.141E-04 -.474E-05 -.443E-03
   -.481E-04 -.485E+01 -.527E+03   0.524E-04 0.592E+01 0.529E+03   0.257E-05 -.151E+01 -.217E+01   -.645E-05 0.176E-04 -.610E-03
   0.583E+01 0.447E-05 -.481E+03   -.578E+01 0.179E-03 0.480E+03   -.297E-01 0.109E-02 0.105E+01   -.181E-04 -.433E-05 -.635E-03
   -.638E-05 0.126E-02 0.475E+00   0.433E-12 -.124E-12 0.142E-11   0.117E-04 -.290E-01 -.425E+00   0.426E-05 -.965E-06 -.356E-01

 POSITION                                       TOTAL-FORCE (eV/Angst)
      0.00000      6.33303      4.28157        -0.000003     -0.002442      0.503625
      2.11025      0.00229      4.28157         0.008528      0.000995      0.521150
      0.00000      0.00229      6.39181        -0.000008      0.009420      0.103992
      2.11025      6.33303      6.39181        -0.010528     -0.001037      0.142394
      8.44098      6.33303      8.48926        -0.000013     -0.000888     -0.155261
      2.12746      0.00868      8.53030         0.131147     -0.166114     -0.152370
      0.00000      0.02180     10.61555         0.000026     -0.040178     -0.402677
      2.00198      6.33303     10.59030         1.490615     -0.000301     -0.091433
      0.00000      2.11254      4.28157        -0.000005     -0.002446      0.505873
      2.11025      4.22278      4.28157         0.008534     -0.003408      0.521156
      0.00000      4.22278      6.39181        -0.000011     -0.012856      0.104014
      2.11025      2.11254      6.39181         0.042621     -0.000996      0.099607
      0.00000      2.11254      8.50546         0.000007     -0.001898     -0.169260
      2.12747      4.21640      8.53030         0.129815      0.164207     -0.151014
      0.00000      4.20328     10.61555         0.000026      0.039955     -0.404648
      2.09055      2.11254     10.62376        -0.182219      0.001197     -0.509786
      4.22049      6.33303      4.28157        -0.000002     -0.002427      0.510467
      6.33074      0.00229      4.28157        -0.008533      0.001020      0.521156
      4.22049      0.00229      6.39181         0.000010      0.063111      0.186675
      6.33074      6.33303      6.39181         0.010532     -0.001019      0.142395
      4.22049      6.33303      8.46557         0.000001     -0.001486      1.110293
      6.31352      0.00868      8.53030        -0.131144     -0.166103     -0.152390
      4.22049      0.09690     10.81979        -0.000021     -1.602616     -1.319029
      6.43900      6.33303     10.59030        -1.490613     -0.000302     -0.091433
      4.22049      2.11254      4.28157         0.000006     -0.002424      0.525530
      6.33074      4.22278      4.28157        -0.008524     -0.003395      0.521183
      4.22049      4.22278      6.39181         0.000005     -0.066526      0.186684
      6.33074      2.11254      6.39181        -0.042624     -0.000982      0.099603
      4.22049      2.11254      8.53780        -0.000008     -0.000553     -0.330457
      6.31352      4.21640      8.53030        -0.129812      0.164195     -0.151034
      4.22049      4.12818     10.81980        -0.000022      1.606418     -1.320426
      6.35044      2.11254     10.62376         0.182219      0.001197     -0.509777
      0.00000      6.33303      6.39181         0.000000      0.002073      0.028676
      2.11025      0.00229      6.39181         0.004968      0.003514      0.067223
      0.00000      0.00229      4.28157         0.000001     -0.001944     -0.468532
      2.11025      6.33303      4.28157        -0.001071      0.002444     -0.465320
      0.00000      6.33303     10.63393         0.000005     -0.003041      0.184267
      2.09470      8.43064     10.64084        -0.077586      0.482530      0.466888
      0.00000      8.43869      8.49951         0.000004      0.073178      0.166946
      2.12978      6.33303      8.51918        -0.401120      0.002140     -0.207872
      0.00000      2.11254      6.39181         0.000000      0.002077      0.080203
      2.11025      4.22278      6.39181         0.004967      0.001081      0.067231
      0.00000      4.22278      4.28157        -0.000002      0.004535     -0.468536
      2.11025      2.11254      4.28157        -0.008532      0.002439     -0.476121
      0.00000      2.11254     10.64951         0.000004     -0.001786      0.193246
      2.09470      4.23542     10.64084        -0.075405     -0.483564      0.466833
      0.00000      4.22737      8.49951         0.000001     -0.072116      0.167085
      2.11475      2.11254      8.51147        -0.018670      0.001702      0.184235
      4.22049      6.33303      6.39181        -0.000003      0.002077     -0.105937
      6.33074      0.00229      6.39181        -0.004969      0.003514      0.067225
      4.22049      0.00229      4.28157        -0.000001     -0.009298     -0.475034
      6.33074      6.33303      4.28157         0.001070      0.002443     -0.465321
      4.22049      6.33304     10.75435        -0.000002     -0.001245      0.106241
      6.34628      8.43064     10.64084         0.077588      0.482523      0.466882
      4.22049      8.42386      8.53684        -0.000001      0.439991     -0.108816
      6.31120      6.33303      8.51918         0.401121      0.002138     -0.207878
      4.22049      2.11254      6.39181        -0.000000      0.002080      0.104216
      6.33074      4.22278      6.39181        -0.004967      0.001082      0.067234
      4.22049      4.22278      4.28157        -0.000001      0.011890     -0.475038
      6.33074      2.11254      4.28157         0.008530      0.002441     -0.476122
      4.22049      2.11254     10.68204         0.000001     -0.003530      0.579880
      6.34628      4.23542     10.64084         0.075403     -0.483557      0.466824
      4.22049      4.24220      8.53684        -0.000001     -0.440830     -0.109848
      6.32623      2.11254      8.51147         0.018668      0.001704      0.184235
    total drift:                                0.000010     -0.027773      0.013826

  FREE ENERGIE OF THE ION-ELECTRON SYSTEM (eV)
  free  energy   TOTEN  =      -389.51896856 eV

  energy  without entropy=     -389.51896856  energy(sigma->0) =     -389.51896856