 vasp.6.4.2 20Jul23 (build Feb 22 2024 13:53:45) complex
 executed on              LinuxNV date 2024.08.27  19:04:45
 OpenACC runtime initialized ...    4 GPUs detected

 INCAR:
   SYSTEM = Oxide-Surface
   ISMEAR = 0
   SIGMA = 0.05
   EDIFF = 1E-5
   ALGO = Normal
   IBRION = -1
   NSW = 0
   ISYM = 0
   DIPOL = 0.5 0.5 0.5
   IDIPOL = 3
   LDIPOL = .TRUE.
   ISTART = 1
   GGA = MK
   LUSE_VDW = .TRUE.
   PARAM1 = 0.1234
   PARAM2 = 0.711357
   ZAB_VDW = -1.8867
   AGGAC = 0.0
   ENCUT = 1000
   PREC = Normal
   PRECFOCK = Normal
   LASPH = .TRUE.
   LREAL = Auto
   ISPIN = 1
   NELM = 200
   NELMIN = 8
   NCORE = 1
   KPAR = 1
   LWAVE = .FALSE.
   LCHARG = .FALSE.

 POTCAR:    PAW_PBE Mg_sv 12Apr2007
 POTCAR:    PAW_PBE O_h 06Feb2004
|               ----> ADVICE to this user running VASP <----                  |
|     You have switched on vdW-DFT.                                           |
|     This routine was written and supplied by Jiri Klimes. We recommend      |
|     that you carefully read and cite the following publications:            |
|       J. Klimes, D.R. Bowler, A. Michelides                                 |
|          J. Phys.: Cond Matt. 22 022201 (2010)                              |
|       J. Klimes, D.R. Bowler, A. Michelides                                 |
|          Phys. Rev. B. 83, 195131 (2011)                                    |
|     and references therein.                                                 |

   TITEL  = PAW_PBE Mg_sv 12Apr2007
   POMASS =   24.305; ZVAL   =   10.000    mass and valenz
   ENMAX  =  495.223; ENMIN  =  371.417 eV

   TITEL  = PAW_PBE O_h 06Feb2004
   POMASS =   16.000; ZVAL   =    6.000    mass and valenz
   ENMAX  =  700.000; ENMIN  =  500.000 eV

 Optimization of the real space projectors (new method)

 maximal supplied QI-value         = 22.11
 optimisation between [QCUT,QGAM] = [ 16.14, 32.28] = [ 72.95,291.79] Ry
 Optimized for a Real-space Cutoff    0.98 Angstroem

   l    n(q)    QCUT    max X(q) W(low)/X(q) W(high)/X(q)  e(spline)
   0      9    16.140     8.730    0.14E-04    0.12E-04    0.27E-07
   0      9    16.140     8.910    0.19E-04    0.17E-04    0.41E-07
   1      9    16.140     2.513    0.16E-04    0.28E-04    0.54E-07
   1      9    16.140     3.341    0.27E-04    0.13E-03    0.17E-06
   2      9    16.140     3.683    0.18E-03    0.21E-03    0.81E-07
 Optimization of the real space projectors (new method)

 maximal supplied QI-value         = 34.20
 optimisation between [QCUT,QGAM] = [ 16.08, 32.15] = [ 72.37,289.48] Ry
 Optimized for a Real-space Cutoff    0.71 Angstroem

   l    n(q)    QCUT    max X(q) W(low)/X(q) W(high)/X(q)  e(spline)
   0      7    16.076   280.207    0.42E-03    0.69E-03    0.60E-07
   0      7    16.076   228.978    0.42E-03    0.69E-03    0.61E-07
   1      6    16.076    86.127    0.11E-03    0.66E-03    0.10E-06
   1      6    16.076    65.368    0.11E-03    0.65E-03    0.10E-06
|               ----> ADVICE to this user running VASP <----                  |
|     You enforced a specific xc type in the INCAR file but a different       |
|     type was found in the POTCAR file.                                      |
|     I HOPE YOU KNOW WHAT YOU ARE DOING!                                     |

  PAW_PBE Mg_sv 12Apr2007               :
  PAW_PBE O_h 06Feb2004                 :

 POSCAR: Mg  O
  positions in direct lattice
 exchange correlation table for  LEXCH =       43
   RHO(1)=    0.500       N(1)  =     2000
   RHO(2)=  100.500       N(2)  =     4000

 ion  position               nearest neighbor table
   1  0.000  0.750  0.239-
   2  0.250  0.000  0.239-
   3  0.000  0.000  0.364-
   4  0.250  0.750  0.364-
   5  0.000  0.750  0.488-
   6  0.250  0.000  0.488-
   7  0.000  0.000  0.612-
   8  0.248  0.750  0.612-
   9  0.000  0.250  0.239-
  10  0.250  0.500  0.239-
  11  0.000  0.500  0.364-
  12  0.250  0.250  0.364-
  13  0.000  0.250  0.488-
  14  0.251  0.500  0.489-
  15  0.001  0.500  0.612-
  16  0.249  0.250  0.612-
  17  0.500  0.750  0.239-
  18  0.750  0.000  0.239-
  19  0.500  0.000  0.364-
  20  0.750  0.750  0.364-
  21  0.500  0.749  0.489-
  22  0.750  0.000  0.488-
  23  0.500  0.002  0.612-
  24  0.753  0.751  0.611-
  25  0.500  0.250  0.239-
  26  0.750  0.500  0.239-
  27  0.500  0.500  0.364-
  28  0.750  0.250  0.364-
  29  0.500  0.251  0.489-
  30  0.749  0.500  0.489-
  31  0.498  0.494  0.618-
  32  0.751  0.250  0.612-
  33  0.000  0.750  0.364-
  34  0.250  0.000  0.364-
  35  0.000  0.000  0.239-
  36  0.250  0.750  0.239-
  37  1.000  0.750  0.615-
  38  0.249  1.000  0.615-
  39  1.000  1.000  0.488-
  40  0.251  0.750  0.488-
  41  0.000  0.250  0.364-
  42  0.250  0.500  0.364-
  43  0.000  0.500  0.239-
  44  0.250  0.250  0.239-
  45  1.000  0.250  0.615-
  46  0.248  0.500  0.613-
  47  1.000  0.500  0.488-
  48  0.250  0.250  0.488-
  49  0.500  0.750  0.364-
  50  0.750  0.000  0.364-
  51  0.500  0.000  0.239-
  52  0.750  0.750  0.239-
  53  0.500  0.754  0.618-
  54  0.751  1.000  0.615-
  55  0.500  0.999  0.488-
  56  0.749  0.750  0.488-
  57  0.500  0.250  0.364-
  58  0.750  0.500  0.364-
  59  0.500  0.500  0.239-
  60  0.750  0.250  0.239-
  61  0.500  0.248  0.615-
  62  0.752  0.500  0.615-
  63  0.500  0.501  0.489-
  64  0.750  0.250  0.488-

IMPORTANT INFORMATION: All symmetrisations will be switched off!
NOSYMM: (Re-)initialisation of all symmetry stuff for point group C_1.

                                     Primitive cell

  volume of cell :    1211.2538

  direct lattice vectors                    reciprocal lattice vectors
     8.440984654  0.000000000  0.000000000     0.118469591  0.000000000  0.000000000
     0.000000000  8.440984654  0.000000000     0.000000000  0.118469591  0.000000000
     0.000000000  0.000000000 17.000000000     0.000000000  0.000000000  0.058823529

  length of vectors
     8.440984654  8.440984654 17.000000000     0.118469591  0.118469591  0.058823529

  position of ions in fractional coordinates (direct lattice)
     0.000084749  0.750056171  0.239446159
     0.250084749  0.000056171  0.239446159
     0.000084749  0.000056171  0.363578286
     0.250084749  0.750056171  0.363578286
     0.000292034  0.749824964  0.488119943
     0.250127698  0.000181851  0.488431874
     0.000158555  0.000466213  0.612094268
     0.247767905  0.749974041  0.611893376
     0.000084749  0.250056171  0.239446159
     0.250084749  0.500056171  0.239446159
     0.000084749  0.500056171  0.363578286
     0.250084749  0.250056171  0.363578286
     0.000116012  0.250196651  0.488268359
     0.250770752  0.499798843  0.488884857
     0.000510418  0.499570052  0.611813977
     0.249067721  0.249912005  0.612281031
     0.500084749  0.750056171  0.239446159
     0.750084749  0.000056171  0.239446159
     0.500084749  0.000056171  0.363578286
     0.750084749  0.750056171  0.363578286
     0.499810778  0.749036438  0.488828048
     0.749862546  0.000340508  0.488298782
     0.499761848  0.002048857  0.612169767
     0.752549470  0.750728058  0.610753521
     0.500084749  0.250056171  0.239446159
     0.750084749  0.500056171  0.239446159
     0.500084749  0.500056171  0.363578286
     0.750084749  0.250056171  0.363578286
     0.499866424  0.250603695  0.488721432
     0.749099841  0.499734903  0.488964189
     0.498205335  0.493574688  0.618100110
     0.750753975  0.249613073  0.611923847
     0.000084749  0.750056171  0.363578286
     0.250084749  0.000056171  0.363578286
     0.000084749  0.000056171  0.239446159
     0.250084749  0.750056171  0.239446159
     0.999857188  0.750394105  0.614566772
     0.249346556  0.999943829  0.614781797
     0.999915251  0.999830927  0.487959860
     0.250643896  0.750289407  0.488342652
     0.000084749  0.250056171  0.363578286
     0.250084749  0.500056171  0.363578286
     0.000084749  0.500056171  0.239446159
     0.250084749  0.250056171  0.239446159
     0.999828427  0.249634011  0.614770607
     0.248265660  0.500148340  0.613489608
     0.999666695  0.500164134  0.487824047
     0.249993932  0.249673109  0.488045416
     0.500084749  0.750056171  0.363578286
     0.750084749  0.000056171  0.363578286
     0.500084749  0.000056171  0.239446159
     0.750084749  0.750056171  0.239446159
     0.500208490  0.754444867  0.617976523
     0.750578969  0.999922121  0.614742452
     0.500080035  0.999350643  0.488242651
     0.749413318  0.750087637  0.488265164
     0.500084749  0.250056171  0.363578286
     0.750084749  0.500056171  0.363578286
     0.500084749  0.500056171  0.239446159
     0.750084749  0.250056171  0.239446159
     0.500099799  0.247787997  0.614504174
     0.751766757  0.500350148  0.615182713
     0.500235346  0.500508510  0.489332342
     0.749985949  0.249943297  0.488132887

  ion indices of the primitive-cell ions
   primitive index   ion index
                 1           1
                 2           2
                 3           3
                 4           4
                 5           5
                 6           6
                 7           7
                 8           8
                 9           9
                10          10
                11          11
                12          12
                13          13
                14          14
                15          15
                16          16
                17          17
                18          18
                19          19
                20          20
                21          21
                22          22
                23          23
                24          24
                25          25
                26          26
                27          27
                28          28
                29          29
                30          30
                31          31
                32          32
                33          33
                34          34
                35          35
                36          36
                37          37
                38          38
                39          39
                40          40
                41          41
                42          42
                43          43
                44          44
                45          45
                46          46
                47          47
                48          48
                49          49
                50          50
                51          51
                52          52
                53          53
                54          54
                55          55
                56          56
                57          57
                58          58
                59          59
                60          60
                61          61
                62          62
                63          63
                64          64

 KPOINTS: pymatgen v2020.8.13 with grid density =

Automatic generation of k-mesh.
 Grid dimensions read from file:
 generate k-points for:    2    2    1

 Generating k-lattice:

  Cartesian coordinates                     Fractional coordinates (reciprocal lattice)
     0.059234796  0.000000000  0.000000000     0.500000000  0.000000000  0.000000000
[...]
   8.43817123  4.22187778  8.29300880
   2.11019494  2.10748688  8.29677207
   4.22120770  6.33121263  6.18083086
   6.33145386  0.00047414  6.18083086
   4.22120770  0.00047414  4.07058470
   6.33145386  6.33121263  4.07058470
   4.22225219  6.36825754 10.50560089
   6.33562556  8.44032728 10.45062168
   4.22116790  8.43550345  8.30012507
   6.32578632  6.33147823  8.30050778
   4.22120770  2.11072030  6.18083086
   6.33145386  4.22096646  6.18083086
   4.22120770  4.22096646  4.07058470
   6.33145386  2.11072030  4.07058470
   4.22133473  2.09157468 10.44657096
   6.34565166  4.22344792 10.45810612
   4.22247888  4.22478466  8.31864981
   6.33061989  2.10976754  8.29825908

--------------------------------------- Iteration      FINAL  ---------------------------------------

--------------------OUTCAR has been truncated-------------------------

[...]

--------------------OUTCAR has been truncated-------------------------

  FORCE on cell =-STRESS in cart. coord.  units (eV):
  Direction    XX          YY          ZZ          XY          YZ          ZX
  Alpha Z  1191.54525  1191.54525  1191.54525
  Ewald  112261.59163112265.40548************    -0.61082     2.30104     0.61167
  Hartree128804.01485128806.16214************    -0.41924     1.20377     0.34725
  E(xc)   -3216.68379 -3216.67913 -3217.87317    -0.00047     0.00023    -0.00039
  Local  ************************250869.64553     1.03644    -3.34550    -0.93566
  n-local -5630.96320 -5630.97463 -5630.29687    -0.00758    -0.01264    -0.02543
  augment   726.54238   726.54667   717.21627    -0.00278    -0.01554    -0.00600
  Kinetic 12484.23968 12484.30385 12496.88162    -0.00625    -0.07136     0.09787
  Fock        0.00000     0.00000     0.00000     0.00000     0.00000     0.00000
  Total     -25.47308   -25.35258     0.30646    -0.01071     0.06000     0.08930
  in kB     -33.69433   -33.53495     0.40537    -0.01417     0.07937     0.11812

 VOLUME and BASIS-vectors are now :
  energy-cutoff  :     1000.00
  volume of cell :     1211.25
      direct lattice vectors                 reciprocal lattice vectors
     8.440984654  0.000000000  0.000000000     0.118469591  0.000000000  0.000000000
     0.000000000  8.440984654  0.000000000     0.000000000  0.118469591  0.000000000
     0.000000000  0.000000000 17.000000000     0.000000000  0.000000000  0.058823529

  length of vectors
     8.440984654  8.440984654 17.000000000     0.118469591  0.118469591  0.058823529

 FORCES acting on ions
    electron-ion (+dipol)            ewald-force                    non-local-force                 convergence-correction
   0.303E-01 0.292E+00 0.245E+04   -.306E-01 -.294E+00 -.244E+04   0.610E-03 0.124E-02 -.883E+01   -.113E-04 0.874E-05 0.134E-01
   -.425E+00 0.175E+00 0.245E+04   0.429E+00 -.177E+00 -.244E+04   -.259E-02 0.241E-02 -.886E+01   -.237E-05 -.314E-04 0.134E-01
   -.372E-01 0.395E+00 0.814E+03   0.465E-01 -.383E+00 -.814E+03   -.928E-02 -.100E-01 0.541E+00   -.143E-04 -.264E-04 0.166E-01
   -.226E+01 0.156E+01 0.810E+03   0.236E+01 -.156E+01 -.811E+03   -.772E-01 -.620E-03 0.681E+00   0.405E-04 -.198E-04 0.166E-01
   0.447E+00 0.121E+01 -.813E+03   -.383E+00 -.118E+01 0.813E+03   -.718E-01 -.797E-02 -.144E+00   -.904E-05 0.826E-05 0.179E-01
   -.293E+01 0.278E+01 -.818E+03   0.303E+01 -.284E+01 0.818E+03   -.838E-01 0.266E-01 -.343E+00   -.105E-04 -.302E-04 0.182E-01
   0.684E+00 0.183E+01 -.243E+04   -.691E+00 -.173E+01 0.242E+04   -.155E-01 -.133E+00 0.747E+01   -.339E-04 -.454E-04 0.916E-02
   -.160E+02 0.379E+01 -.243E+04   0.162E+02 -.318E+01 0.242E+04   0.939E-01 -.488E+00 0.746E+01   0.239E-04 0.894E-05 0.928E-02
   0.339E-01 -.293E+00 0.245E+04   -.351E-01 0.294E+00 -.244E+04   0.132E-02 -.528E-03 -.884E+01   -.273E-04 0.266E-04 0.134E-01
   -.516E+00 -.174E+00 0.245E+04   0.524E+00 0.177E+00 -.244E+04   -.635E-02 -.178E-02 -.886E+01   0.163E-04 0.713E-05 0.134E-01
   0.183E+00 -.411E+00 0.812E+03   -.226E+00 0.394E+00 -.813E+03   0.313E-01 0.126E-01 0.504E+00   -.543E-05 0.920E-05 0.165E-01
   -.188E+01 -.158E+01 0.812E+03   0.189E+01 0.157E+01 -.813E+03   -.755E-02 0.419E-02 0.634E+00   0.159E-04 0.275E-04 0.166E-01
   0.707E+00 -.106E+01 -.816E+03   -.700E+00 0.104E+01 0.816E+03   -.160E-01 -.991E-03 -.983E-01   -.258E-04 -.989E-05 0.180E-01
   -.722E+01 -.333E+01 -.819E+03   0.764E+01 0.340E+01 0.820E+03   -.390E+00 -.388E-01 -.696E+00   -.207E-04 0.971E-05 0.181E-01
   0.347E+01 -.200E+01 -.243E+04   -.377E+01 0.190E+01 0.242E+04   0.191E+00 0.123E+00 0.745E+01   -.862E-05 0.579E-04 0.925E-02
   -.142E+01 -.654E+00 -.243E+04   0.570E+00 -.590E-01 0.242E+04   0.758E+00 0.571E+00 0.781E+01   -.264E-04 -.445E-04 0.920E-02
   -.290E-01 0.381E+00 0.245E+04   0.294E-01 -.387E+00 -.244E+04   0.795E-04 0.545E-02 -.889E+01   0.140E-04 -.289E-04 0.135E-01
   0.424E+00 0.171E+00 0.245E+04   -.428E+00 -.173E+00 -.244E+04   0.375E-02 0.174E-02 -.885E+01   -.143E-05 -.223E-04 0.134E-01
   0.405E-01 0.868E+00 0.810E+03   -.582E-01 -.940E+00 -.811E+03   0.116E-01 0.545E-01 0.572E+00   0.302E-04 -.355E-04 0.165E-01
   0.222E+01 0.177E+01 0.810E+03   -.232E+01 -.182E+01 -.810E+03   0.776E-01 0.370E-01 0.662E+00   -.413E-04 -.339E-05 0.165E-01
   -.682E+00 0.739E+01 -.840E+03   0.627E+00 -.761E+01 0.840E+03   0.624E-01 0.240E+00 -.234E-01   0.381E-05 -.714E-05 0.183E-01
   0.296E+01 0.250E+01 -.816E+03   -.305E+01 -.251E+01 0.816E+03   0.809E-01 -.232E-01 -.345E+00   0.236E-04 -.323E-05 0.181E-01
   -.842E+00 0.102E+02 -.243E+04   0.860E+00 -.114E+02 0.242E+04   0.618E-02 0.811E+00 0.709E+01   0.179E-04 -.100E-03 0.926E-02
   0.178E+02 0.838E+01 -.242E+04   -.180E+02 -.803E+01 0.241E+04   -.150E+00 -.362E+00 0.715E+01   -.136E-04 0.504E-04 0.948E-02
   -.342E-01 -.385E+00 0.245E+04   0.351E-01 0.390E+00 -.244E+04   -.339E-03 -.410E-02 -.884E+01   0.167E-04 0.327E-04 0.134E-01
   0.513E+00 -.169E+00 0.245E+04   -.523E+00 0.171E+00 -.244E+04   0.780E-02 -.134E-02 -.888E+01   -.181E-04 0.647E-05 0.134E-01
   -.185E+00 -.828E+00 0.805E+03   0.213E+00 0.880E+00 -.805E+03   -.243E-01 -.421E-01 0.891E+00   0.940E-05 0.426E-04 0.167E-01
   0.186E+01 -.180E+01 0.812E+03   -.188E+01 0.184E+01 -.812E+03   0.123E-01 -.372E-01 0.661E+00   -.192E-04 0.115E-04 0.166E-01
   -.810E+00 -.513E+01 -.818E+03   0.808E+00 0.535E+01 0.818E+03   0.132E-01 -.222E+00 -.157E+00   0.172E-04 -.108E-04 0.178E-01
   0.771E+01 -.315E+01 -.827E+03   -.813E+01 0.317E+01 0.828E+03   0.393E+00 0.763E-02 -.435E+00   0.232E-04 0.436E-05 0.182E-01
   -.804E+01 -.328E+02 -.247E+04   0.810E+01 0.324E+02 0.246E+04   0.128E+00 0.109E+01 0.849E+01   -.103E-04 0.110E-04 0.827E-02
   0.197E+01 -.437E+01 -.243E+04   -.117E+01 0.395E+01 0.242E+04   -.711E+00 0.378E+00 0.762E+01   0.280E-04 -.625E-04 0.924E-02
   0.129E+00 0.570E+00 0.487E+03   -.140E+00 -.571E+00 -.487E+03   0.125E-01 0.173E-02 0.292E-01   -.561E-05 0.100E-05 0.101E-01
   -.101E+01 0.549E+00 0.486E+03   0.102E+01 -.553E+00 -.486E+03   -.138E-01 0.339E-02 -.733E-01   0.849E-05 -.194E-04 0.101E-01
   0.897E-02 0.825E-01 0.148E+04   -.734E-02 -.812E-01 -.149E+04   -.252E-02 -.189E-02 0.271E+01   -.179E-04 -.259E-04 0.791E-02
   -.294E+00 0.199E+00 0.148E+04   0.307E+00 -.200E+00 -.149E+04   -.178E-01 -.242E-04 0.270E+01   0.236E-04 0.223E-05 0.792E-02
   0.128E+00 0.151E+01 -.149E+04   -.265E+00 -.145E+01 0.149E+04   0.195E+00 -.111E+00 -.480E+01   -.107E-04 -.193E-04 0.570E-02
   -.268E+01 0.262E+01 -.149E+04   0.304E+01 -.308E+01 0.149E+04   -.416E+00 0.580E+00 -.473E+01   0.428E-04 -.152E-04 0.575E-02
   -.226E-01 0.331E+00 -.484E+03   0.249E-02 -.367E+00 0.484E+03   0.284E-01 0.549E-01 0.182E+00   -.166E-04 -.510E-05 0.104E-01
   -.411E+01 0.189E+01 -.487E+03   0.424E+01 -.183E+01 0.486E+03   -.197E+00 -.923E-01 0.280E+00   0.214E-04 0.350E-05 0.104E-01
   0.127E+00 -.577E+00 0.487E+03   -.124E+00 0.584E+00 -.487E+03   -.413E-02 -.930E-02 -.135E-01   -.389E-05 0.113E-04 0.101E-01
   -.143E+01 -.565E+00 0.484E+03   0.138E+01 0.576E+00 -.484E+03   0.649E-01 -.143E-01 -.678E-01   0.101E-04 0.115E-04 0.101E-01
   0.252E-01 -.823E-01 0.148E+04   -.292E-01 0.812E-01 -.149E+04   0.471E-02 0.113E-02 0.270E+01   -.129E-04 0.599E-05 0.791E-02
   -.265E+00 -.199E+00 0.148E+04   0.268E+00 0.200E+00 -.149E+04   -.508E-02 -.159E-02 0.270E+01   0.565E-05 0.936E-05 0.792E-02
   0.670E+00 -.139E+01 -.149E+04   -.830E+00 0.132E+01 0.149E+04   0.205E+00 0.131E+00 -.465E+01   -.461E-05 0.114E-04 0.567E-02
   -.634E+01 -.468E+01 -.148E+04   0.613E+01 0.520E+01 0.148E+04   0.373E+00 -.642E+00 -.346E+01   -.572E-04 0.447E-04 0.564E-02
   0.724E+00 -.406E+00 -.482E+03   -.786E+00 0.437E+00 0.482E+03   0.891E-01 -.467E-01 0.465E+00   -.139E-05 0.477E-05 0.104E-01
   -.170E+01 -.160E+01 -.484E+03   0.167E+01 0.155E+01 0.484E+03   0.439E-01 0.987E-01 0.394E+00   -.673E-06 -.258E-05 0.104E-01
   -.123E+00 0.984E+00 0.483E+03   0.137E+00 -.910E+00 -.483E+03   -.178E-01 -.933E-01 -.143E+00   0.817E-05 0.680E-05 0.101E-01
   0.976E+00 0.546E+00 0.487E+03   -.977E+00 -.562E+00 -.487E+03   0.362E-02 0.192E-01 -.401E-01   -.208E-04 -.151E-04 0.101E-01
   -.805E-02 0.113E+00 0.148E+04   0.675E-02 -.121E+00 -.149E+04   0.127E-02 0.103E-01 0.270E+01   0.168E-04 -.325E-04 0.791E-02
   0.294E+00 0.215E+00 0.148E+04   -.307E+00 -.221E+00 -.149E+04   0.157E-01 0.768E-02 0.270E+01   -.254E-04 0.815E-06 0.792E-02
   -.146E+01 0.183E+02 -.150E+04   0.172E+01 -.183E+02 0.150E+04   -.326E+00 -.452E+00 -.512E+01   0.632E-05 0.461E-04 0.553E-02
   0.283E+01 0.208E+01 -.149E+04   -.322E+01 -.251E+01 0.149E+04   0.440E+00 0.563E+00 -.492E+01   -.288E-04 -.220E-04 0.575E-02
   0.444E-01 0.289E+01 -.486E+03   -.353E-01 -.316E+01 0.485E+03   -.156E-01 0.367E+00 0.222E+00   0.289E-05 -.150E-04 0.104E-01
   0.421E+01 0.267E+01 -.484E+03   -.434E+01 -.264E+01 0.483E+03   0.195E+00 -.393E-01 0.479E+00   -.829E-05 0.109E-04 0.104E-01
   -.150E+00 -.106E+01 0.485E+03   0.159E+00 0.102E+01 -.485E+03   -.113E-01 0.609E-01 -.232E-01   0.732E-05 -.425E-05 0.101E-01
   0.139E+01 -.541E+00 0.484E+03   -.132E+01 0.558E+00 -.483E+03   -.863E-01 -.214E-01 -.128E+00   -.163E-04 0.103E-04 0.101E-01
   -.237E-01 -.111E+00 0.148E+04   0.283E-01 0.120E+00 -.149E+04   -.644E-02 -.120E-01 0.269E+01   0.183E-04 0.333E-04 0.791E-02
   0.265E+00 -.216E+00 0.148E+04   -.268E+00 0.222E+00 -.149E+04   0.262E-02 -.893E-02 0.270E+01   -.475E-05 0.844E-05 0.791E-02
   -.102E+01 -.674E+00 -.148E+04   0.120E+01 -.146E+00 0.149E+04   -.240E+00 0.104E+01 -.363E+01   0.106E-04 -.914E-04 0.548E-02
   0.992E+01 -.487E+01 -.149E+04   -.994E+01 0.545E+01 0.149E+04   -.161E+00 -.721E+00 -.430E+01   0.484E-04 0.383E-04 0.570E-02
   -.974E+00 -.418E+01 -.509E+03   0.103E+01 0.442E+01 0.509E+03   -.770E-01 -.330E+00 -.679E+00   -.933E-05 0.252E-04 0.104E-01
   0.175E+01 -.235E+01 -.484E+03   -.172E+01 0.232E+01 0.484E+03   -.417E-01 0.395E-01 0.408E+00   0.829E-05 -.182E-04 0.104E-01
   -.360E+00 -.238E+01 0.193E+02   -.113E-11 -.195E-12 0.460E-11   0.344E+00 0.237E+01 -.201E+02   -.250E-04 -.159E-03 0.730E+00

 POSITION                                       TOTAL-FORCE (eV/Angst)
      0.00072      6.33121      4.07058         0.000513     -0.000060      0.301799
      2.11096      0.00047      4.07058         0.001541     -0.000379      0.307161
      0.00072      0.00047      6.18083         0.000306      0.002068      0.033049
      2.11096      6.33121      6.18083         0.021959     -0.001666      0.045248
      0.00247      6.32926      8.29804        -0.007967      0.021786      0.031900
      2.11132      0.00153      8.30334         0.013482     -0.033539      0.048623
      0.00134      0.00394     10.40560        -0.021930     -0.026655      0.031303
      2.09141      6.33052     10.40219         0.275790      0.117416      0.091911
      0.00072      2.11072      4.07058         0.000354      0.000530      0.305018
      2.11096      4.22097      4.07058         0.002405      0.000802      0.305911
      0.00072      4.22097      6.18083        -0.011311     -0.004110      0.040568
      2.11096      2.11072      6.18083         0.002753      0.000291      0.025364
      0.00098      2.11191      8.30056        -0.009379     -0.021958      0.019935
      2.11675      4.21879      8.31104         0.028017      0.034468     -0.055410
      0.00431      4.21686     10.40084        -0.112107      0.027948      0.056064
      2.10238      2.10950     10.40878        -0.090814     -0.141565     -0.066015
      4.22121      6.33121      4.07058         0.000724     -0.001061      0.311238
      6.33145      0.00047      4.07058        -0.000358     -0.000220      0.304929
      4.22121      0.00047      6.18083        -0.005815     -0.017253      0.065493
      6.33145      6.33121      6.18083        -0.022917     -0.011791      0.048909
      4.21890      6.32261      8.31008         0.007745      0.018825      0.214721
      6.32958      0.00287      8.30108        -0.010385     -0.029793      0.061126
      4.21848      0.01729     10.40689         0.024359     -0.340707      0.117729
      6.35226      6.33688     10.38281        -0.312788     -0.011349      0.287578
      4.22121      2.11072      4.07058         0.000819      0.001312      0.303995
      6.33145      4.22097      4.07058        -0.001325      0.000705      0.309754
      4.22121      4.22097      6.18083         0.003725      0.010185      0.072844
      6.33145      2.11072      6.18083        -0.005513      0.011984      0.029194
      4.21936      2.11534      8.30826         0.010978     -0.007929     -0.051813
      6.32314      4.21825      8.31239        -0.025652      0.032328      0.025726
      4.20534      4.16626     10.50770         0.191635      0.631865     -0.564350
      6.33710      2.10698     10.40271         0.084850     -0.040893      0.026015
      0.00072      6.33121      6.18083         0.001830      0.001234      0.059991
      2.11096      0.00047      6.18083        -0.000890     -0.000703      0.055684
      0.00072      0.00047      4.07058        -0.000640     -0.000649     -0.416615
      2.11096      6.33121      4.07058        -0.004563     -0.000480     -0.419941
      8.43978      6.33407     10.44764         0.057996     -0.050777     -0.097698
      2.10473      8.44051     10.45129        -0.049273      0.119332     -0.085130
      8.44027      8.43956      8.29532         0.008508      0.019408      0.009313
      2.11568      6.33318      8.30183        -0.065264     -0.031322     -0.034360
      0.00072      2.11072      6.18083        -0.001555     -0.002353      0.058381
      2.11096      4.22097      6.18083         0.016140     -0.002790      0.086725
      0.00072      4.22097      4.07058         0.001043      0.000070     -0.417588
      2.11096      2.11072      4.07058        -0.001588     -0.000814     -0.419289
      8.43954      2.10716     10.45110         0.044948      0.054050     -0.073367
      2.09561      4.22174     10.42932         0.162394     -0.129024      0.219489
      8.43817      4.22188      8.29301         0.027540     -0.015391      0.060988
      2.11019      2.10749      8.29677         0.011412      0.041875      0.044167
      4.22121      6.33121      6.18083        -0.003543     -0.019237      0.063497
      6.33145      0.00047      6.18083         0.002818      0.002558      0.055433
      4.22121      0.00047      4.07058         0.000242      0.002184     -0.418513
      6.33145      6.33121      4.07058         0.003204      0.001317     -0.419980
      4.22225      6.36826     10.50560        -0.063632     -0.428304     -0.271201
      6.33563      8.44033     10.45062         0.053134      0.128458     -0.122586
      4.22117      8.43550      8.30013        -0.006215      0.096704     -0.013106
      6.32579      6.33148      8.30051         0.067111     -0.011046     -0.059121
      4.22121      2.11072      6.18083        -0.002149      0.013489      0.086403
      6.33145      4.22097      6.18083        -0.016576     -0.004302      0.076524
      4.22121      4.22097      4.07058        -0.001553     -0.003000     -0.420782
      6.33145      2.11072      4.07058         0.000129     -0.002524     -0.419465
      4.22133      2.09157     10.44657        -0.056022      0.219757      0.132214
      6.34565      4.22345     10.45811        -0.183160     -0.141123     -0.005401
      4.22248      4.22478      8.31865        -0.025782     -0.094127      0.005189
      6.33062      2.10977      8.29826        -0.009737      0.015943      0.014628
    total drift:                               -0.016844     -0.000614     -0.087202

  FREE ENERGIE OF THE ION-ELECTRON SYSTEM (eV)
  free  energy   TOTEN  =      -254.39663058 eV

  energy  without entropy=     -254.39663058  energy(sigma->0) =     -254.39663058