 vasp.6.3.0 20Jan22 (build Mar 11 2022 13:48:16) complex

 executed on             LinuxIFC date 2023.12.27  00:45:13

 INCAR:
   SYSTEM = MgO-rocksalt
   ISMEAR = 0
   SIGMA = 0.05
   EDIFF = 1E-6
   ALGO = ALL
   ISTART = 0
   IBRION = -1
   NSW = 0
   ISYM = 0
   DIPOL = 0.5 0.5 0.5
   IDIPOL = 3
   LDIPOL = .TRUE.
   LHFCALC = .TRUE.
   GGA = PE
   IVDW = 13
   VDW_S8 = 1.2007
   VDW_A1 = 0.4009
   VDW_A2 = 5.0293
   ENCUT = 520
   PREC = Accurate
   LASPH = .TRUE.
   LREAL = Auto
   ISPIN = 1
   NELM = 200
   NELMIN = 8
   NCORE = 2
   KPAR = 1
   LWAVE = .FALSE.
   LCHARG = .FALSE.

 POTCAR:    PAW_PBE Mg_pv 13Apr2007
 POTCAR:    PAW_PBE O 08Apr2002
|           W    W    AA    RRRRR   N    N  II  N    N   GGGG   !!!           |
|           W    W   A  A   R    R  NN   N  II  NN   N  G    G  !!!           |
|           W    W  A    A  R    R  N N  N  II  N N  N  G       !!!           |
|           W WW W  AAAAAA  RRRRR   N  N N  II  N  N N  G  GGG   !            |
|           WW  WW  A    A  R   R   N   NN  II  N   NN  G    G                |
|           W    W  A    A  R    R  N    N  II  N    N   GGGG   !!!           |
|     For optimal performance we recommend to set                             |
|       NCORE = 2 up to number-of-cores-per-socket                            |
|     This setting can greatly improve the performance of VASP for DFT.       |
|     The default, NCORE=1 might be grossly inefficient on modern             |
|     multi-core architectures or massively parallel machines. Do your        |
|     Unfortunately you need to use the default for GW and RPA                |
|     calculations (for HF NCORE is supported but not extensively tested      |
|     yet).                                                                   |

   TITEL  = PAW_PBE Mg_pv 13Apr2007
   POMASS =   24.305; ZVAL   =    8.000    mass and valenz
   ENMAX  =  403.929; ENMIN  =  302.947 eV

   TITEL  = PAW_PBE O 08Apr2002
   POMASS =   16.000; ZVAL   =    6.000    mass and valenz
   ENMAX  =  400.000; ENMIN  =  300.000 eV

 Optimization of the real space projectors (new method)

 maximal supplied QI-value         = 18.90
 optimisation between [QCUT,QGAM] = [ 11.53, 23.24] = [ 37.21,151.29] Ry
 Optimized for a Real-space Cutoff    1.28 Angstroem

   l    n(q)    QCUT    max X(q) W(low)/X(q) W(high)/X(q)  e(spline)
   1      8    11.527     2.974    0.44E-04    0.56E-04    0.12E-06
   1      8    11.527     4.279    0.12E-03    0.12E-03    0.26E-06
   0      9    11.527    16.381    0.46E-04    0.64E-04    0.78E-07
   0      9    11.527     5.611    0.26E-04    0.43E-04    0.55E-07
   2      8    11.527     4.652    0.22E-03    0.72E-04    0.47E-07
 Optimization of the real space projectors (new method)

 maximal supplied QI-value         = 24.76
 optimisation between [QCUT,QGAM] = [ 11.64, 23.27] = [ 37.91,151.63] Ry
 Optimized for a Real-space Cutoff    1.14 Angstroem

   l    n(q)    QCUT    max X(q) W(low)/X(q) W(high)/X(q)  e(spline)
   0      8    11.635    20.381    0.10E-03    0.33E-03    0.24E-06
   0      8    11.635    15.268    0.11E-03    0.35E-03    0.26E-06
   1      7    11.635     5.964    0.24E-03    0.31E-03    0.30E-06
   1      7    11.635     5.382    0.22E-03    0.25E-03    0.26E-06
  PAW_PBE Mg_pv 13Apr2007               :
  PAW_PBE O 08Apr2002                   :

 POSCAR: Mg  O
  positions in direct lattice
|           W    W    AA    RRRRR   N    N  II  N    N   GGGG   !!!           |
|           W    W   A  A   R    R  NN   N  II  NN   N  G    G  !!!           |
|           W    W  A    A  R    R  N N  N  II  N N  N  G       !!!           |
|           W WW W  AAAAAA  RRRRR   N  N N  II  N  N N  G  GGG   !            |
|           WW  WW  A    A  R   R   N   NN  II  N   NN  G    G                |
|           W    W  A    A  R    R  N    N  II  N    N   GGGG   !!!           |
|     Specifying the vdW parameters                                           |
|     VDW_S8 = 1.201                                                          |
|     VDW_A1 = 0.401                                                          |
|     VDW_A2 = 5.029                                                          |
|     in the INCAR file will overwrite the defaults for pbe0. Please make     |
|     sure that is what you intended.                                         |

 ion  position               nearest neighbor table
   1  0.125  0.000  0.353- 131 2.09 132 2.09 148 2.09 171 2.09 129 2.09
   2  0.250  0.125  0.353- 131 2.09 132 2.09 140 2.09 147 2.09 130 2.09
   3  0.125  0.125  0.451- 129 2.09 130 2.09 137 2.09 146 2.09 131 2.09 135 2.09
   4  0.250  0.000  0.451- 129 2.09 130 2.09 145 2.09 170 2.09 132 2.09 136 2.09
   5  0.125  0.000  0.549- 136 2.09 135 2.09 152 2.09 175 2.09 129 2.09 133 2.12
   6  0.250  0.125  0.549- 151 2.09 144 2.09 135 2.09 136 2.09 130 2.10 134 2.12
   7  0.125  0.125  0.647- 135 2.07 134 2.09 141 2.09 133 2.09 150 2.09
   8  0.250  0.000  0.647- 136 2.08 134 2.09 149 2.09 174 2.09 133 2.09
   9  0.125  0.250  0.353- 131 2.09 139 2.09 140 2.09 156 2.09 137 2.09
  10  0.250  0.375  0.353- 139 2.09 140 2.09 155 2.09 164 2.09 138 2.09
  11  0.125  0.375  0.451- 137 2.09 138 2.09 154 2.09 161 2.09 139 2.09 143 2.09
  12  0.250  0.250  0.451- 130 2.09 137 2.09 138 2.09 153 2.09 140 2.09 144 2.09
  13  0.125  0.250  0.549- 144 2.09 143 2.09 135 2.09 160 2.09 137 2.10 141 2.12
  14  0.250  0.375  0.549- 159 2.08 144 2.09 168 2.09 143 2.09 138 2.10 142 2.12
  15  0.125  0.375  0.647- 143 2.07 165 2.09 141 2.09 158 2.09 142 2.09
  16  0.250  0.250  0.647- 144 2.07 157 2.09 142 2.09 134 2.09 141 2.09
  17  0.375  0.000  0.353- 132 2.09 147 2.09 187 2.09 212 2.09 145 2.09
  18  0.000  0.125  0.353- 131 2.09 148 2.09 156 2.09 211 2.09 146 2.09
  19  0.375  0.125  0.451- 130 2.09 145 2.09 153 2.09 210 2.09 147 2.09 151 2.09
  20  0.000  0.000  0.451- 129 2.09 146 2.09 186 2.09 209 2.09 148 2.09 152 2.09
  21  0.375  0.000  0.549- 151 2.09 216 2.09 136 2.09 191 2.09 145 2.10 149 2.12
  22  1.000  0.125  0.549- 160 2.09 135 2.09 215 2.09 152 2.09 146 2.10 150 2.12
  23  0.375  0.125  0.647- 151 2.07 157 2.09 214 2.09 134 2.09 149 2.09
  24  1.000  0.000  0.647- 152 2.07 213 2.09 150 2.09 133 2.09 190 2.09
  25  0.375  0.250  0.353- 140 2.09 147 2.09 155 2.09 220 2.09 153 2.09
  26  0.000  0.375  0.353- 139 2.09 156 2.09 180 2.09 219 2.09 154 2.09
  27  0.375  0.375  0.451- 159 2.09 153 2.09 138 2.09 177 2.09 218 2.09 155 2.09
  28  0.000  0.250  0.451- 137 2.09 146 2.09 154 2.09 217 2.09 156 2.09 160 2.09
  29  0.375  0.250  0.549- 159 2.08 224 2.09 144 2.09 151 2.09 153 2.10 157 2.12
  30  1.000  0.375  0.549- 160 2.09 184 2.09 143 2.09 223 2.09 154 2.10 158 2.12
  31  0.376  0.375  0.647- 222 2.08 159 2.08 181 2.09 157 2.09 142 2.10
  32  1.000  0.250  0.647- 160 2.08 158 2.09 150 2.09 141 2.09 221 2.09
  33  0.125  0.500  0.353- 139 2.09 163 2.09 164 2.09 180 2.09 161 2.09
  34  0.250  0.625  0.353- 163 2.09 164 2.09 172 2.09 179 2.09 162 2.09
  35  0.125  0.625  0.451- 161 2.09 162 2.09 169 2.09 178 2.09 163 2.09 167 2.09
  36  0.250  0.500  0.451- 138 2.09 161 2.09 162 2.09 177 2.09 164 2.09 168 2.09
  37  0.125  0.500  0.549- 168 2.09 143 2.09 184 2.09 167 2.09 161 2.09 165 2.12
  38  0.250  0.625  0.549- 183 2.09 168 2.09 167 2.09 176 2.09 162 2.09 166 2.12
  39  0.125  0.625  0.647- 167 2.08 166 2.09 165 2.09 182 2.09 173 2.09
  40  0.250  0.500  0.647- 168 2.07 181 2.08 142 2.09 166 2.09 165 2.09
  41  0.125  0.750  0.353- 163 2.09 171 2.09 172 2.09 188 2.09 169 2.09
  42  0.250  0.875  0.353- 132 2.09 171 2.09 172 2.09 187 2.09 170 2.09
  43  0.125  0.875  0.451- 129 2.09 169 2.09 170 2.09 186 2.09 171 2.09 175 2.09
  44  0.250  0.750  0.451- 162 2.09 169 2.09 170 2.09 185 2.09 172 2.09 176 2.09
  45  0.125  0.750  0.549- 167 2.09 176 2.09 175 2.09 192 2.09 169 2.10 173 2.12
  46  0.250  0.875  0.549- 191 2.09 176 2.09 175 2.09 136 2.09 170 2.10 174 2.12
  47  0.125  0.875  0.647- 175 2.07 190 2.09 173 2.09 133 2.09 174 2.09
  48  0.250  0.750  0.647- 176 2.08 166 2.09 189 2.09 173 2.09 174 2.09
  49  0.375  0.500  0.353- 155 2.09 164 2.09 179 2.09 244 2.09 177 2.09
  50  0.000  0.625  0.353- 163 2.09 180 2.09 188 2.09 243 2.09 178 2.09
  51  0.375  0.625  0.451- 162 2.09 177 2.09 185 2.09 242 2.09 179 2.09 183 2.09
  52  0.000  0.500  0.451- 154 2.09 161 2.09 178 2.09 241 2.09 180 2.09 184 2.09
  53  0.375  0.500  0.549- 248 2.08 159 2.09 183 2.09 168 2.09 177 2.10 181 2.11
  54  1.000  0.625  0.549- 247 2.09 167 2.09 192 2.09 184 2.09 178 2.09 182 2.12
  55  0.375  0.625  0.647- 183 2.07 181 2.08 246 2.09 166 2.09 189 2.09
  56  0.000  0.500  0.647- 184 2.07 158 2.09 165 2.09 182 2.09 245 2.09
  57  0.375  0.750  0.353- 172 2.09 179 2.09 187 2.09 252 2.09 185 2.09
  58  0.000  0.875  0.353- 148 2.09 171 2.09 188 2.09 251 2.09 186 2.09
  59  0.375  0.875  0.451- 145 2.09 170 2.09 185 2.09 250 2.09 187 2.09 191 2.09
  60  0.000  0.750  0.451- 169 2.09 178 2.09 186 2.09 249 2.09 188 2.09 192 2.09
[...]
 242  0.500  0.625  0.451-  51 2.09  99 2.09 116 2.09 124 2.09 114 2.09 118 2.10
 243  0.875  0.625  0.353-  50 2.09  98 2.09 113 2.09 121 2.09 115 2.09
 244  0.500  0.500  0.353-  49 2.09  90 2.09  97 2.09 114 2.09 116 2.09
 245  0.875  0.500  0.649- 119 2.09  95 2.09  56 2.09 104 2.09 117 2.12
 246  0.500  0.625  0.649-  55 2.09 103 2.09 128 2.09 120 2.10 118 2.13
 247  0.875  0.625  0.549- 119 2.08 125 2.09  54 2.09 102 2.09 117 2.09 115 2.09
 248  0.500  0.500  0.549- 118 2.08  53 2.08 101 2.09 116 2.09 120 2.09  94 2.09
 249  0.875  0.750  0.451-  60 2.09 108 2.09 115 2.09 123 2.09 121 2.09 125 2.10
 250  0.500  0.875  0.451-  59 2.09  84 2.09 107 2.09 124 2.09 122 2.09 126 2.10
 251  0.875  0.875  0.353-  58 2.09  81 2.09 106 2.09 121 2.09 123 2.09
 252  0.500  0.750  0.353-  57 2.09 105 2.09 114 2.09 122 2.09 124 2.09
 253  0.875  0.750  0.649-  64 2.09 127 2.09 119 2.09 112 2.09 125 2.12
 254  0.500  0.875  0.649- 111 2.09  63 2.09 128 2.09  88 2.09 126 2.12
 255  0.875  0.875  0.549- 127 2.07 110 2.09  62 2.09 125 2.09  85 2.09 123 2.09
 256  0.500  0.750  0.549- 128 2.07  61 2.09 109 2.09 126 2.09 118 2.09 124 2.09

IMPORTANT INFORMATION: All symmetrisations will be switched off!
NOSYMM: (Re-)initialisation of all symmetry stuff for point group C_1.

                                     Primitive cell

  volume of cell :    5928.4515

  direct lattice vectors                    reciprocal lattice vectors
    16.698223653  0.000000000  0.000000000     0.059886610  0.000000000  0.000000000
     0.000000000 16.698223653  0.000000000     0.000000000  0.059886610  0.000000000
     0.000000000  0.000000000 21.261833870     0.000000000  0.000000000  0.047032632

  length of vectors
    16.698223653 16.698223653 21.261833870     0.059886610  0.059886610  0.047032632

  position of ions in fractional coordinates (direct lattice)
     0.125000000  0.000000000  0.352744737
     0.250000000  0.125000000  0.352744737
     0.125000000  0.125000000  0.450914912
     0.250000000  0.000000000  0.450914912
     0.125018514  0.000012952  0.549447386
     0.250042342  0.125033739  0.549475851
     0.125024383  0.125002606  0.646748844
[...]
   0.00000000  6.26183387  7.50000000
   6.26183387  6.26183387  9.58727796
   0.00000000  4.17455591  9.58727796
   6.26341942  4.17672451 11.68302857
  16.69820182  6.26140917 11.68254033
   6.27227928  6.26334441 13.75547262
  16.69820976  4.17449734 13.75120886
   2.08727796  8.34911183  7.50000000
   4.17455591 10.43638978  7.50000000
   2.08727796 10.43638978  9.58727796
   4.17455591  8.34911183  9.58727796
   2.08764118  8.34881505 11.68204768
   4.17473988 10.43597343 11.68206642
   2.08756028 10.43600509 13.75072375
   4.17614233  8.34818000 13.74834758
   2.08727796 12.52366774  7.50000000
   4.17455591 14.61094570  7.50000000
   2.08727796 14.61094570  9.58727796
   4.17455591 12.52366774  9.58727796
   2.08747045 12.52345308 11.68232709
   4.17469787 14.61068524 11.68259352
   2.08715114 14.61088746 13.75019069
   4.17453433 12.52317589 13.75156128
   6.26183387  8.34911183  7.50000000
   0.00000000 10.43638978  7.50000000
   6.26183387 10.43638978  9.58727796
   0.00000000  8.34911183  9.58727796
   6.26390680  8.34743928 11.68301885
  16.69817835 10.43616690 11.68199309
   6.26241940 10.43423471 13.74738858
   0.00014725  8.34872452 13.75002834
   6.26183387 12.52366774  7.50000000
   0.00000000 14.61094570  7.50000000
   6.26183387 14.61094570  9.58727796
   0.00000000 12.52366774  9.58727796
[...]
   8.34911183 10.43638978  9.58727796
  14.61094570 10.43638978  7.50000000
   8.34911183  8.34911183  7.50000000
  14.61088301  8.34901702 13.80067881
   8.34888663 10.43530300 13.80848490
  14.61104777 10.43652919 11.67574474
   8.34863928  8.35447652 11.67312910
  14.61094570 12.52366774  9.58727796
   8.34911183 14.61094570  9.58727796
  14.61094570 14.61094570  7.50000000
   8.34911183 12.52366774  7.50000000
  14.61131878 12.52365221 13.80092766
   8.34897530 14.61057115 13.80133142
  14.61066682 14.61084509 11.67544789
   8.34882620 12.52301254 11.67701547

--------------------------------------- Iteration      FINAL  ---------------------------------------

--------------------OUTCAR has been truncated-------------------------

[...]

--------------------OUTCAR has been truncated-------------------------

 VOLUME and BASIS-vectors are now :
  energy-cutoff  :      520.00
  volume of cell :     5928.45
      direct lattice vectors                 reciprocal lattice vectors
    16.698223653  0.000000000  0.000000000     0.059886610  0.000000000  0.000000000
     0.000000000 16.698223653  0.000000000     0.000000000  0.059886610  0.000000000
     0.000000000  0.000000000 21.261833870     0.000000000  0.000000000  0.047032632

  length of vectors
    16.698223653 16.698223653 21.261833870     0.059886610  0.059886610  0.047032632

 FORCES acting on ions:
    Electron-Ion                     Ewald-Force                    Non-Local-Force
   -.424E-02 -.311E-01 0.213E+04   0.225E-02 0.291E-01 -.212E+04   0.918E-03 0.133E-02 -.683E+01
   0.870E-01 0.743E-01 0.213E+04   -.901E-01 -.772E-01 -.212E+04   0.208E-02 0.160E-02 -.683E+01
   0.187E-02 -.389E-01 0.704E+03   -.432E-02 0.358E-01 -.705E+03   0.196E-02 0.223E-02 0.366E+00
   -.868E-02 -.337E-01 0.704E+03   0.466E-02 0.284E-01 -.705E+03   0.274E-02 0.365E-02 0.368E+00
   -.238E-01 -.740E-01 -.710E+03   0.240E-01 0.756E-01 0.710E+03   -.327E-02 -.382E-02 -.218E+00
   0.332E+00 0.209E+00 -.711E+03   -.336E+00 -.219E+00 0.711E+03   -.716E-02 -.219E-02 -.194E+00
   0.138E+00 0.876E-02 -.211E+04   -.135E+00 -.303E-02 0.210E+04   -.635E-02 -.420E-02 0.580E+01
   0.507E-01 0.444E-01 -.211E+04   -.387E-01 -.405E-01 0.210E+04   -.983E-02 -.489E-02 0.580E+01
   0.725E-01 0.538E-01 0.213E+04   -.750E-01 -.552E-01 -.212E+04   0.138E-02 0.955E-03 -.683E+01
   0.217E+00 0.651E-01 0.213E+04   -.225E+00 -.656E-01 -.212E+04   0.541E-02 0.623E-03 -.683E+01
   0.166E+00 0.165E+00 0.704E+03   -.155E+00 -.169E+00 -.705E+03   -.747E-02 0.213E-02 0.377E+00
   0.350E+00 0.266E+00 0.704E+03   -.356E+00 -.261E+00 -.705E+03   0.420E-02 -.269E-02 0.396E+00
   0.278E+00 0.309E-01 -.711E+03   -.278E+00 -.291E-01 0.711E+03   -.938E-02 -.351E-02 -.209E+00
   0.176E+01 0.295E+00 -.712E+03   -.169E+01 -.300E+00 0.712E+03   -.906E-01 0.377E-02 -.107E+00
   0.462E-01 0.415E-01 -.211E+04   -.801E-01 -.369E-01 0.210E+04   0.216E-01 -.232E-02 0.579E+01
   0.669E+00 0.148E+00 -.211E+04   -.742E+00 -.126E+00 0.210E+04   0.273E-01 -.273E-01 0.579E+01
   0.348E-01 0.581E-01 0.213E+04   -.363E-01 -.607E-01 -.212E+04   0.144E-02 0.179E-02 -.683E+01
   -.174E-01 -.773E-02 0.213E+04   0.173E-01 0.528E-02 -.212E+04   0.836E-04 0.123E-02 -.683E+01
   0.270E+00 0.321E+00 0.704E+03   -.270E+00 -.326E+00 -.705E+03   -.198E-03 0.366E-02 0.384E+00
   -.214E-01 -.116E+00 0.705E+03   0.213E-01 0.116E+00 -.705E+03   0.538E-04 0.253E-03 0.358E+00
   -.541E-01 0.244E+00 -.710E+03   0.542E-01 -.247E+00 0.711E+03   -.105E-02 -.445E-02 -.213E+00
   -.183E-01 -.863E-01 -.710E+03   0.187E-01 0.816E-01 0.710E+03   -.202E-03 0.541E-03 -.222E+00
   0.145E+00 0.698E+00 -.211E+04   -.112E+00 -.772E+00 0.210E+04   -.368E-01 0.286E-01 0.579E+01
   -.520E-02 0.268E-01 -.211E+04   0.387E-02 -.237E-01 0.210E+04   0.139E-02 -.323E-02 0.582E+01
   0.190E+00 0.195E+00 0.213E+04   -.196E+00 -.200E+00 -.212E+04   0.404E-02 0.355E-02 -.683E+01
   -.208E-01 0.704E-01 0.213E+04   0.205E-01 -.705E-01 -.212E+04   0.197E-03 0.467E-03 -.683E+01
   0.449E+00 0.787E-01 0.706E+03   -.514E+00 -.806E-01 -.706E+03   0.424E-01 0.130E-02 0.339E+00
   -.337E-01 0.128E-01 0.704E+03   0.333E-01 -.170E-01 -.705E+03   0.356E-03 0.275E-02 0.368E+00
   0.137E+01 0.138E+01 -.711E+03   -.138E+01 -.138E+01 0.711E+03   -.141E-01 -.294E-01 -.105E+00
   -.378E-02 0.130E+00 -.710E+03   0.560E-02 -.136E+00 0.710E+03   -.126E-02 0.667E-02 -.228E+00
   0.360E+01 0.280E+00 -.212E+04   -.400E+01 -.323E+00 0.211E+04   0.146E+00 0.192E-01 0.605E+01
   0.726E-01 0.495E-01 -.211E+04   -.738E-01 -.444E-01 0.210E+04   -.292E-03 -.381E-02 0.580E+01
   0.741E-01 0.324E-01 0.213E+04   -.772E-01 -.314E-01 -.212E+04   0.164E-02 -.715E-03 -.683E+01
   0.735E-01 -.872E-01 0.213E+04   -.766E-01 0.904E-01 -.212E+04   0.205E-02 -.238E-02 -.683E+01
   0.430E-01 -.307E-01 0.705E+03   -.496E-01 0.369E-01 -.705E+03   0.443E-02 -.406E-02 0.361E+00
   0.244E+00 -.653E-01 0.705E+03   -.251E+00 0.577E-01 -.705E+03   0.549E-02 0.450E-02 0.374E+00
   0.480E+00 0.207E+00 -.710E+03   -.477E+00 -.208E+00 0.710E+03   -.131E-01 0.229E-02 -.211E+00
   0.312E+00 -.343E+00 -.710E+03   -.334E+00 0.362E+00 0.710E+03   0.819E-02 -.605E-02 -.180E+00
   0.266E+00 -.433E-01 -.211E+04   -.261E+00 0.295E-01 0.210E+04   -.913E-02 0.112E-01 0.580E+01
   0.121E+01 0.298E-01 -.211E+04   -.129E+01 -.487E-01 0.210E+04   0.181E-01 0.238E-01 0.578E+01
   -.682E-02 -.550E-01 0.213E+04   0.460E-02 0.573E-01 -.212E+04   0.121E-02 -.153E-02 -.683E+01
   -.543E-02 -.525E-01 0.213E+04   0.279E-02 0.527E-01 -.212E+04   0.177E-02 0.184E-03 -.683E+01
   -.794E-01 -.105E+00 0.705E+03   0.808E-01 0.105E+00 -.705E+03   -.589E-03 0.587E-03 0.355E+00
   -.713E-02 -.165E+00 0.705E+03   0.174E-02 0.173E+00 -.705E+03   0.365E-02 -.495E-02 0.372E+00
   -.140E-01 -.113E+00 -.710E+03   0.124E-01 0.113E+00 0.711E+03   -.176E-02 0.170E-02 -.210E+00
   -.506E-01 -.160E+00 -.710E+03   0.478E-01 0.160E+00 0.711E+03   0.109E-03 0.209E-02 -.213E+00
   0.370E-01 -.708E-01 -.211E+04   -.422E-01 0.716E-01 0.210E+04   0.410E-02 -.935E-04 0.582E+01
   0.371E-01 -.238E+00 -.211E+04   -.254E-01 0.228E+00 0.210E+04   -.879E-02 0.119E-01 0.580E+01
   0.170E+00 -.121E+00 0.213E+04   -.175E+00 0.126E+00 -.212E+04   0.402E-02 -.346E-02 -.683E+01
   -.276E-01 -.594E-02 0.213E+04   0.273E-01 0.840E-02 -.212E+04   0.192E-03 -.206E-02 -.683E+01
   0.152E+00 -.300E+00 0.705E+03   -.147E+00 0.309E+00 -.705E+03   -.333E-02 -.648E-02 0.378E+00
   -.648E-01 0.156E+00 0.705E+03   0.655E-01 -.154E+00 -.705E+03   -.123E-03 -.149E-02 0.366E+00
   0.106E+01 -.101E+01 -.710E+03   -.103E+01 0.102E+01 0.710E+03   -.482E-01 0.211E-01 -.167E+00
   -.520E-01 0.119E+00 -.710E+03   0.499E-01 -.105E+00 0.710E+03   0.189E-02 -.110E-01 -.216E+00
   -.191E+00 -.104E+01 -.211E+04   0.191E+00 0.113E+01 0.210E+04   -.871E-02 -.262E-01 0.578E+01
   0.718E-01 -.117E-01 -.211E+04   -.730E-01 0.676E-02 0.210E+04   -.546E-03 0.476E-02 0.581E+01
   0.252E-01 -.131E+00 0.213E+04   -.266E-01 0.134E+00 -.212E+04   0.120E-02 -.195E-02 -.683E+01
   -.160E-01 -.569E-01 0.213E+04   0.158E-01 0.569E-01 -.212E+04   0.151E-03 0.454E-03 -.683E+01
   -.527E-01 -.106E+00 0.704E+03   0.465E-01 0.105E+00 -.705E+03   0.401E-02 0.621E-03 0.368E+00
   -.309E-01 -.590E-01 0.705E+03   0.296E-01 0.587E-01 -.705E+03   0.860E-03 0.132E-04 0.353E+00
[...]
   -.587E-01 -.270E-01 0.160E+04   0.605E-01 0.291E-01 -.160E+04   -.235E-02 -.229E-02 0.300E+01
   0.252E-01 -.109E+00 0.160E+04   -.255E-01 0.116E+00 -.160E+04   0.304E-03 -.945E-02 0.301E+01
   0.840E-01 0.452E-01 -.161E+04   -.955E-01 -.402E-01 0.161E+04   0.459E-02 -.679E-02 -.468E+01
   -.443E-01 0.991E+00 -.161E+04   0.396E-01 -.100E+01 0.161E+04   0.510E-02 -.363E-01 -.470E+01
   -.108E+00 -.458E-02 -.526E+03   0.113E+00 -.146E-02 0.526E+03   -.702E-02 0.250E-02 0.273E+00
   0.488E-01 -.792E+00 -.527E+03   -.398E-01 0.784E+00 0.526E+03   -.606E-02 -.380E-01 0.198E+00
   -.124E-01 -.953E-01 0.528E+03   0.174E-01 0.993E-01 -.528E+03   -.287E-02 -.458E-02 -.925E-01
   0.479E-01 -.769E-01 0.528E+03   -.457E-01 0.810E-01 -.528E+03   -.249E-02 -.542E-02 -.803E-01
   -.855E-02 -.444E-01 0.160E+04   0.941E-02 0.442E-01 -.160E+04   -.122E-02 -.573E-05 0.300E+01
   0.283E-01 -.119E+00 0.160E+04   -.282E-01 0.119E+00 -.160E+04   -.526E-04 -.472E-03 0.300E+01
   0.480E-01 -.126E-01 -.161E+04   -.532E-01 0.569E-02 0.161E+04   0.436E-02 0.521E-02 -.466E+01
   -.144E-01 -.102E+00 -.161E+04   0.142E-01 0.102E+00 0.161E+04   -.346E-03 -.120E-03 -.466E+01
   0.171E-01 -.835E-01 -.526E+03   -.122E-01 0.847E-01 0.526E+03   -.449E-02 -.164E-02 0.284E+00
   0.774E-01 0.139E+00 -.527E+03   -.748E-01 -.153E+00 0.526E+03   -.204E-02 0.187E-02 0.287E+00
   -.565E-01 -.114E+00 0.839E+02   0.341E-11 -.808E-12 -.351E-10   0.541E-01 0.959E-01 -.713E+02

 POSITION                                       TOTAL-FORCE (eV/Angst)
      2.08728      0.00000      7.50000        -0.000335     -0.000444      0.427055
      4.17456      2.08728      7.50000        -0.000754     -0.000564      0.426312
      2.08728      2.08728      9.58728        -0.000504     -0.000756      0.040806
      4.17456      0.00000      9.58728        -0.000884     -0.001075      0.043652
      2.08759      0.00022     11.68226        -0.002930     -0.002384      0.011181
      4.17526      2.08784     11.68286        -0.011170     -0.010850      0.010353
      2.08769      2.08732     13.75107        -0.003604      0.001260      0.066142
      4.17479      0.00014     13.75142         0.001085     -0.001342      0.062403
      2.08728      4.17456      7.50000        -0.000423     -0.000271      0.426641
      4.17456      6.26183      7.50000        -0.001680     -0.000192      0.427800
      2.08728      6.26183      9.58728         0.002980     -0.000872      0.041471
      4.17456      4.17456      9.58728        -0.000838      0.001261      0.040756
      2.08788      4.17464     11.68287        -0.009898     -0.001882      0.011579
      4.17662      6.26179     11.68314        -0.028896     -0.001376      0.008419
      2.08795      6.26171     13.75144        -0.008733      0.001516      0.072088
      4.17639      4.17583     13.75111        -0.037441     -0.007617      0.076845
      6.26183      0.00000      7.50000        -0.000459     -0.000558      0.426539
      0.00000      2.08728      7.50000        -0.000042     -0.000416      0.426865
      6.26183      2.08728      9.58728         0.000348     -0.000550      0.038469
      0.00000      0.00000      9.58728        -0.000053      0.000236      0.042613
      6.26182      0.00018     11.68263        -0.001012     -0.007366      0.012731
     16.69816      2.08763     11.68228         0.000077     -0.003494      0.012766
      6.26334      2.08898     13.74974        -0.008510     -0.038234      0.083213
     16.69814      0.00003     13.75009         0.000191     -0.000466      0.061735
      6.26183      4.17456      7.50000        -0.001527     -0.001301      0.425973
      0.00000      6.26183      7.50000        -0.000080     -0.000124      0.426058
      6.26183      6.26183      9.58728        -0.015912     -0.000204      0.020054
      0.00000      4.17456      9.58728        -0.000034     -0.000973      0.043317
      6.26342      4.17672     11.68303        -0.026282     -0.028421     -0.020689
     16.69820      6.26141     11.68254         0.000364      0.001113      0.014204
      6.27228      6.26334     13.75547        -0.218936     -0.019692     -0.072145
     16.69821      4.17450     13.75121        -0.001465      0.000650      0.063493
      2.08728      8.34911      7.50000        -0.000539      0.000213      0.426521
      4.17456     10.43639      7.50000        -0.000759      0.000875      0.426030
      2.08728     10.43639      9.58728        -0.001729      0.001281      0.038660
      4.17456      8.34911      9.58728        -0.000717     -0.002278      0.039032
      2.08764      8.34882     11.68205        -0.010339      0.001216      0.014262
      4.17474     10.43597     11.68207        -0.011787      0.010674      0.011108
      2.08756     10.43601     13.75072        -0.004929     -0.000609      0.066257
      4.17614      8.34818     13.74835        -0.052911      0.007149      0.083350
      2.08728     12.52367      7.50000        -0.000411      0.000540      0.427166
      4.17456     14.61095      7.50000        -0.000611     -0.000069      0.427134
      2.08728     14.61095      9.58728         0.000379      0.000006      0.039650
      4.17456     12.52367      9.58728        -0.001201      0.001803      0.041452
      2.08747     12.52345     11.68233        -0.003539      0.002110      0.010011
      4.17470     14.61069     11.68259        -0.002407      0.002649      0.010294
      2.08715     14.61089     13.75019        -0.000180      0.000303      0.064320
      4.17453     12.52318     13.75156         0.001686      0.003017      0.064645
      6.26183      8.34911      7.50000        -0.001461      0.001304      0.425757
      0.00000     10.43639      7.50000        -0.000081      0.000706      0.426960
      6.26183     10.43639      9.58728         0.001587      0.001335      0.035303
      0.00000      8.34911      9.58728         0.000474      0.000204      0.040792
      6.26391      8.34744     11.68302        -0.025441      0.024361     -0.032909
     16.69818     10.43617     11.68199         0.000027      0.001669      0.013415
      6.26242     10.43423     13.74739        -0.009596      0.054541      0.094137
      0.00015      8.34872     13.75003        -0.001900      0.000701      0.067504
      6.26183     12.52367      7.50000        -0.000379      0.000634      0.426592
      0.00000     14.61095      7.50000        -0.000065     -0.000130      0.426948
      6.26183     14.61095      9.58728        -0.001311      0.000140      0.040170
      0.00000     12.52367      9.58728        -0.000361     -0.000272      0.041670
[...]
      8.34911     10.43639      9.58728        -0.001868      0.003652      0.041742
     14.61095     10.43639      7.50000        -0.000924     -0.000638     -0.566606
      8.34911      8.34911      7.50000         0.000092     -0.003235     -0.565208
     14.61088      8.34902     13.80068        -0.006437     -0.003067     -0.018891
      8.34889     10.43530     13.80848         0.001481     -0.058451     -0.043481
     14.61105     10.43653     11.67574        -0.004068     -0.003392     -0.010197
      8.34864      8.35448     11.67313         0.002025     -0.056008      0.051204
     14.61095     12.52367      9.58728         0.001034     -0.001364      0.040292
      8.34911     14.61095      9.58728        -0.000783     -0.002164      0.048967
     14.61095     14.61095      7.50000        -0.000544     -0.000108     -0.567060
      8.34911     12.52367      7.50000        -0.000023     -0.000101     -0.568713
     14.61132     12.52365     13.80093        -0.000811     -0.000924     -0.008031
      8.34898     14.61057     13.80133        -0.000692      0.000485     -0.012366
     14.61067     14.61085     11.67545        -0.000334     -0.000585     -0.008217
      8.34883     12.52301     11.67702         0.000156     -0.011947     -0.011489
    total drift:                                0.003035     -0.003881     -0.061857

  FREE ENERGIE OF THE ION-ELECTRON SYSTEM (eV)
  free  energy   TOTEN  =     -1888.63251914 eV

  energy  without entropy=    -1888.63251914  energy(sigma->0) =    -1888.63251914