 vasp.6.3.0 20Jan22 (build Dec 25 2023 18:06:01) complex
 executed on        HPECrayEX_GCC date 2024.01.24  03:03:17

 INCAR:
   SYSTEM = MgO-rocksalt
   ISMEAR = 0
   SIGMA = 0.05
   EDIFF = 1E-8
   ALGO = ALL
   ISTART = 0
   IBRION = 5
   POTIM = 0.01
   NFREE = 2
   ISYM = 0
   DIPOL = 0.5 0.5 0.5
   IDIPOL = 3
   LDIPOL = .TRUE.
   GGA = RE
   IVDW = 13
   VDW_S8 = 1.7468
   VDW_A1 = 0.5363
   VDW_A2 = 3.0726
   ENCUT = 600
   PREC = Accurate
   LASPH = .TRUE.
   LREAL = .FALSE.
   ISPIN = 1
   NELM = 200
   NELMIN = 8
   NCORE = 8
   KPAR = 1
   LWAVE = .FALSE.
   LCHARG = .FALSE.

 POTCAR:    PAW_PBE C 08Apr2002
 POTCAR:    PAW_PBE O 08Apr2002
 POTCAR:    PAW_PBE H 15Jun2001
 POTCAR:    PAW_PBE Ti_pv 07Sep2000
 POTCAR:    PAW_PBE O 08Apr2002
 POTCAR:    PAW_PBE C 08Apr2002
   VRHFIN =C: s2p2

   TITEL  = PAW_PBE C 08Apr2002
   POMASS =   12.011; ZVAL   =    4.000    mass and valenz
   ENMAX  =  400.000; ENMIN  =  300.000 eV

[...]

   TITEL  = PAW_PBE H 15Jun2001
   POMASS =    1.000; ZVAL   =    1.000    mass and valenz
   ENMAX  =  250.000; ENMIN  =  200.000 eV

   TITEL  = PAW_PBE Ti_pv 07Sep2000
   POMASS =   47.880; ZVAL   =   10.000    mass and valenz
   ENMAX  =  222.335; ENMIN  =  166.751 eV

   TITEL  = PAW_PBE O 08Apr2002
   POMASS =   16.000; ZVAL   =    6.000    mass and valenz
   ENMAX  =  400.000; ENMIN  =  300.000 eV

  PAW_PBE C 08Apr2002                   :
  PAW_PBE O 08Apr2002                   :
  PAW_PBE H 15Jun2001                   :
  PAW_PBE Ti_pv 07Sep2000               :
  PAW_PBE O 08Apr2002                   :

 POSCAR:  C  O  H Ti  O
  positions in direct lattice
|           W    W    AA    RRRRR   N    N  II  N    N   GGGG   !!!           |
|           W    W   A  A   R    R  NN   N  II  NN   N  G    G  !!!           |
|           W    W  A    A  R    R  N N  N  II  N N  N  G       !!!           |
|           W WW W  AAAAAA  RRRRR   N  N N  II  N  N N  G  GGG   !            |
|           WW  WW  A    A  R   R   N   NN  II  N   NN  G    G                |
|           W    W  A    A  R    R  N    N  II  N    N   GGGG   !!!           |
|     Specifying the vdW parameters                                           |
|     VDW_S8 = 1.747                                                          |
|     VDW_A1 = 0.536                                                          |
|     VDW_A2 = 3.073                                                          |
|     in the INCAR file will overwrite the defaults for revpbe. Please        |
|     make sure that is what you intended.                                    |

 ion  position               nearest neighbor table
   1  0.510  0.588  0.811-   3 1.09   5 1.10   6 1.10   2 1.45
   2  0.539  0.498  0.782-   4 1.00   1 1.45  86 2.18
   3  0.427  0.597  0.810-   1 1.09
   4  0.615  0.493  0.780-   2 1.00
   5  0.534  0.564  0.845-   1 1.10
   6  0.549  0.667  0.802-   1 1.10
   7  0.750  0.625  0.287-  88 1.95 148 1.95 147 1.95  87 1.95  90 1.98 169 1.98  17 2.96  37 2.96

   8  0.000  0.750  0.287-  89 1.95  90 1.95 109 1.95 110 1.95  91 1.98  38 2.96  18 2.96
   9  0.000  0.625  0.394-  91 1.95 151 1.95  92 1.95 152 1.95  93 1.98  94 1.98  19 2.96  39 2.96

[...]

  87  0.750  0.750  0.245-   7 1.95  17 1.95
  88  0.750  0.750  0.329-   7 1.95  17 1.95  10 1.98
  89  0.098  0.625  0.287-   8 1.95  38 1.95  47 1.98
  90  0.902  0.625  0.287-   8 1.95  38 1.95   7 1.98
  91  0.000  0.750  0.352-   9 1.95  19 1.95   8 1.98
  92  0.000  0.750  0.435-   9 1.95  19 1.95  12 1.98
  93  0.848  0.625  0.394-  10 1.95  40 1.95   9 1.98
  94  0.152  0.625  0.394-  50 1.95  80 1.95   9 1.98
  95  0.750  0.750  0.458-  11 1.95  21 1.95  10 1.98
  96  0.750  0.750  0.542-  11 1.95  21 1.95  14 2.09
  97  0.098  0.625  0.500-  12 1.95  42 1.95  51 1.98
  98  0.902  0.625  0.500-  12 1.95  42 1.95  11 1.98
  99  0.001  0.750  0.565-  23 1.90  13 1.90  12 2.00
 100  1.000  0.750  0.649-  16 1.81  13 2.02  23 2.02
 101  0.851  0.625  0.607-  14 1.93  44 1.93  13 2.03
 102  0.150  0.625  0.607-  13 1.87  84 2.02  54 2.02
 103  0.754  0.751  0.671-  14 1.87  15 2.08  25 2.09
 104  0.748  0.749  0.756-  15 1.83  25 1.84
 105  0.095  0.625  0.719-  46 1.94  16 1.95  55 2.03
 106  0.906  0.624  0.720-  46 1.95  16 1.96  15 2.02
 107  0.750  0.000  0.245-  17 1.95  27 1.95
 108  0.750  0.000  0.329-  17 1.95  27 1.95  20 1.98
 109  0.098  0.875  0.287-   8 1.95  18 1.95  57 1.98
 110  0.902  0.875  0.287-   8 1.95  18 1.95  17 1.98
 111  0.000  0.000  0.352-  19 1.95  29 1.95  18 1.98
 112  0.000  0.000  0.435-  19 1.95  29 1.95  22 1.98
 113  0.848  0.875  0.394-  10 1.95  20 1.95  19 1.98
 114  0.152  0.875  0.394-  50 1.95  60 1.95  19 1.98
 115  0.750  0.000  0.458-  21 1.95  31 1.95  20 1.98
 116  0.750  0.000  0.542-  21 1.95  31 1.95  24 2.10
 117  0.098  0.875  0.500-  12 1.95  22 1.95  61 1.98
 118  0.902  0.875  0.500-  12 1.95  22 1.95  21 1.98
 119  0.001  0.000  0.565-  33 1.90  23 1.90  22 2.00
 120  0.000  0.000  0.649-  26 1.81  33 2.02  23 2.02
 121  0.851  0.876  0.607-  24 1.93  14 1.93  23 2.04
 122  0.150  0.875  0.607-  23 1.87  54 2.02  64 2.02
 123  0.751  0.000  0.672-  24 1.87  35 2.09  25 2.09
 124  0.750  1.000  0.756-  35 1.83  25 1.84
 125  0.094  0.875  0.719-  16 1.94  26 1.95  65 2.04
 126  0.906  0.875  0.719-  16 1.94  26 1.95  25 2.04
 127  0.750  0.250  0.245-  27 1.95  37 1.95
 128  0.750  0.250  0.329-  27 1.95  37 1.95  30 1.98
 129  0.098  0.125  0.287-  18 1.95  28 1.95  67 1.98
 130  0.902  0.125  0.287-  18 1.95  28 1.95  27 1.98
 131  0.000  0.250  0.352-  29 1.95  39 1.95  28 1.98
 132  0.000  0.250  0.435-  29 1.95  39 1.95  32 1.98
 133  0.848  0.125  0.394-  20 1.95  30 1.95  29 1.98
 134  0.152  0.125  0.394-  60 1.95  70 1.95  29 1.98
 135  0.750  0.250  0.458-  31 1.95  41 1.95  30 1.98
 136  0.750  0.250  0.542-  31 1.95  41 1.95  34 2.09
 137  0.098  0.125  0.500-  22 1.95  32 1.95  71 1.98
 138  0.902  0.125  0.500-  22 1.95  32 1.95  31 1.98
 139  0.001  0.250  0.565-  43 1.90  33 1.90  32 2.00
 140  0.000  0.250  0.649-  36 1.81  43 2.02  33 2.02
 141  0.851  0.125  0.607-  24 1.93  34 1.93  33 2.04
 142  0.150  0.125  0.607-  33 1.86  64 2.02  74 2.02
 143  0.753  0.250  0.671-  34 1.87  45 2.06  35 2.10
 144  0.749  0.251  0.756-  45 1.83  35 1.84
 145  0.094  0.125  0.719-  36 1.94  26 1.95  75 2.04
 146  0.906  0.125  0.719-  36 1.94  26 1.95  35 2.04
[...]
 232  0.500  0.500  0.435-  49 1.95  79 1.95  82 1.98
 233  0.348  0.375  0.394-  70 1.95  80 1.95  79 1.98
 234  0.652  0.375  0.394-  30 1.95  40 1.95  79 1.98
 235  0.250  0.500  0.458-  51 1.95  81 1.95  80 1.98
 236  0.250  0.500  0.542-  51 1.95  81 1.95  84 2.11
 237  0.598  0.375  0.500-  72 1.95  82 1.95  41 1.98
 238  0.402  0.375  0.500-  72 1.95  82 1.95  81 1.98
 239  0.501  0.500  0.566-  53 1.90  83 1.90  82 2.00
 240  0.500  0.500  0.650-  86 1.91  53 1.98  83 1.98
 241  0.350  0.375  0.607-  74 1.92  84 1.93  83 2.04
 242  0.651  0.375  0.608-  83 1.88  34 2.01  44 2.02
 243  0.250  0.500  0.672-  84 1.86  55 2.09  85 2.10
 244  0.252  0.500  0.756-  85 1.84  55 1.84
 245  0.597  0.371  0.715-  76 1.92  86 1.96  45 2.02
 246  0.407  0.374  0.718-  86 1.93  76 1.94  85 2.03

IMPORTANT INFORMATION: All symmetrisations will be switched off!
NOSYMM: (Re-)initialisation of all symmetry stuff for point group C_1.

                                     Primitive cell

  volume of cell :    4700.2961

  direct lattice vectors                    reciprocal lattice vectors
    13.003980404  0.000000000  0.000000000     0.076899531  0.000000000  0.000000000
     0.000000000 11.830378115  0.000000000     0.000000000  0.084528152  0.000000000
     0.000000000  0.000000000 30.552748813     0.000000000  0.000000000  0.032730279

  length of vectors
    13.003980404 11.830378115 30.552748813     0.076899531  0.084528152  0.032730279

  position of ions in fractional coordinates (direct lattice)
     0.510331046  0.587956007  0.811456567
     0.538671440  0.497713104  0.781633741
     0.426741788  0.597312864  0.809779257
     0.615374851  0.493003635  0.780229999
     0.533730470  0.564408842  0.844772367
     0.548744893  0.667393848  0.802204187
     0.750000000  0.625000000  0.287188045
     0.000000000  0.750000000  0.287188045
     0.000000000  0.625000000  0.393594023
     0.750000000  0.750000000  0.393594023
     0.750000000  0.625000000  0.500000000
     0.000000000  0.750000000  0.500000000
     0.006993774  0.625073986  0.604046202
     0.756133557  0.750114422  0.610207977
     0.750759752  0.625797847  0.719102266
     0.999978673  0.750342000  0.708177627
     0.750000000  0.875000000  0.287188045
     0.000000000  0.000000000  0.287188045
     0.000000000  0.875000000  0.393594023
     0.750000000  0.000000000  0.393594023
     0.750000000  0.875000000  0.500000000
     0.000000000  0.000000000  0.500000000
     0.007105127  0.875049078  0.604101504
     0.755700079  0.000050128  0.610520273
     0.749628850  0.874940193  0.720168330
     0.000248360  0.999945581  0.708144814
     0.750000000  0.125000000  0.287188045
     0.000000000  0.250000000  0.287188045
     0.000000000  0.125000000  0.393594023
     0.750000000  0.250000000  0.393594023
     0.750000000  0.125000000  0.500000000
     0.000000000  0.250000000  0.500000000
     0.007272160  0.124967895  0.604110878
     0.756020659  0.249869324  0.610140302
     0.749590896  0.124216859  0.720174278
     0.000192105  0.249631163  0.708168764
     0.750000000  0.375000000  0.287188045
     0.000000000  0.500000000  0.287188045
     0.000000000  0.375000000  0.393594023
     0.750000000  0.500000000  0.393594023
     0.750000000  0.375000000  0.500000000
     0.000000000  0.500000000  0.500000000
     0.006984987  0.374982529  0.604028350
     0.756360084  0.500008577  0.610371278
     0.751441947  0.373222885  0.719136832
     0.000822413  0.500125693  0.708109682
     0.250000000  0.625000000  0.287188045
     0.500000000  0.750000000  0.287188045
     0.500000000  0.625000000  0.393594023
     0.250000000  0.750000000  0.393594023
     0.250000000  0.625000000  0.500000000
     0.500000000  0.750000000  0.500000000
     0.507162857  0.622674843  0.605370118
     0.256146052  0.749992212  0.610460436
     0.250336699  0.625322801  0.720069271
     0.500758605  0.750128350  0.706878545
     0.250000000  0.875000000  0.287188045
     0.500000000  0.000000000  0.287188045
     0.500000000  0.875000000  0.393594023
     0.250000000  0.000000000  0.393594023
[...]
     0.500000000  0.500000000  0.435304973
     0.347999548  0.375000000  0.393594023
     0.652000452  0.375000000  0.393594023
     0.250000000  0.500000000  0.458289049
     0.250000000  0.500000000  0.541710951
     0.597999548  0.375000000  0.500000000
     0.402000452  0.375000000  0.500000000
     0.500907707  0.499897338  0.565520620
     0.499945957  0.500351109  0.649525778
     0.350131684  0.375057394  0.607190442
     0.651263466  0.374989739  0.607526633
     0.250216959  0.500342565  0.671574508
     0.252067876  0.500246127  0.755740575
     0.596688626  0.371476091  0.714507138
     0.406527982  0.374096473  0.717865471

  ion indices of the primitive-cell ions
[...]
      6.51379      5.91397     17.27821         0.000557     -0.000595      0.002455
      6.50129      5.91934     19.84480        -0.000731      0.000871     -0.004845
      4.55311      4.43707     18.55134         0.000214     -0.000587      0.001028
      8.46902      4.43627     18.56161        -0.003980      0.000377      0.001610
      3.25382      5.91924     20.51845         0.002364      0.000434      0.003578
      3.27789      5.91810     23.08995         0.000908      0.001194      0.000361
      7.75933      4.39470     21.83016         0.000267      0.000127     -0.001438
      5.28648      4.42570     21.93276         0.001788     -0.001477      0.001164
    total drift:                               -0.007670      0.000706     -0.040270

  FREE ENERGIE OF THE ION-ELECTRON SYSTEM (eV)
  free  energy   TOTEN  =     -2157.30350645 eV

  energy  without entropy=    -2157.30350645  energy(sigma->0) =    -2157.30350645

 d Force = 0.4313354E-04[-0.135E-02, 0.143E-02]  d Energy = 0.5319145E-04-0.101E-04
 d Force =-0.7816740E+01[-0.782E+01,-0.781E+01]  d Ewald  =-0.7816696E+01-0.441E-04

 Finite differences progress:
  Degree of freedom:  18/ 18
  Displacement:        2/  2
  Total:              36/ 36

 SECOND DERIVATIVES (NOT SYMMETRIZED)
               1X          1Y          1Z          2X          2Y          2Z          3X          3Y          3Z          4X          4Y          4Z          5X          5Y          5Z          6X          6Y          6Z
  1X   -56.126000   -2.203109   -2.821117    8.829045   -0.837103    0.061693   30.121061   -1.248579    2.502976    0.466122   -2.900483   -2.361190    6.790727   -2.171067    6.456569   10.117049    9.067268   -3.298129
  1Y    -2.211249  -44.560341    6.421887   -3.297783   12.104819    5.854553   -2.210736    4.572233   -0.420552   -0.484334    0.663396    0.506309   -1.971599    6.380605   -6.537560    9.664200   20.526064   -6.111603
  1Z    -2.825132    6.435916  -48.020559   -2.052507    5.661730   10.841809    1.443048   -0.228619    4.541722   -0.593659    0.374810    0.405605    6.817623   -7.190471   24.644413   -3.150204   -5.835826    6.588919
  2X     8.828424   -3.295529   -2.051958  -47.905482    4.996816    3.382914    0.612997   -3.043519   -2.650952   35.270004    0.643231    1.376752   -0.412942    0.513312    0.095461   -0.625043    0.357724    0.807966
  2Y    -0.833997   12.099843    5.661354    4.994965  -20.510743  -11.651732   -0.371774    0.778617    0.754579   -2.329077    2.895564    1.353336   -0.060612    0.137386    0.712291   -1.139352    2.895395    2.573405
  2Z     0.062378    5.854747   10.835965    3.373649  -11.651385  -22.022911   -0.307973    0.448531    0.333760   -1.387560    1.691624    3.550266   -1.251856    3.497419    2.435871    0.000147    0.787186   -0.041623
  3X    30.128802   -2.216363    1.443237    0.617121   -0.373186   -0.294121  -32.154731    2.705149   -1.474571   -0.211796   -0.059442   -0.009297    0.529305    0.085579    0.005327    0.987467   -0.142302    0.212686
  3Y    -1.253354    4.570558   -0.229946   -3.042594    0.780448    0.446796    2.701446   -5.232456   -0.465160    0.119999    0.355974    0.242416   -0.854196    0.005361   -0.132487    2.427095   -0.451088    0.173392
  3Z     2.500174   -0.421880    4.543463   -2.653030    0.756598    0.333077   -1.472089   -0.465903   -5.031333    0.060407    0.332951    0.219134    2.665246   -0.186333   -0.066213   -0.905546   -0.015421   -0.075251
  4X     0.470164   -0.484466   -0.594623   35.274855   -2.328335   -1.389170   -0.211212    0.117519    0.058800  -34.662300    2.476678   -0.320305   -0.017082    0.101312    0.105136   -0.058401    0.255466    0.125276
  4Y    -2.900893    0.664283    0.374587    0.650945    2.895479    1.690317   -0.060289    0.355266    0.333449    2.472713   -4.373019   -2.049304    0.051827   -0.089416    0.006065   -0.086727   -0.026015   -0.064715
  4Z    -2.361913    0.505890    0.401807    1.375841    1.359834    3.546687   -0.008971    0.242670    0.218104   -0.325272   -2.048573   -4.683141   -0.097152   -0.021074    0.028755    0.051746   -0.002759   -0.091814
  5X     6.789487   -1.969998    6.807076   -0.412736   -0.061545   -1.256135    0.529010   -0.856745    2.666019   -0.018096    0.052089   -0.098968   -6.504495    2.354382   -6.895166   -0.451767    0.544475   -1.353525
  5Y    -2.168944    6.374047   -7.177294    0.513865    0.135484    3.500798    0.086069    0.006190   -0.185024    0.098746   -0.089821   -0.016768    2.353855   -7.000231    6.253265   -0.784334    0.563834   -2.248174
  5Z     6.456952   -6.535450   24.633036    0.094224    0.720322    2.444101    0.008324   -0.135036   -0.069750    0.104652    0.006201    0.028378   -6.905379    6.261945  -27.451801    0.343755   -0.344444    0.590840
  6X    10.119919    9.659054   -3.154367   -0.622386   -1.142392   -0.000225    0.987729    2.429806   -0.906494   -0.058118   -0.087098    0.049721   -0.451291   -0.786323    0.343582   -9.939157   -9.997761    3.508415
  6Y     9.072719   20.522931   -5.842112    0.357718    2.900417    0.785893   -0.140900   -0.452944   -0.016484    0.252619   -0.026386   -0.002691    0.545045    0.563027   -0.344555  -10.008702  -23.420286    5.610718
  6Z    -3.298182   -6.106059    6.587709    0.806877    2.576380   -0.044542    0.212320    0.174309   -0.076178    0.124471   -0.065316   -0.091110   -1.353491   -2.251393    0.593330    3.506560    5.603865   -6.940669

 Eigenvectors and eigenvalues of the dynamical matrix

   1 f  =   95.324371 THz   598.940687 2PiTHz 3179.678756 cm-1   394.229744 meV
             X         Y         Z           dx          dy          dz
      6.636335  6.955742 24.792229     0.025820   -0.008793   -0.001686
      7.004873  5.888134 23.881059     0.247787   -0.019833   -0.012250
      5.549342  7.066437 24.740982    -0.103684    0.018108    0.001457
      8.002323  5.832419 23.838171    -0.959416    0.071682   -0.006692
      6.940621  6.677170 25.810118     0.001236    0.002438    0.005619
      7.135868  7.895522 24.509543     0.007753    0.021647   -0.000893
      9.752985  7.393986  8.774384            0           0           0
      0.000000  8.872784  8.774384            0           0           0
      0.000000  7.393986 12.025379            0           0           0
      9.752985  8.872784 12.025379            0           0           0
      9.752985  7.393986 15.276374            0           0           0
      0.000000  8.872784 15.276374            0           0           0
      0.090947  7.394862 18.455272            0           0           0
      9.832746  8.874137 18.643531            0           0           0
      9.762865  7.403425 21.970551            0           0           0
     13.003703  8.876830 21.636773            0           0           0
      9.752985 10.351581  8.774384            0           0           0
      0.000000  0.000000  8.774384            0           0           0
      0.000000 10.351581 12.025379            0           0           0
      9.752985  0.000000 12.025379            0           0           0
      9.752985 10.351581 15.276374            0           0           0
      0.000000  0.000000 15.276374            0           0           0
      0.092395 10.352161 18.456962            0           0           0
      9.827109  0.000593 18.653073            0           0           0
      9.748159 10.350873 22.003122            0           0           0
      0.003230 11.829734 21.635771            0           0           0
      9.752985  1.478797  8.774384            0           0           0
      0.000000  2.957595  8.774384            0           0           0
      0.000000  1.478797 12.025379            0           0           0
      9.752985  2.957595 12.025379            0           0           0
      9.752985  1.478797 15.276374            0           0           0
      0.000000  2.957595 15.276374            0           0           0
      0.094567  1.478417 18.457248            0           0           0
      9.831278  2.956049 18.641463            0           0           0
      9.747665  1.469532 22.003304            0           0           0
      0.002498  2.953231 21.636502            0           0           0
      9.752985  4.436392  8.774384            0           0           0
      0.000000  5.915189  8.774384            0           0           0
      0.000000  4.436392 12.025379            0           0           0
      9.752985  5.915189 12.025379            0           0           0
      9.752985  4.436392 15.276374            0           0           0
      0.000000  5.915189 15.276374            0           0           0
      0.090833  4.436185 18.454726            0           0           0
      9.835692  5.915291 18.648520            0           0           0
      9.771736  4.415368 21.971607            0           0           0
      0.010695  5.916676 21.634697            0           0           0
      3.250995  7.393986  8.774384            0           0           0
      6.501990  8.872784  8.774384            0           0           0
      6.501990  7.393986 12.025379            0           0           0
      3.250995  8.872784 12.025379            0           0           0
      3.250995  7.393986 15.276374            0           0           0
      6.501990  8.872784 15.276374            0           0           0
      6.595136  7.366479 18.495721            0           0           0
      3.330918  8.872691 18.651244            0           0           0
      3.255374  7.397805 22.000096            0           0           0
      6.511855  8.874302 21.597083            0           0           0
      3.250995 10.351581  8.774384            0           0           0
      6.501990  0.000000  8.774384            0           0           0
      6.501990 10.351581 12.025379            0           0           0
      3.250995  0.000000 12.025379            0           0           0
[...]
      6.501990  5.915189 13.299764            0           0           0
      4.525379  4.436392 12.025379            0           0           0
      8.478601  4.436392 12.025379            0           0           0
      3.250995  5.915189 14.001990            0           0           0
      3.250995  5.915189 16.550759            0           0           0
      7.776374  4.436392 15.276374            0           0           0
      5.227606  4.436392 15.276374            0           0           0
      6.513794  5.913975 17.278209            0           0           0
      6.501287  5.919343 19.844798            0           0           0
      4.553106  4.437071 18.551337            0           0           0
      8.469017  4.436270 18.561609            0           0           0
      3.253816  5.919242 20.518447            0           0           0
      3.277886  5.918101 23.089952            0           0           0
      7.759327  4.394703 21.830157            0           0           0
      5.286482  4.425703 21.932763            0           0           0

[...]

  18 f  =    2.077993 THz    13.056414 2PiTHz   69.314381 cm-1     8.593884 meV
             X         Y         Z           dx          dy          dz
      6.636335  6.955742 24.792229     0.582640    0.531634   -0.226155
      7.004873  5.888134 23.881059     0.121875    0.189862    0.004964
      5.549342  7.066437 24.740982     0.179302    0.272883   -0.045905
      8.002323  5.832419 23.838171     0.027819   -0.016242   -0.032243
      6.940621  6.677170 25.810118     0.160131    0.190796   -0.052555
      7.135868  7.895522 24.509543     0.273307    0.074806   -0.141160
      9.752985  7.393986  8.774384            0           0           0
      0.000000  8.872784  8.774384            0           0           0
      0.000000  7.393986 12.025379            0           0           0
      9.752985  8.872784 12.025379            0           0           0
      9.752985  7.393986 15.276374            0           0           0
      0.000000  8.872784 15.276374            0           0           0
      0.090947  7.394862 18.455272            0           0           0
      9.832746  8.874137 18.643531            0           0           0
      9.762865  7.403425 21.970551            0           0           0
     13.003703  8.876830 21.636773            0           0           0
      9.752985 10.351581  8.774384            0           0           0
      0.000000  0.000000  8.774384            0           0           0
      0.000000 10.351581 12.025379            0           0           0
      9.752985  0.000000 12.025379            0           0           0
      9.752985 10.351581 15.276374            0           0           0
      0.000000  0.000000 15.276374            0           0           0
      0.092395 10.352161 18.456962            0           0           0
      9.827109  0.000593 18.653073            0           0           0
      9.748159 10.350873 22.003122            0           0           0
      0.003230 11.829734 21.635771            0           0           0
      9.752985  1.478797  8.774384            0           0           0
      0.000000  2.957595  8.774384            0           0           0
      0.000000  1.478797 12.025379            0           0           0
      9.752985  2.957595 12.025379            0           0           0
      9.752985  1.478797 15.276374            0           0           0
      0.000000  2.957595 15.276374            0           0           0
      0.094567  1.478417 18.457248            0           0           0
      9.831278  2.956049 18.641463            0           0           0
      9.747665  1.469532 22.003304            0           0           0
      0.002498  2.953231 21.636502            0           0           0
      9.752985  4.436392  8.774384            0           0           0
      0.000000  5.915189  8.774384            0           0           0
      0.000000  4.436392 12.025379            0           0           0
      9.752985  5.915189 12.025379            0           0           0
      9.752985  4.436392 15.276374            0           0           0
      0.000000  5.915189 15.276374            0           0           0
      0.090833  4.436185 18.454726            0           0           0
      9.835692  5.915291 18.648520            0           0           0
      9.771736  4.415368 21.971607            0           0           0
      0.010695  5.916676 21.634697            0           0           0
      3.250995  7.393986  8.774384            0           0           0
      6.501990  8.872784  8.774384            0           0           0
      6.501990  7.393986 12.025379            0           0           0
      3.250995  8.872784 12.025379            0           0           0
      3.250995  7.393986 15.276374            0           0           0
      6.501990  8.872784 15.276374            0           0           0
      6.595136  7.366479 18.495721            0           0           0
      3.330918  8.872691 18.651244            0           0           0
      3.255374  7.397805 22.000096            0           0           0
      6.511855  8.874302 21.597083            0           0           0
      3.250995 10.351581  8.774384            0           0           0
      6.501990  0.000000  8.774384            0           0           0
      6.501990 10.351581 12.025379            0           0           0
      3.250995  0.000000 12.025379            0           0           0
[...]
      6.501990  5.915189 13.299764            0           0           0
      4.525379  4.436392 12.025379            0           0           0
      8.478601  4.436392 12.025379            0           0           0
      3.250995  5.915189 14.001990            0           0           0
      3.250995  5.915189 16.550759            0           0           0
      7.776374  4.436392 15.276374            0           0           0
      5.227606  4.436392 15.276374            0           0           0
      6.513794  5.913975 17.278209            0           0           0
      6.501287  5.919343 19.844798            0           0           0
      4.553106  4.437071 18.551337            0           0           0
      8.469017  4.436270 18.561609            0           0           0
      3.253816  5.919242 20.518447            0           0           0
      3.277886  5.918101 23.089952            0           0           0
      7.759327  4.394703 21.830157            0           0           0
      5.286482  4.425703 21.932763            0           0           0

 Finite differences POTIM=   1.0000000000000000E-002