 vasp.6.3.0 20Jan22 (build Apr  1 2022 16:44:48) complex
 executed on        HPECrayEX_GCC date 2023.01.23  22:35:49

 INCAR:
   SYSTEM = MgO-rocksalt
   ISMEAR = 0
   SIGMA = 0.05
   EDIFF = 1E-8
   ALGO = ALL
   ISTART = 0
   IBRION = 5
   POTIM = 0.01
   NFREE = 2
   ISYM = 0
   DIPOL = 0.5 0.5 0.5
   IDIPOL = 3
   LDIPOL = .TRUE.
   GGA = RE
   IVDW = 13
   VDW_S8 = 1.7468
   VDW_A1 = 0.5363
   VDW_A2 = 3.0726
   ENCUT = 600
   PREC = Accurate
   LASPH = .TRUE.
   LREAL = .FALSE.
   ISPIN = 2
   MAGMOM = 1.0 0.0 0.0 0.0 0.0 0.0 0.0 0.0 0.0 0.0 0.0 0.0 0.0 0.0 0.0 0.0 0.0 0.0 0.0 0.0 0.0 0.0 0.0 0.0 0.0 0.0 0.0 0.0 0.0 0.0 0.0 0.0 0.0 0.0 0.0 0.0 0.0 0.0 0.0 0.0 0.0 0.0 0.0 0.0 0.0 0.0 0.0 0.0 0.0 0.0 0.0 0.0 0.0 0.0 0.0 0.0 0.0 0.0 0.0 0.0 0.0 0.0 0.0 0.0 0.0 0.0
   NELM = 200
   NELMIN = 8
   NCORE = 8
   KPAR = 1
   LWAVE = .FALSE.
   LCHARG = .FALSE.

 POTCAR:    PAW_PBE N 08Apr2002
 POTCAR:    PAW_PBE O 08Apr2002
 POTCAR:    PAW_PBE Mg_pv 13Apr2007
 POTCAR:    PAW_PBE O 08Apr2002
 POTCAR:    PAW_PBE N 08Apr2002
   VRHFIN =N: s2p3

   TITEL  = PAW_PBE N 08Apr2002
   POMASS =   14.001; ZVAL   =    5.000    mass and valenz
   ENMAX  =  400.000; ENMIN  =  300.000 eV

[...]

   TITEL  = PAW_PBE Mg_pv 13Apr2007
   POMASS =   24.305; ZVAL   =    8.000    mass and valenz
   ENMAX  =  403.929; ENMIN  =  302.947 eV

   TITEL  = PAW_PBE O 08Apr2002
   POMASS =   16.000; ZVAL   =    6.000    mass and valenz
   ENMAX  =  400.000; ENMIN  =  300.000 eV

  PAW_PBE N 08Apr2002                   :
  PAW_PBE O 08Apr2002                   :
  PAW_PBE Mg_pv 13Apr2007               :
  PAW_PBE O 08Apr2002                   :

 POSCAR:  N  O Mg  O
  positions in direct lattice
|           W    W    AA    RRRRR   N    N  II  N    N   GGGG   !!!           |
|           W    W   A  A   R    R  NN   N  II  NN   N  G    G  !!!           |
|           W    W  A    A  R    R  N N  N  II  N N  N  G       !!!           |
|           W WW W  AAAAAA  RRRRR   N  N N  II  N  N N  G  GGG   !            |
|           WW  WW  A    A  R   R   N   NN  II  N   NN  G    G                |
|           W    W  A    A  R    R  N    N  II  N    N   GGGG   !!!           |
|     Specifying the vdW parameters                                           |
|     VDW_S8 = 1.747                                                          |
|     VDW_A1 = 0.536                                                          |
|     VDW_A2 = 3.073                                                          |
|     in the INCAR file will overwrite the defaults for revpbe. Please        |
|     make sure that is what you intended.                                    |

 ion  position               nearest neighbor table
   1  0.496  0.750  0.759-   2 1.19
   2  0.629  0.750  0.777-   1 1.19
   3  0.000  0.750  0.352-  35 2.11  37 2.11  38 2.11  45 2.11  54 2.11
   4  0.250  0.000  0.352-  36 2.11  37 2.11  38 2.11  46 2.11  53 2.11
   5  0.000  0.000  0.451-  37 2.11  36 2.11  35 2.11  43 2.11  52 2.11  41 2.12
   6  0.250  0.750  0.451-  38 2.11  36 2.11  35 2.11  44 2.11  51 2.11  42 2.12
   7  0.000  0.750  0.550-  49 2.11  41 2.11  42 2.11  58 2.12  35 2.12  39 2.15
   8  0.250  1.000  0.550-  42 2.11  41 2.11  57 2.11  50 2.11  36 2.13  40 2.14
   9  0.000  0.000  0.649-  47 2.11  40 2.11  56 2.11  41 2.11  39 2.11
  10  0.248  0.750  0.649-  39 2.09  40 2.11  48 2.11  42 2.12  55 2.13
  11  0.000  0.250  0.352-  43 2.11  37 2.11  45 2.11  46 2.11  62 2.11
  12  0.250  0.500  0.352-  44 2.11  38 2.11  45 2.11  46 2.11  61 2.11
  13  0.000  0.500  0.451-  45 2.11  43 2.11  44 2.11  35 2.11  60 2.11  49 2.12
  14  0.250  0.250  0.451-  46 2.11  43 2.11  44 2.11  36 2.11  59 2.11  50 2.12
  15  1.000  0.250  0.550-  49 2.11  41 2.11  50 2.11  66 2.11  43 2.12  47 2.15
  16  0.250  0.500  0.550-  42 2.11  49 2.11  65 2.11  50 2.11  44 2.13  48 2.14
  17  0.000  0.500  0.649-  47 2.11  48 2.11  64 2.11  49 2.11  39 2.11
  18  0.250  0.250  0.649-  47 2.11  50 2.11  40 2.11  48 2.11  63 2.11
  19  0.500  0.750  0.352-  51 2.11  38 2.11  53 2.11  54 2.11  61 2.11
  20  0.750  0.000  0.352-  52 2.11  37 2.11  53 2.11  54 2.11  62 2.11
  21  0.500  0.000  0.451-  53 2.11  51 2.11  52 2.11  36 2.11  59 2.11  57 2.12
  22  0.750  0.750  0.451-  54 2.11  51 2.11  52 2.11  35 2.11  60 2.11  58 2.12
  23  0.500  0.750  0.549-  42 2.11  65 2.11  57 2.11  51 2.11  58 2.11  55 2.15
  24  0.750  0.000  0.550-  66 2.11  57 2.11  58 2.11  41 2.11  52 2.13  56 2.14
  25  0.500  0.002  0.649-  63 2.09  40 2.11  56 2.11  57 2.12  55 2.13
  26  0.753  0.750  0.649-  39 2.09  56 2.11  64 2.11  58 2.11  55 2.13
  27  0.500  0.250  0.352-  59 2.11  53 2.11  46 2.11  61 2.11  62 2.11
  28  0.750  0.500  0.352-  60 2.11  54 2.11  45 2.11  61 2.11  62 2.11
  29  0.500  0.500  0.451-  61 2.11  51 2.11  59 2.11  60 2.11  44 2.11  65 2.12
  30  0.750  0.250  0.451-  62 2.11  52 2.11  59 2.11  60 2.11  43 2.11  66 2.12
  31  0.500  0.250  0.550-  50 2.11  66 2.11  65 2.11  57 2.11  59 2.12  63 2.15
  32  0.750  0.500  0.550-  66 2.11  65 2.11  58 2.11  49 2.11  60 2.13  64 2.14
  33  0.500  0.498  0.649-  63 2.09  48 2.11  64 2.11  65 2.12  55 2.13
  34  0.750  0.250  0.649-  47 2.11  66 2.11  56 2.11  64 2.11  63 2.11
  35  0.000  0.750  0.451-   3 2.11   5 2.11   6 2.11  13 2.11  22 2.11   7 2.12
  36  0.250  0.000  0.451-   4 2.11   5 2.11   6 2.11  14 2.11  21 2.11   8 2.13
  37  0.000  0.000  0.352-   5 2.11   4 2.11   3 2.11  11 2.11  20 2.11
  38  0.250  0.750  0.352-   6 2.11   4 2.11   3 2.11  12 2.11  19 2.11
  39  0.001  0.750  0.651-  26 2.09  10 2.09  17 2.11   9 2.11   7 2.15
  40  0.250  1.000  0.651-  25 2.11  10 2.11   9 2.11  18 2.11   8 2.14
  41  1.000  1.000  0.550-   8 2.11   7 2.11  15 2.11  24 2.11   9 2.11   5 2.12
  42  0.250  0.750  0.550-  23 2.11   8 2.11  16 2.11   7 2.11   6 2.12  10 2.12
  43  0.000  0.250  0.451-  11 2.11   5 2.11  13 2.11  14 2.11  30 2.11  15 2.12
  44  0.250  0.500  0.451-  12 2.11   6 2.11  13 2.11  14 2.11  29 2.11  16 2.13
  45  0.000  0.500  0.352-  13 2.11  11 2.11  12 2.11   3 2.11  28 2.11
  46  0.250  0.250  0.352-  14 2.11  11 2.11  12 2.11   4 2.11  27 2.11
  47  1.000  0.250  0.651-  17 2.11   9 2.11  18 2.11  34 2.11  15 2.15
  48  0.250  0.500  0.651-  33 2.11  10 2.11  17 2.11  18 2.11  16 2.14
  49  1.000  0.500  0.550-  16 2.11   7 2.11  15 2.11  32 2.11  17 2.11  13 2.12
  50  0.250  0.250  0.550-  31 2.11  15 2.11   8 2.11  16 2.11  18 2.11  14 2.12
  51  0.500  0.750  0.451-  23 2.11  19 2.11  21 2.11  22 2.11   6 2.11  29 2.11
  52  0.750  0.000  0.451-  20 2.11   5 2.11  21 2.11  22 2.11  30 2.11  24 2.13
  53  0.500  0.000  0.352-  21 2.11  19 2.11  20 2.11   4 2.11  27 2.11
  54  0.750  0.750  0.352-  22 2.11  19 2.11  20 2.11   3 2.11  28 2.11
  55  0.501  0.750  0.650-  33 2.13  25 2.13  10 2.13  26 2.13  23 2.15
  56  0.750  1.000  0.651-  26 2.11  25 2.11   9 2.11  34 2.11  24 2.14
  57  0.500  1.000  0.550-  23 2.11  24 2.11   8 2.11  31 2.11  25 2.12  21 2.12
  58  0.750  0.750  0.550-  23 2.11  24 2.11  32 2.11  26 2.11   7 2.12  22 2.12
  59  0.500  0.250  0.451-  27 2.11  21 2.11  14 2.11  29 2.11  30 2.11  31 2.12
  60  0.750  0.500  0.451-  28 2.11  22 2.11  13 2.11  29 2.11  30 2.11  32 2.13
  61  0.500  0.500  0.352-  29 2.11  19 2.11  27 2.11  28 2.11  12 2.11
  62  0.750  0.250  0.352-  30 2.11  20 2.11  27 2.11  28 2.11  11 2.11
  63  0.500  0.250  0.651-  33 2.09  25 2.09  34 2.11  18 2.11  31 2.15
  64  0.750  0.500  0.651-  26 2.11  33 2.11  17 2.11  34 2.11  32 2.14
  65  0.500  0.500  0.550-  23 2.11  32 2.11  16 2.11  31 2.11  33 2.12  29 2.12
  66  0.750  0.250  0.550-  31 2.11  24 2.11  32 2.11  15 2.11  34 2.11  30 2.12

IMPORTANT INFORMATION: All symmetrisations will be switched off!
NOSYMM: (Re-)initialisation of all symmetry stuff for point group C_1.

                                     Primitive cell

  volume of cell :    1519.8199

  direct lattice vectors                    reciprocal lattice vectors
     8.440984654  0.000000000  0.000000000     0.118469591  0.000000000  0.000000000
     0.000000000  8.440984654  0.000000000     0.000000000  0.118469591  0.000000000
     0.000000000  0.000000000 21.330738491     0.000000000  0.000000000  0.046880702

  length of vectors
     8.440984654  8.440984654 21.330738491     0.118469591  0.118469591  0.046880702

  position of ions in fractional coordinates (direct lattice)
     0.495582407  0.749999989  0.758545755
     0.629077366  0.750000007  0.776699400
     0.000000000  0.750000000  0.351605267
     0.250000000  0.000000000  0.351605267
     0.000000000  0.000000000  0.450535089
     0.250000000  0.750000000  0.450535089
     0.000367904  0.749999990  0.550043145
     0.249922494  0.999938497  0.550323600
     0.000026201  0.000433416  0.648958586
     0.248410135  0.750000005  0.649423040
     0.000000000  0.250000000  0.351605267
     0.250000000  0.500000000  0.351605267
     0.000000000  0.500000000  0.450535089
     0.250000000  0.250000000  0.450535089
     0.999953346  0.250000010  0.550087816
     0.249922511  0.500061504  0.550323598
     0.000026203  0.499566585  0.648958615
     0.249533183  0.249999994  0.648897869
     0.500000000  0.750000000  0.351605267
     0.750000000  0.000000000  0.351605267
     0.500000000  0.000000000  0.450535089
     0.750000000  0.750000000  0.450535089
     0.499952976  0.749999976  0.549347374
     0.749909505  0.000025171  0.550329701
     0.499727085  0.001919818  0.649268616
     0.753433634  0.750000006  0.648926089
     0.500000000  0.250000000  0.351605267
     0.750000000  0.500000000  0.351605267
     0.500000000  0.500000000  0.450535089
     0.750000000  0.250000000  0.450535089
     0.499935671  0.250000027  0.550109689
     0.749909490  0.499974828  0.550329703
     0.499727081  0.498080182  0.649268691
     0.750227902  0.249999994  0.648941426
     0.000000000  0.750000000  0.450535089
     0.250000000  0.000000000  0.450535089
     0.000000000  0.000000000  0.351605267
     0.250000000  0.750000000  0.351605267
     0.000500028  0.749999998  0.650715135
     0.250131441  0.999786317  0.650789700
     0.999945577  0.999988300  0.549871453
     0.250469588  0.750000003  0.549946092
     0.000000000  0.250000000  0.450535089
     0.250000000  0.500000000  0.450535089
     0.000000000  0.500000000  0.351605267
     0.250000000  0.250000000  0.351605267
     0.999903133  0.250000003  0.650952119
     0.250131447  0.500213683  0.650789710
     0.999945576  0.500011701  0.549871455
     0.250013447  0.249999997  0.549873551
     0.500000000  0.750000000  0.450535089
     0.750000000  0.000000000  0.450535089
     0.500000000  0.000000000  0.351605267
     0.750000000  0.750000000  0.351605267
     0.500684446  0.750000000  0.650144819
     0.749699000  0.999666883  0.650785089
     0.499917403  0.999629843  0.549965372
     0.749762970  0.750000004  0.549913950
     0.500000000  0.250000000  0.450535089
     0.750000000  0.500000000  0.450535089
     0.500000000  0.500000000  0.351605267
     0.750000000  0.250000000  0.351605267
     0.499890153  0.250000003  0.650892832
     0.749698989  0.500333117  0.650785099
     0.499917403  0.500370158  0.549965380
[...]
      6.32874      6.33074     11.73007         0.007021     -0.000000      0.003593
      4.22049      2.11025      9.61025        -0.000516      0.000000      0.083062
      6.33074      4.22049      9.61025        -0.008488      0.006165      0.080918
      4.22049      4.22049      7.50000        -0.000045      0.003870     -0.498957
      6.33074      2.11025      7.50000        -0.001570      0.000000     -0.502913
      4.21957      2.11025     13.88402         0.003455     -0.000000     -0.012193
      6.32820      4.22330     13.88173        -0.000471      0.000531     -0.009898
      4.21980      4.22362     11.73117         0.002741     -0.008164      0.003476
      6.32966      2.11025     11.72952        -0.000487      0.000000     -0.002441
    total drift:                               -0.002156      0.000001      0.002892

  FREE ENERGIE OF THE ION-ELECTRON SYSTEM (eV)
  free  energy   TOTEN  =      -383.58892032 eV

  energy  without entropy=     -383.58892032  energy(sigma->0) =     -383.58892032

 d Force =-0.4656902E-03[-0.260E-02, 0.167E-02]  d Energy =-0.4918892E-03 0.262E-04
 d Force =-0.3251880E+02[-0.325E+02,-0.325E+02]  d Ewald  =-0.3251914E+02 0.347E-03

 Finite differences progress:
  Degree of freedom:   6/  6
  Displacement:        2/  2
  Total:              12/ 12

 SECOND DERIVATIVES (NOT SYMMETRIZED)
               1X          1Y          1Z          2X          2Y          2Z
  1X   -76.303808   -0.000023  -21.863564   75.160608    0.000011   24.861095
  1Y     0.009991    0.507638    0.007656   -0.004061   -0.252863   -0.001633
  1Z   -21.825219   -0.008290   -9.753774   22.616966   -0.006489    9.605595
  2X    75.159177   -0.000004   22.648521  -74.547238   -0.000024  -25.640069
  2Y     0.009075   -0.243428    0.004853    0.002483    0.043745   -0.000034
  2Z    24.821599   -0.000794    9.590744  -25.582608   -0.000188  -10.687458

 Eigenvectors and eigenvalues of the dynamical matrix

   1 f  =   52.122778 THz   327.497074 2PiTHz 1738.628735 cm-1   215.562393 meV
             X         Y         Z           dx          dy          dz
      4.183203  6.330738 16.180341     0.697364   -0.000031    0.212086
      5.310032  6.330739 16.567572    -0.647294   -0.000014   -0.222964
      0.000000  6.330738  7.500000            0           0           0
      2.110246  0.000000  7.500000            0           0           0
      0.000000  0.000000  9.610246            0           0           0
      2.110246  6.330738  9.610246            0           0           0
      0.003105  6.330738 11.732826            0           0           0
      2.109592  8.440466 11.738809            0           0           0
      0.000221  0.003658 13.842766            0           0           0
      2.096826  6.330739 13.852673            0           0           0
      0.000000  2.110246  7.500000            0           0           0
      2.110246  4.220492  7.500000            0           0           0
      0.000000  4.220492  9.610246            0           0           0
      2.110246  2.110246  9.610246            0           0           0
      8.440591  2.110246 11.733779            0           0           0
      2.109592  4.221011 11.738809            0           0           0
      0.000221  4.216834 13.842767            0           0           0
      2.106306  2.110246 13.841471            0           0           0
      4.220492  6.330738  7.500000            0           0           0
      6.330738  0.000000  7.500000            0           0           0
      4.220492  0.000000  9.610246            0           0           0
      6.330738  6.330738  9.610246            0           0           0
      4.220095  6.330738 11.717985            0           0           0
      6.329975  0.000212 11.738939            0           0           0
      4.218189  0.016205 13.849379            0           0           0
      6.359722  6.330739 13.842073            0           0           0
      4.220492  2.110246  7.500000            0           0           0
      6.330738  4.220492  7.500000            0           0           0
      4.220492  4.220492  9.610246            0           0           0
      6.330738  2.110246  9.610246            0           0           0
      4.219949  2.110246 11.734246            0           0           0
      6.329974  4.220280 11.738939            0           0           0
      4.218189  4.204287 13.849381            0           0           0
      6.332662  2.110246 13.842400            0           0           0
      0.000000  6.330738  9.610246            0           0           0
      2.110246  0.000000  9.610246            0           0           0
      0.000000  0.000000  7.500000            0           0           0
      2.110246  6.330738  7.500000            0           0           0
      0.004221  6.330738 13.880234            0           0           0
      2.111356  8.439181 13.881825            0           0           0
      8.440525  8.440886 11.729164            0           0           0
      2.114210  6.330739 11.730756            0           0           0
      0.000000  2.110246  9.610246            0           0           0
      2.110246  4.220492  9.610246            0           0           0
      0.000000  4.220492  7.500000            0           0           0
      2.110246  2.110246  7.500000            0           0           0
      8.440167  2.110246 13.885289            0           0           0
      2.111356  4.222296 13.881825            0           0           0
      8.440525  4.220591 11.729164            0           0           0
      2.110360  2.110246 11.729209            0           0           0
      4.220492  6.330738  9.610246            0           0           0
      6.330738  0.000000  9.610246            0           0           0
      4.220492  0.000000  7.500000            0           0           0
      6.330738  6.330738  7.500000            0           0           0
      4.226270  6.330738 13.868069            0           0           0
      6.328198  8.438173 13.881727            0           0           0
      4.219795  8.437860 11.731168            0           0           0
      6.328738  6.330739 11.730071            0           0           0
      4.220492  2.110246  9.610246            0           0           0
      6.330738  4.220492  9.610246            0           0           0
      4.220492  4.220492  7.500000            0           0           0
      6.330738  2.110246  7.500000            0           0           0
      4.219565  2.110246 13.884025            0           0           0
      6.328198  4.223304 13.881727            0           0           0
      4.219795  4.223617 11.731168            0           0           0
      6.329659  2.110246 11.729517            0           0           0

[...]

   5 f  =    0.307506 THz     1.932117 2PiTHz   10.257297 cm-1     1.271742 meV
             X         Y         Z           dx          dy          dz
      4.183203  6.330738 16.180341    -0.585904   -0.027002   -0.012976
      5.310032  6.330739 16.567572    -0.743528   -0.067687    0.313694
      0.000000  6.330738  7.500000            0           0           0
      2.110246  0.000000  7.500000            0           0           0
      0.000000  0.000000  9.610246            0           0           0
      2.110246  6.330738  9.610246            0           0           0
      0.003105  6.330738 11.732826            0           0           0
      2.109592  8.440466 11.738809            0           0           0
      0.000221  0.003658 13.842766            0           0           0
      2.096826  6.330739 13.852673            0           0           0
      0.000000  2.110246  7.500000            0           0           0
      2.110246  4.220492  7.500000            0           0           0
      0.000000  4.220492  9.610246            0           0           0
      2.110246  2.110246  9.610246            0           0           0
      8.440591  2.110246 11.733779            0           0           0
      2.109592  4.221011 11.738809            0           0           0
      0.000221  4.216834 13.842767            0           0           0
      2.106306  2.110246 13.841471            0           0           0
      4.220492  6.330738  7.500000            0           0           0
      6.330738  0.000000  7.500000            0           0           0
      4.220492  0.000000  9.610246            0           0           0
      6.330738  6.330738  9.610246            0           0           0
      4.220095  6.330738 11.717985            0           0           0
      6.329975  0.000212 11.738939            0           0           0
      4.218189  0.016205 13.849379            0           0           0
      6.359722  6.330739 13.842073            0           0           0
      4.220492  2.110246  7.500000            0           0           0
      6.330738  4.220492  7.500000            0           0           0
      4.220492  4.220492  9.610246            0           0           0
      6.330738  2.110246  9.610246            0           0           0
      4.219949  2.110246 11.734246            0           0           0
      6.329974  4.220280 11.738939            0           0           0
      4.218189  4.204287 13.849381            0           0           0
      6.332662  2.110246 13.842400            0           0           0
      0.000000  6.330738  9.610246            0           0           0
      2.110246  0.000000  9.610246            0           0           0
      0.000000  0.000000  7.500000            0           0           0
      2.110246  6.330738  7.500000            0           0           0
      0.004221  6.330738 13.880234            0           0           0
      2.111356  8.439181 13.881825            0           0           0
      8.440525  8.440886 11.729164            0           0           0
      2.114210  6.330739 11.730756            0           0           0
      0.000000  2.110246  9.610246            0           0           0
      2.110246  4.220492  9.610246            0           0           0
      0.000000  4.220492  7.500000            0           0           0
      2.110246  2.110246  7.500000            0           0           0
      8.440167  2.110246 13.885289            0           0           0
      2.111356  4.222296 13.881825            0           0           0
      8.440525  4.220591 11.729164            0           0           0
      2.110360  2.110246 11.729209            0           0           0
      4.220492  6.330738  9.610246            0           0           0
      6.330738  0.000000  9.610246            0           0           0
      4.220492  0.000000  7.500000            0           0           0
      6.330738  6.330738  7.500000            0           0           0
      4.226270  6.330738 13.868069            0           0           0
      6.328198  8.438173 13.881727            0           0           0
      4.219795  8.437860 11.731168            0           0           0
      6.328738  6.330739 11.730071            0           0           0
      4.220492  2.110246  9.610246            0           0           0
      6.330738  4.220492  9.610246            0           0           0
      4.220492  4.220492  7.500000            0           0           0
      6.330738  2.110246  7.500000            0           0           0
      4.219565  2.110246 13.884025            0           0           0
      6.328198  4.223304 13.881727            0           0           0
      4.219795  4.223617 11.731168            0           0           0
      6.329659  2.110246 11.729517            0           0           0

   6 f/i=    3.244490 THz    20.385732 2PiTHz  108.224539 cm-1    13.418127 meV
             X         Y         Z           dx          dy          dz
      4.183203  6.330738 16.180341    -0.000418   -0.924924    0.000369
      5.310032  6.330739 16.567572    -0.000473    0.380152    0.000524
      0.000000  6.330738  7.500000            0           0           0
      2.110246  0.000000  7.500000            0           0           0
      0.000000  0.000000  9.610246            0           0           0
      2.110246  6.330738  9.610246            0           0           0
      0.003105  6.330738 11.732826            0           0           0
      2.109592  8.440466 11.738809            0           0           0
      0.000221  0.003658 13.842766            0           0           0
      2.096826  6.330739 13.852673            0           0           0
      0.000000  2.110246  7.500000            0           0           0
      2.110246  4.220492  7.500000            0           0           0
      0.000000  4.220492  9.610246            0           0           0
      2.110246  2.110246  9.610246            0           0           0
      8.440591  2.110246 11.733779            0           0           0
      2.109592  4.221011 11.738809            0           0           0
      0.000221  4.216834 13.842767            0           0           0
      2.106306  2.110246 13.841471            0           0           0
      4.220492  6.330738  7.500000            0           0           0
      6.330738  0.000000  7.500000            0           0           0
      4.220492  0.000000  9.610246            0           0           0
      6.330738  6.330738  9.610246            0           0           0
      4.220095  6.330738 11.717985            0           0           0
      6.329975  0.000212 11.738939            0           0           0
      4.218189  0.016205 13.849379            0           0           0
      6.359722  6.330739 13.842073            0           0           0
      4.220492  2.110246  7.500000            0           0           0
      6.330738  4.220492  7.500000            0           0           0
      4.220492  4.220492  9.610246            0           0           0
      6.330738  2.110246  9.610246            0           0           0
      4.219949  2.110246 11.734246            0           0           0
      6.329974  4.220280 11.738939            0           0           0
      4.218189  4.204287 13.849381            0           0           0
      6.332662  2.110246 13.842400            0           0           0
      0.000000  6.330738  9.610246            0           0           0
      2.110246  0.000000  9.610246            0           0           0
      0.000000  0.000000  7.500000            0           0           0
      2.110246  6.330738  7.500000            0           0           0
      0.004221  6.330738 13.880234            0           0           0
      2.111356  8.439181 13.881825            0           0           0
      8.440525  8.440886 11.729164            0           0           0
      2.114210  6.330739 11.730756            0           0           0
      0.000000  2.110246  9.610246            0           0           0
      2.110246  4.220492  9.610246            0           0           0
      0.000000  4.220492  7.500000            0           0           0
      2.110246  2.110246  7.500000            0           0           0
      8.440167  2.110246 13.885289            0           0           0
      2.111356  4.222296 13.881825            0           0           0
      8.440525  4.220591 11.729164            0           0           0
      2.110360  2.110246 11.729209            0           0           0
      4.220492  6.330738  9.610246            0           0           0
      6.330738  0.000000  9.610246            0           0           0
      4.220492  0.000000  7.500000            0           0           0
      6.330738  6.330738  7.500000            0           0           0
      4.226270  6.330738 13.868069            0           0           0
      6.328198  8.438173 13.881727            0           0           0
      4.219795  8.437860 11.731168            0           0           0
      6.328738  6.330739 11.730071            0           0           0
      4.220492  2.110246  9.610246            0           0           0
      6.330738  4.220492  9.610246            0           0           0
      4.220492  4.220492  7.500000            0           0           0
      6.330738  2.110246  7.500000            0           0           0
      4.219565  2.110246 13.884025            0           0           0
      6.328198  4.223304 13.881727            0           0           0
      4.219795  4.223617 11.731168            0           0           0
      6.329659  2.110246 11.729517            0           0           0

 Finite differences POTIM=   1.0000000000000000E-002