 vasp.6.3.0 20Jan22 (build Apr  1 2022 16:44:48) complex
 executed on        HPECrayEX_GCC date 2022.10.31  12:04:36

 INCAR:
   SYSTEM = MgO-rocksalt
   ISMEAR = 0
   SIGMA = 0.05
   EDIFF = 1E-7
   ALGO = ALL
   ISTART = 0
   IBRION = 2
   NSW = 1000
   ISYM = 0
   ISIF = 2
   EDIFFG = -0.01
   DIPOL = 0.5 0.5 0.5
   IDIPOL = 3
   LDIPOL = .TRUE.
   LHFCALC = .TRUE.
   GGA = B5
   AEXX = 0.2
   AGGAX = 0.72
   AGGAC = 0.81
   ALDAC = 0.19
   IVDW = 1
   VDW_S6 = 1.05
   VDW_C6 = 1.75 0.70 0.63 0.70
   VDW_R0 = 1.452 1.342 1.243 1.342
   ENCUT = 600
   PREC = Accurate
   LASPH = .TRUE.
   LREAL = .FALSE.
   ISPIN = 1
   NELM = 200
   NELMIN = 8
   NCORE = 8
   KPAR = 1
   LWAVE = .FALSE.
   LCHARG = .FALSE.

 POTCAR:    PAW_PBE C 08Apr2002
 POTCAR:    PAW_PBE O 08Apr2002
 POTCAR:    PAW_PBE Mg_pv 13Apr2007
 POTCAR:    PAW_PBE O 08Apr2002
 POTCAR:    PAW_PBE C 08Apr2002
   VRHFIN =C: s2p2

   TITEL  = PAW_PBE C 08Apr2002
   POMASS =   12.011; ZVAL   =    4.000    mass and valenz
   ENMAX  =  400.000; ENMIN  =  300.000 eV

[...]

   TITEL  = PAW_PBE Mg_pv 13Apr2007
   POMASS =   24.305; ZVAL   =    8.000    mass and valenz
   ENMAX  =  403.929; ENMIN  =  302.947 eV

   TITEL  = PAW_PBE O 08Apr2002
   POMASS =   16.000; ZVAL   =    6.000    mass and valenz
   ENMAX  =  400.000; ENMIN  =  300.000 eV

  PAW_PBE C 08Apr2002                   :
  PAW_PBE O 08Apr2002                   :
  PAW_PBE Mg_pv 13Apr2007               :
  PAW_PBE O 08Apr2002                   :

 POSCAR:  C  O Mg  O
  positions in direct lattice
  velocities in cartesian coordinates
 exchange correlation table for  LEXCH =       12
   RHO(1)=    0.500       N(1)  =     2000
   RHO(2)=  100.500       N(2)  =     4000

 ion  position               nearest neighbor table
   1  0.500  0.250  0.722-   3 1.25   2 1.25  41 1.44
   2  0.500  0.386  0.745-   1 1.25  19 2.15
   3  0.500  0.114  0.745-   1 1.25  11 2.15
   4  0.250  0.000  0.352-  38 2.10  39 2.10  46 2.10  55 2.10  36 2.10
   5  0.500  0.250  0.352-  38 2.10  39 2.10  47 2.10  54 2.10  37 2.10
   6  0.250  0.250  0.451-  36 2.10  37 2.10  44 2.10  53 2.10  38 2.10  42 2.11
   7  0.500  0.000  0.451-  36 2.10  37 2.10  45 2.10  52 2.10  39 2.10  43 2.13
   8  0.252  0.999  0.550-  43 2.08  40 2.09  50 2.09  42 2.11  59 2.12  36 2.12
   9  0.500  0.250  0.547-  37 2.06  58 2.08  42 2.08  43 2.08  51 2.08
  10  0.236  0.250  0.646-  57 1.98  42 2.05  40 2.09  48 2.09  41 2.23
  11  0.500  0.988  0.658-  49 2.00  40 2.13  56 2.13   3 2.15  41 2.21
  12  0.250  0.500  0.352-  38 2.10  46 2.10  47 2.10  63 2.10  44 2.10
  13  0.500  0.750  0.352-  39 2.10  46 2.10  47 2.10  62 2.10  45 2.10
  14  0.250  0.750  0.451-  36 2.10  44 2.10  45 2.10  61 2.10  46 2.10  50 2.10
  15  0.500  0.500  0.451-  37 2.10  44 2.10  45 2.10  60 2.10  47 2.10  51 2.13
  16  0.252  0.501  0.550-  51 2.08  48 2.09  50 2.09  42 2.11  67 2.12  44 2.12
  17  0.500  0.750  0.551-  50 2.10  66 2.10  43 2.12  51 2.12  49 2.12  45 2.13
  18  0.247  0.750  0.648-  65 2.08  50 2.09  40 2.11  48 2.11  49 2.13
  19  0.500  0.512  0.658-  49 2.00  48 2.13  64 2.13   2 2.15  41 2.21
  20  0.750  0.000  0.352-  39 2.10  54 2.10  55 2.10  62 2.10  52 2.10
  21  0.000  0.250  0.352-  38 2.10  54 2.10  55 2.10  63 2.10  53 2.10
  22  0.750  0.250  0.451-  37 2.10  52 2.10  53 2.10  60 2.10  54 2.10  58 2.11
  23  0.000  0.000  0.451-  59 2.09  52 2.10  53 2.10  36 2.10  61 2.10  55 2.10
  24  0.748  0.999  0.550-  43 2.08  56 2.09  66 2.09  58 2.11  59 2.12  52 2.12
  25  1.000  0.250  0.548-  53 2.08  67 2.10  59 2.10  57 2.12  58 2.12  42 2.12
  26  0.764  0.250  0.646-  57 1.98  58 2.05  56 2.09  64 2.09  41 2.23
  27  1.000  0.997  0.647-  65 2.08  56 2.08  40 2.08  59 2.09  57 2.12
  28  0.750  0.500  0.352-  47 2.10  54 2.10  62 2.10  63 2.10  60 2.10
  29  0.000  0.750  0.352-  46 2.10  55 2.10  62 2.10  63 2.10  61 2.10
  30  0.750  0.750  0.451-  45 2.10  52 2.10  60 2.10  61 2.10  62 2.10  66 2.10
  31  0.000  0.500  0.451-  67 2.09  53 2.10  60 2.10  61 2.10  44 2.10  63 2.10
  32  0.748  0.501  0.550-  51 2.08  64 2.09  66 2.09  58 2.11  67 2.12  60 2.12
  33  0.000  0.750  0.549-  61 2.09  67 2.11  59 2.11  66 2.11  50 2.11  65 2.12
  34  0.753  0.750  0.648-  65 2.08  66 2.09  56 2.11  64 2.11  49 2.13
  35  0.000  0.503  0.647-  65 2.08  48 2.08  64 2.08  67 2.09  57 2.12
  36  0.250  0.000  0.451-   6 2.10   7 2.10  14 2.10  23 2.10   4 2.10   8 2.12
  37  0.500  0.250  0.451-   9 2.06   7 2.10   6 2.10  15 2.10  22 2.10   5 2.10
  38  0.250  0.250  0.352-   4 2.10   5 2.10  12 2.10  21 2.10   6 2.10
  39  0.500  0.000  0.352-   4 2.10   5 2.10  13 2.10  20 2.10   7 2.10
  40  0.248  0.001  0.648-  27 2.08   8 2.09  10 2.09  18 2.11  11 2.13
  41  0.500  0.250  0.655-   1 1.44  11 2.21  19 2.21  10 2.23  26 2.23
  42  0.252  0.250  0.550-  10 2.05   9 2.08  16 2.11   8 2.11   6 2.11  25 2.12
  43  0.500  0.002  0.551-   8 2.08  24 2.08   9 2.08  17 2.12   7 2.13
  44  0.250  0.500  0.451-   6 2.10  14 2.10  15 2.10  31 2.10  12 2.10  16 2.12
  45  0.500  0.750  0.451-   7 2.10  14 2.10  15 2.10  30 2.10  13 2.10  17 2.13
  46  0.250  0.750  0.352-   4 2.10  12 2.10  13 2.10  29 2.10  14 2.10
  47  0.500  0.500  0.352-   5 2.10  12 2.10  13 2.10  28 2.10  15 2.10
  48  0.248  0.499  0.648-  35 2.08  16 2.09  10 2.09  18 2.11  19 2.13
  49  0.500  0.750  0.650-  19 2.00  11 2.00  17 2.12  18 2.13  34 2.13
  50  0.251  0.750  0.549-  18 2.09  16 2.09   8 2.09  17 2.10  14 2.10  33 2.11
  51  0.500  0.498  0.551-  32 2.08  16 2.08   9 2.08  17 2.12  15 2.13
  52  0.750  0.000  0.451-   7 2.10  22 2.10  23 2.10  30 2.10  20 2.10  24 2.12
  53  0.000  0.250  0.451-  25 2.08  22 2.10  23 2.10   6 2.10  31 2.10  21 2.10
  54  0.750  0.250  0.352-   5 2.10  20 2.10  21 2.10  28 2.10  22 2.10
  55  0.000  0.000  0.352-   4 2.10  20 2.10  21 2.10  29 2.10  23 2.10
  56  0.752  0.001  0.648-  27 2.08  24 2.09  26 2.09  34 2.11  11 2.13
  57  1.000  0.250  0.648-  26 1.98  10 1.98  25 2.12  27 2.12  35 2.12
  58  0.748  0.250  0.550-  26 2.05   9 2.08  32 2.11  24 2.11  22 2.11  25 2.12
  59  0.000  0.001  0.549-  23 2.09  27 2.09  25 2.10  33 2.11   8 2.12  24 2.12
  60  0.750  0.500  0.451-  15 2.10  22 2.10  30 2.10  31 2.10  28 2.10  32 2.12
  61  0.000  0.750  0.451-  33 2.09  23 2.10  30 2.10  31 2.10  14 2.10  29 2.10
  62  0.750  0.750  0.352-  13 2.10  20 2.10  28 2.10  29 2.10  30 2.10
  63  0.000  0.500  0.352-  12 2.10  21 2.10  28 2.10  29 2.10  31 2.10
  64  0.752  0.499  0.648-  35 2.08  32 2.09  26 2.09  34 2.11  19 2.13
  65  1.000  0.750  0.649-  34 2.08  18 2.08  35 2.08  27 2.08  33 2.12
  66  0.749  0.750  0.549-  34 2.09  32 2.09  24 2.09  17 2.10  30 2.10  33 2.11
  67  0.000  0.499  0.549-  31 2.09  35 2.09  25 2.10  33 2.11  16 2.12  32 2.12

IMPORTANT INFORMATION: All symmetrisations will be switched off!
NOSYMM: (Re-)initialisation of all symmetry stuff for point group C_1.

                                     Primitive cell

  volume of cell :    1504.9259

  direct lattice vectors                    reciprocal lattice vectors
     8.404861995  0.000000000  0.000000000     0.118978753  0.000000000  0.000000000
     0.000000000  8.404861995  0.000000000     0.000000000  0.118978753  0.000000000
     0.000000000  0.000000000 21.303646496     0.000000000  0.000000000  0.046940321

  length of vectors
     8.404861995  8.404861995 21.303646496     0.118978753  0.118978753  0.046940321

  position of ions in fractional coordinates (direct lattice)
     0.499999979  0.249991049  0.722280694
     0.499999958  0.386237138  0.745259023
     0.500000094  0.113778699  0.745258253
     0.250000000  0.000000000  0.352052406
     0.500000000  0.250000000  0.352052406
     0.250000000  0.250000000  0.450684135
     0.500000000  0.000000000  0.450684135
     0.252426551  0.999162196  0.550342086
     0.500000012  0.249999781  0.547171117
     0.235817388  0.249999640  0.645856367
     0.499999978  0.987658640  0.657661623
     0.250000000  0.500000000  0.352052406
     0.500000000  0.750000000  0.352052406
     0.250000000  0.750000000  0.450684135
     0.500000000  0.500000000  0.450684135
     0.252426392  0.500837426  0.550342125
     0.499999990  0.749999939  0.550743080
     0.247188795  0.750000111  0.647710849
     0.499999965  0.512343327  0.657661026
     0.750000000  0.000000000  0.352052406
     0.000000000  0.250000000  0.352052406
     0.750000000  0.250000000  0.450684135
     0.000000000  0.000000000  0.450684135
     0.747573413  0.999162235  0.550342104
     0.999999963  0.250000097  0.548127400
     0.764182604  0.249999601  0.645856410
     0.999999994  0.997358912  0.647071538
     0.750000000  0.500000000  0.352052406
     0.000000000  0.750000000  0.352052406
     0.750000000  0.750000000  0.450684135
     0.000000000  0.500000000  0.450684135
     0.747573451  0.500837357  0.550342237
     0.000000001  0.749999796  0.549014400
     0.752811210  0.750000135  0.647710859
     0.000000016  0.502641208  0.647071756
     0.250000000  0.000000000  0.450684135
     0.500000000  0.250000000  0.450684135
     0.250000000  0.250000000  0.352052406
     0.500000000  0.000000000  0.352052406
     0.247904978  0.001435094  0.648392751
     0.499999972  0.250000759  0.654683536
     0.252420226  0.250000012  0.549772012
     0.499999967  0.002277282  0.550510991
     0.250000000  0.500000000  0.450684135
     0.500000000  0.750000000  0.450684135
     0.250000000  0.750000000  0.352052406
     0.500000000  0.500000000  0.352052406
     0.247905408  0.498564421  0.648392971
     0.499999990  0.750000944  0.650480909
     0.250694589  0.749999719  0.549436489
     0.499999971  0.497722525  0.550510920
     0.750000000  0.000000000  0.450684135
     0.000000000  0.250000000  0.450684135
     0.750000000  0.250000000  0.352052406
     0.000000000  0.000000000  0.352052406
     0.752095020  0.001435096  0.648392753
     0.999999996  0.249999891  0.647673947
     0.747579769  0.250000013  0.549772041
     0.000000007  0.000560546  0.548740558
     0.750000000  0.500000000  0.450684135
     0.000000000  0.750000000  0.450684135
     0.750000000  0.750000000  0.352052406
     0.000000000  0.500000000  0.352052406
     0.752094594  0.498564386  0.648392998
     0.999999953  0.749999980  0.648548154
     0.749305413  0.749999716  0.549436500
     0.000000002  0.499439369  0.548740644

  ion indices of the primitive-cell ions
   primitive index   ion index
                 1           1
                 2           2
                 3           3
                 4           4
                 5           5
                 6           6
                 7           7
                 8           8
                 9           9
                10          10
                11          11
                12          12
                13          13
                14          14
                15          15
                16          16
                17          17
                18          18
                19          19
                20          20
                21          21
                22          22
                23          23
                24          24
[...]
   6.30364650  6.30364650  9.60121550
   0.00000000  4.20243100  9.60121550
   6.28325169  4.20946887 11.72429646
   0.00000001  6.30364478 11.69600869
   6.32727433  6.30364763 13.79860316
   0.00000013  4.22462999 13.78498794
   2.10121550  0.00000000  9.60121550
   4.20243100  2.10121550  9.60121550
   2.10121550  2.10121550  7.50000000
   4.20243100  0.00000000  7.50000000
   2.08360713  0.01206177 13.81312996
   4.20243076  2.10122188 13.94714662
   2.12155716  2.10121560 11.71214859
   4.20243072  0.01914024 11.72789155
   2.10121550  4.20243100  9.60121550
   4.20243100  6.30364650  9.60121550
   2.10121550  6.30364650  7.50000000
   4.20243100  4.20243100  7.50000000
   2.08361075  4.19036515 13.81313464
   4.20243091  6.30365443 13.85761533
   2.10705342  6.30364413 11.70500074
   4.20243076  4.18328914 11.72789003
   6.30364650  0.00000000  9.60121550
   0.00000000  2.10121550  9.60121550
   6.30364650  2.10121550  7.50000000
   0.00000000  0.00000000  7.50000000
   6.32125485  0.01206178 13.81313001
   8.40486196  2.10121458 13.79781681
   6.28330479  2.10121561 11.71214922
   0.00000006  0.00471131 11.69017487
   6.30364650  4.20243100  9.60121550
   0.00000000  6.30364650  9.60121550
   6.30364650  6.30364650  7.50000000
   0.00000000  4.20243100  7.50000000
   6.32125127  4.19036486 13.81313523
   8.40486160  6.30364632 13.81644062
   6.29780859  6.30364411 11.70500096
   0.00000002  4.19771897 11.69017669

--------------------------------------- Iteration      FINAL  ---------------------------------------

--------------------OUTCAR has been truncated-------------------------

[...]

--------------------OUTCAR has been truncated-------------------------

  Number of pair interactions contributing to vdW energy:  799657
  Edisp (eV):   -5.41432

  FORCE on cell =-STRESS in cart. coord.  units (eV):
  Direction    XX          YY          ZZ          XY          YZ          ZX
  Alpha Z   936.10291   936.10291   936.10291
  Ewald  162161.65108163062.53870************     0.00109    -0.01177     0.00043
  Hartree172674.58545173198.12587************     0.00059     0.00154     0.00015
  E(xc)   -2064.91636 -2063.02332 -2066.65876     0.00000    -0.00007     0.00000
  Local  ************************344951.65297    -0.00161     0.00643    -0.00056
  n-local -1211.07575 -1214.67038 -1236.36280    -0.00001     0.00044    -0.00000
  augment   909.31834   908.08152   900.43420    -0.00000     0.00005     0.00000
  Kinetic  7685.99378  7648.03246  7713.42126    -0.00005     0.00073    -0.00004
  Fock    -2019.72650 -2021.95168 -2018.07117    -0.00000     0.00020    -0.00000
  vdW        -7.79438    -7.61594    -6.31486     0.00000     0.00000     0.00000
  Total     -26.03330   -28.10679    -2.47263     0.00000    -0.00244    -0.00001
  in kB     -27.71563   -29.92311    -2.63242     0.00001    -0.00260    -0.00001

 VOLUME and BASIS-vectors are now :
  energy-cutoff  :      600.00
  volume of cell :     1504.93
      direct lattice vectors                 reciprocal lattice vectors
     8.404861995  0.000000000  0.000000000     0.118978753  0.000000000  0.000000000
     0.000000000  8.404861995  0.000000000     0.000000000  0.118978753  0.000000000
     0.000000000  0.000000000 21.303646496     0.000000000  0.000000000  0.046940321

  length of vectors
     8.404861995  8.404861995 21.303646496     0.118978753  0.118978753  0.046940321

 FORCES acting on ions:
    Electron-Ion                     Ewald-Force                    Non-Local-Force
   0.343E-03 -.268E-01 -.112E+04   -.339E-03 0.322E-01 0.112E+04   0.718E-05 -.132E-03 -.269E+01
   -.645E-03 -.225E+03 -.182E+04   0.790E-03 0.269E+03 0.185E+04   -.143E-03 -.393E+02 -.253E+02
   0.260E-03 0.225E+03 -.182E+04   -.292E-03 -.269E+03 0.185E+04   0.277E-04 0.393E+02 -.253E+02
   0.168E-01 0.796E+00 0.212E+04   -.159E-01 -.839E+00 -.212E+04   -.109E-02 0.278E-01 -.645E+01
   -.802E-05 0.916E-07 0.213E+04   0.948E-05 -.238E-05 -.212E+04   -.143E-05 0.161E-05 -.628E+01
   0.251E+01 0.260E-03 0.760E+03   -.255E+01 -.281E-03 -.761E+03   0.177E-01 0.151E-04 0.702E+00
   -.503E-04 0.633E+01 0.756E+03   0.560E-04 -.665E+01 -.757E+03   -.345E-05 0.198E+00 0.497E+00
   0.485E+01 0.798E+01 -.598E+03   -.412E+01 -.823E+01 0.599E+03   -.661E+00 0.232E+00 -.122E+01
   0.146E-03 -.555E-03 -.582E+03   -.146E-03 0.456E-03 0.577E+03   -.305E-05 0.113E-03 0.464E+01
   0.438E+02 -.426E-03 -.190E+04   -.498E+02 0.670E-03 0.190E+04   0.546E+01 -.130E-03 0.639E+01
   0.724E-04 0.846E+02 -.192E+04   -.786E-04 -.881E+02 0.192E+04   0.683E-05 0.322E+01 0.879E+00
   0.167E-01 -.796E+00 0.212E+04   -.158E-01 0.839E+00 -.212E+04   -.109E-02 -.278E-01 -.645E+01
   -.145E-04 0.824E-05 0.212E+04   0.146E-04 -.330E-05 -.212E+04   -.360E-06 -.331E-05 -.646E+01
   -.120E+01 -.167E-03 0.756E+03   0.131E+01 0.197E-03 -.757E+03   -.725E-01 -.207E-04 0.376E+00
   -.508E-04 -.633E+01 0.756E+03   0.568E-04 0.665E+01 -.757E+03   -.452E-05 -.198E+00 0.497E+00
   0.485E+01 -.798E+01 -.598E+03   -.412E+01 0.823E+01 0.599E+03   -.661E+00 -.232E+00 -.122E+01
   -.605E-04 0.818E-03 -.606E+03   0.649E-04 -.752E-03 0.607E+03   0.104E-06 -.926E-04 -.403E+00
   0.279E+02 -.142E-03 -.199E+04   -.289E+02 -.926E-04 0.198E+04   0.918E+00 0.181E-03 0.571E+01
   0.337E-03 -.846E+02 -.192E+04   -.327E-03 0.881E+02 0.192E+04   -.611E-05 -.322E+01 0.878E+00
   -.168E-01 0.796E+00 0.212E+04   0.159E-01 -.839E+00 -.212E+04   0.109E-02 0.278E-01 -.645E+01
   0.708E-05 0.782E-04 0.213E+04   -.937E-05 -.818E-04 -.212E+04   0.183E-05 0.253E-05 -.632E+01
   -.251E+01 0.258E-03 0.760E+03   0.255E+01 -.280E-03 -.761E+03   -.177E-01 0.142E-04 0.702E+00
   0.472E-04 0.261E+01 0.760E+03   -.540E-04 -.279E+01 -.760E+03   0.403E-05 0.111E+00 0.514E-01
   -.485E+01 0.798E+01 -.598E+03   0.412E+01 -.823E+01 0.599E+03   0.661E+00 0.232E+00 -.122E+01
   -.143E-03 0.382E-03 -.574E+03   0.146E-03 -.368E-03 0.574E+03   0.104E-05 0.908E-05 0.135E+00
   -.438E+02 -.311E-03 -.190E+04   0.498E+02 0.556E-03 0.190E+04   -.546E+01 -.131E-03 0.639E+01
   -.536E-05 0.173E+02 -.200E+04   0.140E-04 -.181E+02 0.199E+04   -.910E-05 0.801E+00 0.558E+01
   -.167E-01 -.796E+00 0.212E+04   0.158E-01 0.839E+00 -.212E+04   0.109E-02 -.278E-01 -.645E+01
   0.140E-04 -.783E-04 0.212E+04   -.143E-04 0.813E-04 -.212E+04   -.425E-07 -.163E-05 -.643E+01
   0.120E+01 -.173E-03 0.756E+03   -.131E+01 0.204E-03 -.757E+03   0.725E-01 -.205E-04 0.376E+00
   0.436E-04 -.261E+01 0.760E+03   -.490E-04 0.279E+01 -.760E+03   0.415E-05 -.111E+00 0.513E-01
   -.485E+01 -.798E+01 -.598E+03   0.412E+01 0.823E+01 0.599E+03   0.661E+00 -.232E+00 -.122E+01
   0.448E-04 -.172E-03 -.599E+03   -.497E-04 0.215E-03 0.599E+03   0.157E-05 -.402E-04 -.132E+00
   -.279E+02 -.258E-03 -.199E+04   0.289E+02 0.156E-04 0.198E+04   -.918E+00 0.185E-03 0.571E+01
   -.186E-03 -.173E+02 -.200E+04   0.178E-03 0.181E+02 0.199E+04   0.492E-05 -.801E+00 0.558E+01
   0.327E+00 0.218E+01 0.567E+03   -.449E+00 -.228E+01 -.566E+03   0.141E+00 0.125E+00 -.316E+00
   -.143E-04 -.191E-03 0.578E+03   0.133E-04 0.166E-03 -.579E+03   0.113E-05 0.344E-04 0.500E+00
   0.180E+00 0.337E-04 0.160E+04   -.188E+00 -.365E-04 -.160E+04   0.985E-02 0.618E-05 0.317E+01
   -.809E-05 0.786E+00 0.160E+04   0.934E-05 -.838E+00 -.160E+04   0.137E-06 0.652E-01 0.312E+01
   0.362E+02 0.281E+02 -.147E+04   -.352E+02 -.281E+02 0.148E+04   -.848E+00 0.465E-01 -.470E+01
   0.277E-03 -.143E-02 -.124E+04   -.291E-03 0.240E-02 0.122E+04   0.812E-05 -.105E-02 0.224E+02
   0.217E+01 0.364E-03 -.436E+03   -.244E+01 -.312E-03 0.435E+03   0.237E+00 -.459E-04 0.852E+00
   0.471E-04 0.768E+01 -.465E+03   -.472E-04 -.807E+01 0.467E+03   -.387E-07 0.351E+00 -.178E+01
   0.327E+00 -.218E+01 0.567E+03   -.448E+00 0.228E+01 -.566E+03   0.141E+00 -.125E+00 -.316E+00
   -.553E-04 0.333E-03 0.564E+03   0.580E-04 -.365E-03 -.563E+03   -.309E-05 0.318E-04 -.281E+00
   -.141E+00 -.314E-04 0.160E+04   0.148E+00 0.343E-04 -.160E+04   -.973E-02 -.586E-05 0.308E+01
   -.911E-05 -.786E+00 0.160E+04   0.934E-05 0.838E+00 -.160E+04   -.256E-05 -.652E-01 0.312E+01
   0.361E+02 -.281E+02 -.147E+04   -.352E+02 0.281E+02 0.148E+04   -.849E+00 -.464E-01 -.470E+01
   0.102E-03 -.469E-03 -.148E+04   -.101E-03 0.361E-03 0.148E+04   -.686E-05 0.107E-03 -.354E+01
   0.254E+01 0.407E-05 -.445E+03   -.268E+01 -.111E-03 0.444E+03   0.127E+00 0.114E-03 0.343E+00
   0.514E-04 -.768E+01 -.465E+03   -.508E-04 0.807E+01 0.467E+03   -.907E-06 -.351E+00 -.178E+01
   -.327E+00 0.218E+01 0.567E+03   0.449E+00 -.228E+01 -.566E+03   -.141E+00 0.125E+00 -.316E+00
   0.122E-04 0.300E-03 0.573E+03   -.111E-04 -.283E-03 -.574E+03   -.184E-05 -.184E-04 0.341E+00
   -.180E+00 0.324E-04 0.160E+04   0.188E+00 -.364E-04 -.160E+04   -.986E-02 0.344E-05 0.317E+01
   0.677E-05 0.465E+00 0.160E+04   -.929E-05 -.502E+00 -.160E+04   0.785E-07 0.457E-01 0.311E+01
   -.362E+02 0.281E+02 -.147E+04   0.352E+02 -.281E+02 0.148E+04   0.848E+00 0.465E-01 -.470E+01
   -.163E-03 -.253E-03 -.150E+04   0.165E-03 0.347E-03 0.151E+04   0.158E-06 -.754E-04 -.469E+01
   -.217E+01 0.356E-03 -.436E+03   0.244E+01 -.302E-03 0.435E+03   -.237E+00 -.484E-04 0.852E+00
   -.261E-04 0.606E+01 -.441E+03   0.228E-04 -.613E+01 0.441E+03   0.306E-05 0.601E-01 0.101E+00
   -.327E+00 -.218E+01 0.567E+03   0.448E+00 0.228E+01 -.566E+03   -.141E+00 -.125E+00 -.316E+00
   0.500E-04 -.304E-03 0.569E+03   -.518E-04 0.299E-03 -.569E+03   0.228E-05 0.560E-05 -.320E-01
   0.141E+00 -.298E-04 0.160E+04   -.148E+00 0.345E-04 -.160E+04   0.973E-02 -.337E-05 0.308E+01
   0.836E-05 -.465E+00 0.160E+04   -.912E-05 0.502E+00 -.160E+04   0.221E-05 -.457E-01 0.311E+01
   -.361E+02 -.281E+02 -.147E+04   0.352E+02 0.281E+02 0.148E+04   0.849E+00 -.464E-01 -.470E+01
   0.204E-05 0.576E-03 -.152E+04   -.123E-04 -.742E-03 0.152E+04   0.837E-05 0.161E-03 -.456E+01
   -.254E+01 -.442E-04 -.445E+03   0.268E+01 -.592E-04 0.444E+03   -.127E+00 0.113E-03 0.343E+00
   -.666E-04 -.606E+01 -.441E+03   0.659E-04 0.613E+01 0.441E+03   0.178E-05 -.601E-01 0.101E+00
   0.105E-03 -.451E-02 0.570E+02   0.551E-12 -.497E-13 -.273E-11   -.870E-04 0.480E-02 -.508E+02

 POSITION                                       TOTAL-FORCE (eV/Angst)
      4.20243      2.10120     15.39295         0.000011      0.005253      0.000039
      4.20243      3.24574     15.88505        -0.000017      0.002132      0.002269
      4.20243      0.95679     15.88506        -0.000000     -0.006384      0.004126
      2.10122      0.00000      7.50000        -0.000197     -0.011725      0.413813
      4.20243      2.10122      7.50000        -0.000000     -0.000013      0.373368
      2.10122      2.10122      9.60122        -0.021970     -0.000018     -0.012120
      4.20243      0.00000      9.60122         0.000002     -0.101301      0.082109
      2.12170      8.39766     11.72823         0.000961      0.000572     -0.000458
      4.20243      2.10122     11.65921        -0.000003      0.000009      0.000678
      1.98297      2.10122     13.76394         0.003090      0.000071      0.000830
      4.20243      8.30032     14.02018         0.000001      0.003542      0.004357
      2.10122      4.20243      7.50000        -0.000196      0.011699      0.413812
      4.20243      6.30365      7.50000        -0.000001     -0.000012      0.419783
      2.10122      6.30365      9.60122         0.030560     -0.000006      0.072235
      4.20243      4.20243      9.60122         0.000001      0.101292      0.082134
      2.12169      4.20963     11.72823         0.000997     -0.000549     -0.000412
      4.20243      6.30366     11.73602         0.000003     -0.000038      0.000981
      2.07743      6.30365     13.80303         0.000638     -0.000024     -0.002053
      4.20243      4.30699     14.02015         0.000004     -0.003948      0.004666
      6.30365      0.00000      7.50000         0.000197     -0.011726      0.413817
      0.00000      2.10122      7.50000        -0.000000     -0.000014      0.385060
      6.30365      2.10122      9.60122         0.021970     -0.000019     -0.012122
      0.00000      0.00000      9.60122        -0.000003     -0.048886      0.078149
      6.28316      8.39766     11.72823        -0.000961      0.000567     -0.000465
     -0.00000      2.10121     11.68215         0.000003      0.000006     -0.001506
      6.42189      2.10122     13.76394        -0.003089      0.000072      0.000837
      0.00000      8.38269     13.79253        -0.000001      0.001385      0.000231
      6.30365      4.20243      7.50000         0.000197      0.011699      0.413811
      0.00000      6.30365      7.50000        -0.000001     -0.000012      0.412462
      6.30365      6.30365      9.60122        -0.030560     -0.000005      0.072240
      0.00000      4.20243      9.60122        -0.000001      0.048856      0.078144
      6.28317      4.20963     11.72823        -0.000997     -0.000546     -0.000425
      0.00000      6.30365     11.70022        -0.000001     -0.000008     -0.001380
      6.32743      6.30365     13.80303        -0.000626     -0.000027     -0.002035
      0.00000      4.22461     13.79253        -0.000003     -0.001359      0.000226
      2.10122      0.00000      9.60122         0.039483      0.045103      0.045890
      4.20243      2.10122      9.60122         0.000000      0.000002     -0.056296
      2.10122      2.10122      7.50000         0.003301     -0.000008     -0.478744
      4.20243      0.00000      7.50000         0.000001      0.021730     -0.495174
      2.08360      0.01193     13.81912         0.000751     -0.000844     -0.000541
      4.20243      2.10123     13.95342        -0.000005     -0.000233      0.009406
      2.12178      2.10122     11.71559         0.000085     -0.000013     -0.002029
      4.20243      0.01965     11.73000        -0.000000     -0.000456     -0.000395
      2.10122      4.20243      9.60122         0.039491     -0.045126      0.045885
      4.20243      6.30365      9.60122        -0.000001     -0.000008      0.099934
      2.10122      6.30365      7.50000        -0.003384     -0.000017     -0.505824
      4.20243      4.20243      7.50000        -0.000003     -0.021756     -0.495168
      2.08360      4.19051     13.81911         0.000727      0.000812     -0.000590
      4.20243      6.30366     13.86450        -0.000007     -0.000000      0.000884
      2.10676      6.30365     11.70961         0.000862      0.000010     -0.002322
      4.20243      4.18278     11.73000        -0.000001      0.000404     -0.000409
      6.30365      0.00000      9.60122        -0.039484      0.045105      0.045891
      0.00000      2.10122      9.60122        -0.000001     -0.000018      0.037294
      6.30365      2.10122      7.50000        -0.003300     -0.000013     -0.478737
      0.00000      0.00000      7.50000        -0.000003      0.015067     -0.497906
      6.32126      0.01193     13.81912        -0.000748     -0.000843     -0.000545
      0.00000      2.10122     13.80473         0.000003     -0.000004     -0.002582
      6.28309      2.10122     11.71559        -0.000085     -0.000013     -0.002033
     -0.00000      0.00442     11.69563        -0.000000     -0.000034     -0.002845
      6.30365      4.20243      9.60122        -0.039491     -0.045127      0.045886
      0.00000      6.30365      9.60122         0.000001     -0.000012      0.004223
      6.30365      6.30365      7.50000         0.003385     -0.000012     -0.505829
      0.00000      4.20243      7.50000         0.000002     -0.015093     -0.497905
      6.32127      4.19051     13.81911        -0.000724      0.000811     -0.000593
      0.00000      6.30365     13.82325        -0.000001      0.000003     -0.000866
      6.29810      6.30365     11.70961        -0.000861      0.000011     -0.002322
     -0.00000      4.19801     11.69563         0.000001      0.000035     -0.002844
    total drift:                                0.000011      0.000862      0.006076

  FREE ENERGIE OF THE ION-ELECTRON SYSTEM (eV)
  free  energy   TOTEN  =      -467.07516305 eV

  energy  without entropy=     -467.07516305  energy(sigma->0) =     -467.07516305

 d Force = 0.5415313E-05[ 0.383E-05, 0.700E-05]  d Energy = 0.4091567E-05 0.132E-05
 d Force = 0.1218222E+01[ 0.122E+01, 0.122E+01]  d Ewald  = 0.1218222E+01-0.610E-10

 Conjugate gradient step on ions:
 trial-energy change:   -0.000004  1 .order   -0.000005   -0.000007   -0.000004
  (g-gl).g = 0.227E-04      g.g   = 0.336E-04  gl.gl    = 0.458E-04
 g(Force)  = 0.336E-04   g(Stress)= 0.000E+00 ortho     =-0.528E-05
 gamma     =   0.49518
 trial     =   0.22618
 opt step  =   0.49854  (harmonic =   0.49854) maximal distance =0.00055140
 next E    =  -467.075167   (d E  =  -0.00001)

 reached required accuracy - stopping structural energy minimisation