 vasp.6.3.0 20Jan22 (build Apr  1 2022 16:44:48) complex
 executed on        HPECrayEX_GCC date 2022.11.13  16:33:46

 INCAR:
   SYSTEM = MgO-rocksalt
   ISMEAR = 0
   SIGMA = 0.05
   EDIFF = 1E-6
   ALGO = ALL
   ISTART = 0
   IBRION = -1
   NSW = 0
   ISYM = 0
   DIPOL = 0.5 0.5 0.5
   IDIPOL = 3
   LDIPOL = .TRUE.
   LHFCALC = .TRUE.
   GGA = B5
   AEXX = 0.2
   AGGAX = 0.72
   AGGAC = 0.81
   ALDAC = 0.19
   IVDW = 1
   VDW_S6 = 1.05
   VDW_C6 = 1.23 0.70 0.63 0.70
   VDW_R0 = 1.397 1.342 1.243 1.342
   ENCUT = 600
   PREC = Accurate
   LASPH = .TRUE.
   LREAL = .FALSE.
   ISPIN = 2
   MAGMOM = 1.0 0.0 0.0 0.0 0.0 0.0 0.0 0.0 0.0 0.0 0.0 0.0 0.0 0.0 0.0 0.0 0.0 0.0 0.0 0.0 0.0 0.0 0.0 0.0 0.0 0.0 0.0 0.0 0.0 0.0 0.0 0.0 0.0 0.0 0.0 0.0 0.0 0.0 0.0 0.0 0.0 0.0 0.0 0.0 0.0 0.0 0.0 0.0 0.0 0.0 0.0 0.0 0.0 0.0 0.0 0.0 0.0 0.0 0.0 0.0 0.0 0.0 0.0 0.0 0.0 0.0
   NELM = 200
   NELMIN = 8
   NCORE = 8
   KPAR = 1
   LWAVE = .FALSE.
   LCHARG = .FALSE.

 POTCAR:    PAW_PBE N 08Apr2002
 POTCAR:    PAW_PBE O 08Apr2002
 POTCAR:    PAW_PBE Mg_pv 13Apr2007
 POTCAR:    PAW_PBE O 08Apr2002
 POTCAR:    PAW_PBE N 08Apr2002
   VRHFIN =N: s2p3

   TITEL  = PAW_PBE N 08Apr2002
   POMASS =   14.001; ZVAL   =    5.000    mass and valenz
   ENMAX  =  400.000; ENMIN  =  300.000 eV

[...]

   TITEL  = PAW_PBE Mg_pv 13Apr2007
   POMASS =   24.305; ZVAL   =    8.000    mass and valenz
   ENMAX  =  403.929; ENMIN  =  302.947 eV

   TITEL  = PAW_PBE O 08Apr2002
   POMASS =   16.000; ZVAL   =    6.000    mass and valenz
   ENMAX  =  400.000; ENMIN  =  300.000 eV

  PAW_PBE N 08Apr2002                   :
  PAW_PBE O 08Apr2002                   :
  PAW_PBE Mg_pv 13Apr2007               :
  PAW_PBE O 08Apr2002                   :

 POSCAR:  N  O Mg  O
  positions in direct lattice
 exchange correlation table for  LEXCH =       12
   RHO(1)=    0.500       N(1)  =     2000
   RHO(2)=  100.500       N(2)  =     4000

 ion  position               nearest neighbor table
   1  0.500  0.500  0.766-   2 1.18
   2  0.500  0.500  0.821-   1 1.18
   3  0.000  0.750  0.350-  35 2.14  37 2.14  38 2.14  45 2.14  54 2.14
   4  0.250  0.000  0.350-  36 2.14  37 2.14  38 2.14  46 2.14  53 2.14
   5  0.000  0.000  0.450-  37 2.14  36 2.14  35 2.14  43 2.14  52 2.14  41 2.14
   6  0.250  0.750  0.450-  38 2.14  36 2.14  35 2.14  44 2.14  51 2.14  42 2.14
   7  1.000  0.750  0.550-  58 2.14  49 2.14  42 2.14  41 2.14  35 2.15  39 2.16
   8  0.250  0.000  0.550-  50 2.14  57 2.14  42 2.14  41 2.14  36 2.15  40 2.16
   9  0.000  0.000  0.650-  41 2.13  40 2.14  56 2.14  47 2.14  39 2.14
  10  0.250  0.750  0.649-  42 2.12  40 2.13  39 2.13  55 2.14  48 2.14
  11  0.000  0.250  0.350-  43 2.14  37 2.14  45 2.14  46 2.14  62 2.14
  12  0.250  0.500  0.350-  44 2.14  38 2.14  45 2.14  46 2.14  61 2.14
  13  0.000  0.500  0.450-  45 2.14  43 2.14  44 2.14  35 2.14  60 2.14  49 2.14
  14  0.250  0.250  0.450-  46 2.14  43 2.14  44 2.14  36 2.14  59 2.14  50 2.14
  15  0.000  0.250  0.550-  50 2.14  49 2.14  66 2.14  41 2.14  43 2.15  47 2.16
  16  0.250  0.500  0.550-  65 2.13  50 2.14  42 2.14  49 2.14  44 2.15  48 2.16
  17  0.000  0.500  0.649-  49 2.13  48 2.13  64 2.13  47 2.14  39 2.14
  18  0.250  0.250  0.650-  50 2.13  40 2.13  47 2.13  63 2.14  48 2.14
  19  0.500  0.750  0.350-  51 2.14  38 2.14  53 2.14  54 2.14  61 2.14
  20  0.750  0.000  0.350-  52 2.14  37 2.14  53 2.14  54 2.14  62 2.14
  21  0.500  0.000  0.450-  53 2.14  51 2.14  52 2.14  36 2.14  59 2.14  57 2.14
  22  0.750  0.750  0.450-  54 2.14  51 2.14  52 2.14  35 2.14  60 2.14  58 2.14
  23  0.500  0.750  0.550-  65 2.13  58 2.14  42 2.14  57 2.14  51 2.15  55 2.16
  24  0.750  1.000  0.550-  58 2.14  57 2.14  66 2.14  41 2.14  52 2.15  56 2.16
  25  0.500  0.000  0.649-  57 2.13  63 2.13  55 2.13  40 2.14  56 2.14
  26  0.750  0.750  0.650-  58 2.13  56 2.13  39 2.13  55 2.14  64 2.14
  27  0.500  0.250  0.350-  59 2.14  53 2.14  46 2.14  61 2.14  62 2.14
  28  0.750  0.500  0.350-  60 2.14  54 2.14  45 2.14  61 2.14  62 2.14
  29  0.500  0.500  0.450-  61 2.14  51 2.14  59 2.14  60 2.14  44 2.14  65 2.15
  30  0.750  0.250  0.450-  62 2.14  52 2.14  59 2.14  60 2.14  43 2.14  66 2.14
  31  0.500  0.250  0.550-  65 2.13  50 2.14  66 2.14  57 2.14  59 2.15  63 2.16
  32  0.750  0.500  0.550-  65 2.13  58 2.14  66 2.14  49 2.14  60 2.15  64 2.16
  33  0.500  0.500  0.652-  48 2.14  64 2.14  63 2.14  55 2.14  65 2.17
  34  0.750  0.250  0.649-  66 2.12  56 2.13  47 2.13  63 2.14  64 2.14
  35  0.000  0.750  0.450-   3 2.14   5 2.14   6 2.14  13 2.14  22 2.14   7 2.15
  36  0.250  0.000  0.450-   4 2.14   5 2.14   6 2.14  14 2.14  21 2.14   8 2.15
  37  0.000  0.000  0.350-   5 2.14   4 2.14   3 2.14  11 2.14  20 2.14
  38  0.250  0.750  0.350-   6 2.14   4 2.14   3 2.14  12 2.14  19 2.14
  39  1.000  0.750  0.651-  10 2.13  26 2.13   9 2.14  17 2.14   7 2.16
  40  0.250  0.000  0.651-  10 2.13  18 2.13   9 2.14  25 2.14   8 2.16
  41  1.000  1.000  0.550-   9 2.13  24 2.14   8 2.14   7 2.14  15 2.14   5 2.14
  42  0.250  0.750  0.550-  10 2.12   7 2.14   8 2.14  16 2.14  23 2.14   6 2.14
  43  0.000  0.250  0.450-  11 2.14   5 2.14  13 2.14  14 2.14  30 2.14  15 2.15
  44  0.250  0.500  0.450-  12 2.14   6 2.14  13 2.14  14 2.14  29 2.14  16 2.15
  45  0.000  0.500  0.350-  13 2.14  11 2.14  12 2.14   3 2.14  28 2.14
  46  0.250  0.250  0.350-  14 2.14  11 2.14  12 2.14   4 2.14  27 2.14
  47  0.000  0.250  0.651-  34 2.13  18 2.13   9 2.14  17 2.14  15 2.16
  48  0.249  0.500  0.651-  17 2.13  10 2.14  18 2.14  33 2.14  16 2.16
  49  0.000  0.500  0.550-  17 2.13  15 2.14   7 2.14  13 2.14  16 2.14  32 2.14
  50  0.250  0.250  0.550-  18 2.13  15 2.14   8 2.14  16 2.14  31 2.14  14 2.14
  51  0.500  0.750  0.450-  19 2.14   6 2.14  21 2.14  22 2.14  29 2.14  23 2.15
  52  0.750  0.000  0.450-  20 2.14   5 2.14  21 2.14  22 2.14  30 2.14  24 2.15
  53  0.500  0.000  0.350-  21 2.14  19 2.14  20 2.14   4 2.14  27 2.14
  54  0.750  0.750  0.350-  22 2.14  19 2.14  20 2.14   3 2.14  28 2.14
  55  0.500  0.751  0.651-  25 2.13  10 2.14  26 2.14  33 2.14  23 2.16
  56  0.750  1.000  0.651-  34 2.13  26 2.13   9 2.14  25 2.14  24 2.16
  57  0.500  0.000  0.550-  25 2.13  24 2.14   8 2.14  21 2.14  31 2.14  23 2.14
  58  0.750  0.750  0.550-  26 2.13   7 2.14  24 2.14  32 2.14  23 2.14  22 2.14
  59  0.500  0.250  0.450-  27 2.14  21 2.14  14 2.14  29 2.14  30 2.14  31 2.15
  60  0.750  0.500  0.450-  28 2.14  22 2.14  13 2.14  29 2.14  30 2.14  32 2.15
  61  0.500  0.500  0.350-  29 2.14  19 2.14  27 2.14  28 2.14  12 2.14
  62  0.750  0.250  0.350-  30 2.14  20 2.14  27 2.14  28 2.14  11 2.14
  63  0.500  0.249  0.651-  25 2.13  34 2.14  18 2.14  33 2.14  31 2.16
  64  0.751  0.500  0.651-  17 2.13  34 2.14  26 2.14  33 2.14  32 2.16
  65  0.500  0.500  0.550-  16 2.13  32 2.13  31 2.13  23 2.13  29 2.15  33 2.17
  66  0.750  0.250  0.550-  34 2.12  15 2.14  24 2.14  32 2.14  31 2.14  30 2.14

IMPORTANT INFORMATION: All symmetrisations will be switched off!
NOSYMM: (Re-)initialisation of all symmetry stuff for point group C_1.

                                     Primitive cell

  volume of cell :    1563.6717

  direct lattice vectors                    reciprocal lattice vectors
     8.546113626  0.000000000  0.000000000     0.117012252  0.000000000  0.000000000
     0.000000000  8.546113626  0.000000000     0.000000000  0.117012252  0.000000000
     0.000000000  0.000000000 21.409585219     0.000000000  0.000000000  0.046708051

  length of vectors
     8.546113626  8.546113626 21.409585219     0.117012252  0.117012252  0.046708051

  position of ions in fractional coordinates (direct lattice)
     0.500000046  0.500000039  0.765652354
     0.499999949  0.499999929  0.820641961
     0.000000000  0.750000000  0.350310383
     0.250000000  0.000000000  0.350310383
     0.000000000  0.000000000  0.450103461
     0.250000000  0.750000000  0.450103461
     0.999893820  0.749954275  0.550323455
     0.250045644  0.000106188  0.550323218
     0.000000003  0.000000004  0.649520562
     0.249562891  0.750438804  0.649261804
     0.000000000  0.250000000  0.350310383
     0.250000000  0.500000000  0.350310383
     0.000000000  0.500000000  0.450103461
     0.250000000  0.250000000  0.450103461
     0.000106185  0.250045725  0.550323448
     0.250469081  0.500018785  0.550485322
     0.000000002  0.499999992  0.649484959
     0.249865881  0.249864175  0.649561989
     0.500000000  0.750000000  0.350310383
     0.750000000  0.000000000  0.350310383
     0.500000000  0.000000000  0.450103461
     0.750000000  0.750000000  0.450103461
     0.499981206  0.749531432  0.550485477
     0.749954353  0.999893820  0.550323226
     0.499999992  0.000000002  0.649483998
     0.750134115  0.750135821  0.649561974
     0.500000000  0.250000000  0.350310383
     0.750000000  0.500000000  0.350310383
     0.500000000  0.500000000  0.450103461
     0.750000000  0.250000000  0.450103461
     0.500018779  0.250468567  0.550485457
     0.749530914  0.499981207  0.550485342
     0.499999989  0.499999989  0.651644233
     0.750437103  0.249561192  0.649261805
     0.000000000  0.750000000  0.450103461
     0.250000000  0.000000000  0.450103461
     0.000000000  0.000000000  0.350310383
     0.250000000  0.750000000  0.350310383
     0.999909135  0.750215773  0.651410347
     0.249783456  0.000090865  0.651410081
     0.999999998  0.999999997  0.550061661
     0.249907616  0.750091470  0.550081592
     0.000000000  0.250000000  0.450103461
     0.250000000  0.500000000  0.450103461
     0.000000000  0.500000000  0.350310383
     0.250000000  0.250000000  0.350310383
     0.000090872  0.249784227  0.651410341
     0.249086439  0.500312904  0.651321586
     0.000000004  0.500000000  0.550078461
     0.250032923  0.250033826  0.550159857
     0.500000000  0.750000000  0.450103461
     0.750000000  0.000000000  0.450103461
     0.500000000  0.000000000  0.350310383
     0.750000000  0.750000000  0.350310383
     0.499687120  0.750915546  0.651319077
     0.750216541  0.999909144  0.651410086
     0.500000001  0.000000003  0.550077539
     0.749967080  0.749966179  0.550159864
     0.500000000  0.250000000  0.450103461
     0.750000000  0.500000000  0.450103461
     0.500000000  0.500000000  0.350310383
     0.750000000  0.250000000  0.350310383
     0.500312863  0.249084455  0.651319091
     0.750913555  0.499687079  0.651321572
     0.499999992  0.499999991  0.550476767
     0.750092376  0.249908521  0.550081592

  ion indices of the primitive-cell ions
   primitive index   ion index
                 1           1
                 2           2
                 3           3
                 4           4
                 5           5
                 6           6
                 7           7
                 8           8
                 9           9
                10          10
                11          11
                12          12
                13          13
                14          14
                15          15
                16          16
                17          17
                18          18
                19          19
                20          20
[...]
   0.50000000  0.00000000  0.55007754
   0.74996708  0.74996618  0.55015986
   0.50000000  0.25000000  0.45010346
   0.75000000  0.50000000  0.45010346
   0.50000000  0.50000000  0.35031038
   0.75000000  0.25000000  0.35031038
   0.50031286  0.24908445  0.65131909
   0.75091356  0.49968708  0.65132157
   0.49999999  0.49999999  0.55047677
   0.75009238  0.24990852  0.55008159

 position of ions in cartesian coordinates  (Angst):
   4.27305721  4.27305715 16.39229932
   4.27305638  4.27305621 17.56960400
   0.00000000  6.40958522  7.50000000
   2.13652841  0.00000000  7.50000000
   0.00000000  0.00000000  9.63652841
   2.13652841  6.40958522  9.63652841
   8.54520620  6.40919445 11.78219691
   2.13691849  0.00090749 11.78219183
   0.00000002  0.00000003 13.90596583
   2.13279282  6.41333529 13.90042593
   0.00000000  2.13652841  7.50000000
   2.13652841  4.27305681  7.50000000
   0.00000000  4.27305681  9.63652841
   2.13652841  2.13652841  9.63652841
   0.00090747  2.13691918 11.78219675
   2.14053723  4.27321735 11.78566241
   0.00000002  4.27305674 13.90520357
   2.13538221  2.13536763 13.90685276
   4.27305681  6.40958522  7.50000000
   6.40958522  0.00000000  7.50000000
   4.27305681  0.00000000  9.63652841
   6.40958522  6.40958522  9.63652841
   4.27289620  6.40558079 11.78566574
   6.40919511  8.54520620 11.78219200
   4.27305675  0.00000002 13.90518299
   6.41073138  6.41074596 13.90685244
   4.27305681  2.13652841  7.50000000
   6.40958522  4.27305681  7.50000000
   4.27305681  4.27305681  9.63652841
   6.40958522  2.13652841  9.63652841
   4.27321730  2.14053283 11.78566531
   6.40557636  4.27289620 11.78566284
   4.27305672  4.27305672 13.95143274
   6.41332075  2.13277830 13.90042594
   0.00000000  6.40958522  9.63652841
   2.13652841  0.00000000  9.63652841
   0.00000000  0.00000000  7.50000000
   2.13652841  6.40958522  7.50000000
   8.54533708  6.41142924 13.94642533
   2.13467779  0.00077654 13.94641963
   8.54611361  8.54611360 11.77659201
   2.13573888  6.41036694 11.77701872
   0.00000000  2.13652841  9.63652841
   2.13652841  4.27305681  9.63652841
   0.00000000  4.27305681  7.50000000
   2.13652841  2.13652841  7.50000000
   0.00077660  2.13468439 13.94642520
   2.12872101  4.27573093 13.94452500
   0.00000003  4.27305681 11.77695168
   2.13680977  2.13681749 11.77869435
   4.27305681  6.40958522  9.63652841
   6.40958522  0.00000000  9.63652841
   4.27305681  0.00000000  7.50000000
   6.40958522  6.40958522  7.50000000
   4.27038291  6.41740958 13.94447128
   6.41143580  8.54533716 13.94641975
   4.27305682  0.00000002 11.77693195
   6.40930388  6.40929618 11.77869450
   4.27305681  2.13652841  9.63652841
   6.40958522  4.27305681  9.63652841
   4.27305681  4.27305681  7.50000000
   6.40958522  2.13652841  7.50000000
   4.27573057  2.12870405 13.94447158
   6.41739257  4.27038256 13.94452470
   4.27305675  4.27305674 11.78547925
   6.41037467  2.13574662 11.77701872

--------------------------------------- Iteration      FINAL  ---------------------------------------

--------------------OUTCAR has been truncated-------------------------

[...]

--------------------OUTCAR has been truncated-------------------------

  DFT-D2 method for vdW energy calculation

  Parameters of vdW forcefield:
         C6(Jnm^6/mol)     R0(A)
   N        1.230          1.397
   O        0.700          1.342
   Mg       0.630          1.243
   O        0.700          1.342

  vdW correction parametrized for the method        |¨

  IVDW =   1
  VDW_RADIUS =    50.000 A
  VDW_S6 =     1.050
  VDW_SR =     1.000
  VDW_D =    20.000
  LVDW_EWALD = F

  Number of pair interactions contributing to vdW energy:  749058
  Edisp (eV):   -4.91859

 VOLUME and BASIS-vectors are now :
  energy-cutoff  :      600.00
  volume of cell :     1563.67
      direct lattice vectors                 reciprocal lattice vectors
     8.546113626  0.000000000  0.000000000     0.117012252  0.000000000  0.000000000
     0.000000000  8.546113626  0.000000000     0.000000000  0.117012252  0.000000000
     0.000000000  0.000000000 21.409585219     0.000000000  0.000000000  0.046708051

  length of vectors
     8.546113626  8.546113626 21.409585219     0.117012252  0.117012252  0.046708051

 FORCES acting on ions:
    Electron-Ion                     Ewald-Force                    Non-Local-Force
   -.202E-03 -.223E-03 -.103E+04   0.233E-03 0.261E-03 0.994E+03   -.273E-04 -.368E-04 0.394E+02
   0.174E-03 0.196E-03 -.145E+04   -.213E-03 -.241E-03 0.151E+04   0.433E-04 0.385E-04 -.543E+02
   0.549E-02 -.146E+00 0.202E+04   -.584E-02 0.145E+00 -.201E+04   0.240E-03 0.595E-03 -.633E+01
   0.146E+00 -.536E-02 0.202E+04   -.145E+00 0.583E-02 -.201E+04   -.541E-03 -.324E-03 -.633E+01
   0.449E-04 0.347E-04 0.697E+03   -.139E-04 -.122E-04 -.697E+03   -.202E-04 -.141E-04 0.403E+00
   0.610E+00 -.610E+00 0.698E+03   -.604E+00 0.603E+00 -.699E+03   -.416E-02 0.443E-02 0.408E+00
   0.167E+00 -.296E+01 -.617E+03   -.174E+00 0.292E+01 0.617E+03   0.746E-02 0.285E-01 -.178E+00
   0.296E+01 -.167E+00 -.617E+03   -.293E+01 0.174E+00 0.617E+03   -.267E-01 -.746E-02 -.177E+00
   0.193E-04 0.255E-04 -.195E+04   -.170E-04 -.155E-04 0.194E+04   -.190E-05 -.773E-05 0.554E+01
   0.205E+02 -.205E+02 -.192E+04   -.206E+02 0.206E+02 0.191E+04   0.791E-01 -.723E-01 0.563E+01
   -.534E-02 0.146E+00 0.202E+04   0.583E-02 -.145E+00 -.201E+04   -.343E-03 -.591E-03 -.633E+01
   0.175E+00 0.608E-02 0.202E+04   -.173E+00 -.622E-02 -.201E+04   -.182E-02 0.112E-03 -.634E+01
   0.158E-04 -.360E-04 0.698E+03   -.306E-04 0.135E-04 -.698E+03   0.979E-05 0.136E-04 0.377E+00
   0.616E+00 0.616E+00 0.698E+03   -.603E+00 -.602E+00 -.698E+03   -.816E-02 -.845E-02 0.434E+00
   -.167E+00 0.296E+01 -.617E+03   0.174E+00 -.292E+01 0.617E+03   -.746E-02 -.285E-01 -.178E+00
   0.546E+01 0.185E+00 -.609E+03   -.536E+01 -.193E+00 0.610E+03   -.103E+00 0.786E-02 -.310E+00
   0.153E-04 -.381E-04 -.193E+04   -.115E-04 0.278E-04 0.192E+04   -.294E-05 0.737E-05 0.558E+01
   0.203E+02 0.203E+02 -.192E+04   -.205E+02 -.205E+02 0.192E+04   0.120E+00 0.113E+00 0.563E+01
   -.621E-02 -.175E+00 0.202E+04   0.623E-02 0.172E+00 -.201E+04   -.188E-04 0.185E-02 -.634E+01
   -.146E+00 0.547E-02 0.202E+04   0.145E+00 -.584E-02 -.201E+04   0.540E-03 0.255E-03 -.633E+01
   -.444E-04 0.178E-04 0.698E+03   0.136E-04 -.289E-04 -.698E+03   0.199E-04 0.959E-05 0.379E+00
   -.616E+00 -.616E+00 0.698E+03   0.603E+00 0.602E+00 -.698E+03   0.818E-02 0.848E-02 0.434E+00
   -.185E+00 -.546E+01 -.609E+03   0.193E+00 0.535E+01 0.610E+03   -.787E-02 0.105E+00 -.304E+00
   -.296E+01 0.167E+00 -.617E+03   0.293E+01 -.174E+00 0.617E+03   0.267E-01 0.746E-02 -.177E+00
   -.244E-04 0.713E-05 -.193E+04   0.190E-04 -.555E-05 0.192E+04   0.470E-05 -.114E-05 0.558E+01
   -.203E+02 -.203E+02 -.192E+04   0.205E+02 0.205E+02 0.192E+04   -.120E+00 -.113E+00 0.563E+01
   0.606E-02 0.175E+00 0.202E+04   -.622E-02 -.172E+00 -.201E+04   0.129E-03 -.187E-02 -.634E+01
   -.175E+00 -.618E-02 0.202E+04   0.173E+00 0.623E-02 -.201E+04   0.180E-02 -.437E-04 -.634E+01
   -.177E-04 -.196E-04 0.699E+03   0.311E-04 0.309E-04 -.699E+03   -.768E-05 -.710E-05 0.482E+00
   -.610E+00 0.610E+00 0.698E+03   0.604E+00 -.603E+00 -.699E+03   0.414E-02 -.446E-02 0.408E+00
   0.185E+00 0.546E+01 -.609E+03   -.193E+00 -.535E+01 0.610E+03   0.787E-02 -.105E+00 -.304E+00
   -.546E+01 -.185E+00 -.609E+03   0.536E+01 0.193E+00 0.610E+03   0.103E+00 -.785E-02 -.311E+00
   -.143E-04 -.294E-04 -.184E+04   0.923E-05 0.232E-04 0.184E+04   0.360E-05 0.458E-05 0.502E+01
   -.205E+02 0.205E+02 -.192E+04   0.206E+02 -.206E+02 0.191E+04   -.791E-01 0.723E-01 0.563E+01
   0.303E-01 -.403E+00 0.523E+03   -.212E-01 0.396E+00 -.523E+03   -.109E-01 0.847E-02 -.793E-01
   0.404E+00 -.302E-01 0.523E+03   -.397E+00 0.212E-01 -.523E+03   -.794E-02 0.108E-01 -.789E-01
   0.326E-04 0.248E-04 0.152E+04   -.270E-05 -.256E-05 -.152E+04   -.354E-04 -.266E-04 0.315E+01
   0.120E+00 -.120E+00 0.152E+04   -.118E+00 0.118E+00 -.152E+04   -.231E-02 0.238E-02 0.315E+01
   0.189E+00 -.796E+01 -.147E+04   -.208E+00 0.789E+01 0.148E+04   0.174E-01 0.592E-01 -.436E+01
   0.795E+01 -.189E+00 -.147E+04   -.789E+01 0.208E+00 0.148E+04   -.537E-01 -.175E-01 -.436E+01
   0.136E-04 0.764E-05 -.460E+03   -.834E-05 -.218E-05 0.460E+03   -.783E-05 -.602E-05 0.278E+00
   0.306E+01 -.306E+01 -.454E+03   -.305E+01 0.305E+01 0.454E+03   -.120E-01 0.150E-01 0.361E+00
   -.302E-01 0.403E+00 0.523E+03   0.212E-01 -.396E+00 -.523E+03   0.108E-01 -.848E-02 -.793E-01
   0.613E+00 0.415E-01 0.523E+03   -.638E+00 -.407E-01 -.523E+03   0.297E-01 -.110E-02 -.110E+00
   -.326E-04 -.254E-04 0.152E+04   -.417E-05 0.258E-05 -.152E+04   0.256E-04 0.258E-04 0.315E+01
   0.119E+00 0.119E+00 0.152E+04   -.118E+00 -.118E+00 -.152E+04   -.193E-02 -.205E-02 0.315E+01
   -.189E+00 0.796E+01 -.147E+04   0.208E+00 -.789E+01 0.148E+04   -.174E-01 -.592E-01 -.436E+01
   0.279E+02 0.238E+00 -.144E+04   -.278E+02 -.263E+00 0.144E+04   -.145E+00 0.205E-01 -.428E+01
   0.196E-04 -.163E-04 -.456E+03   -.199E-04 0.106E-04 0.455E+03   -.253E-06 0.683E-05 0.285E+00
   0.303E+01 0.303E+01 -.455E+03   -.301E+01 -.301E+01 0.455E+03   -.193E-01 -.222E-01 0.292E+00
   -.416E-01 -.612E+00 0.523E+03   0.407E-01 0.637E+00 -.523E+03   0.115E-02 -.291E-01 -.110E+00
   -.404E+00 0.302E-01 0.523E+03   0.397E+00 -.212E-01 -.523E+03   0.795E-02 -.109E-01 -.789E-01
   -.324E-04 -.194E-04 0.152E+04   0.270E-05 -.403E-05 -.152E+04   0.362E-04 0.251E-04 0.315E+01
   -.120E+00 -.119E+00 0.152E+04   0.118E+00 0.118E+00 -.152E+04   0.198E-02 0.211E-02 0.315E+01
   -.238E+00 -.279E+02 -.144E+04   0.263E+00 0.277E+02 0.144E+04   -.204E-01 0.143E+00 -.426E+01
   -.795E+01 0.189E+00 -.147E+04   0.789E+01 -.208E+00 0.148E+04   0.537E-01 0.175E-01 -.436E+01
   -.109E-04 0.131E-04 -.456E+03   0.562E-05 -.132E-04 0.455E+03   0.717E-05 0.103E-05 0.290E+00
   -.303E+01 -.303E+01 -.455E+03   0.301E+01 0.301E+01 0.455E+03   0.193E-01 0.222E-01 0.292E+00
   0.415E-01 0.612E+00 0.523E+03   -.407E-01 -.637E+00 -.523E+03   -.109E-02 0.291E-01 -.110E+00
   -.613E+00 -.416E-01 0.523E+03   0.638E+00 0.407E-01 -.523E+03   -.297E-01 0.114E-02 -.110E+00
   0.260E-04 0.262E-04 0.152E+04   0.419E-05 0.406E-05 -.152E+04   -.221E-04 -.180E-04 0.315E+01
   -.120E+00 0.120E+00 0.152E+04   0.118E+00 -.118E+00 -.152E+04   0.226E-02 -.245E-02 0.315E+01
   0.238E+00 0.279E+02 -.144E+04   -.263E+00 -.277E+02 0.144E+04   0.204E-01 -.143E+00 -.426E+01
   -.279E+02 -.238E+00 -.144E+04   0.278E+02 0.263E+00 0.144E+04   0.145E+00 -.205E-01 -.428E+01
   -.200E-04 -.254E-04 -.453E+03   0.203E-04 0.250E-04 0.454E+03   -.326E-07 -.178E-06 -.188E+00
   -.306E+01 0.306E+01 -.454E+03   0.305E+01 -.305E+01 0.454E+03   0.120E-01 -.150E-01 0.361E+00
   -.708E-05 -.132E-04 0.336E+02   0.120E-12 0.586E-13 -.335E-11   0.529E-05 0.838E-05 -.281E+02

 POSITION                                       TOTAL-FORCE (eV/Angst)
      4.27306      4.27306     16.39230         0.000002     -0.000002      2.153885
      4.27306      4.27306     17.56960         0.000010     -0.000001     -2.102634
      0.00000      6.40959      7.50000        -0.000082     -0.000293      0.628126
      2.13653      0.00000      7.50000         0.000273      0.000106      0.628113
      0.00000      0.00000      9.63653         0.000008      0.000007      0.017226
      2.13653      6.40959      9.63653         0.001644     -0.001765      0.022321
      8.54521      6.40919     11.78220         0.000947     -0.008385     -0.013180
      2.13692      0.00091     11.78219         0.007670     -0.000945     -0.013687
      0.00000      0.00000     13.90597         0.000001      0.000002     -0.287451
      2.13279      6.41334     13.90043         0.000830     -0.003485     -0.297737
      0.00000      2.13653      7.50000         0.000106      0.000294      0.628123
      2.13653      4.27306      7.50000         0.000608     -0.000012      0.629273
      0.00000      4.27306      9.63653        -0.000004     -0.000007      0.032636
      2.13653      2.13653      9.63653         0.004070      0.004199      0.020740
      0.00091      2.13692     11.78220        -0.000945      0.008384     -0.013180
      2.14054      4.27322     11.78566        -0.003727      0.000482     -0.002210
      0.00000      4.27306     13.90520         0.000001     -0.000002     -0.300831
      2.13538      2.13537     13.90685         0.000137      0.002793     -0.300809
      4.27306      6.40959      7.50000        -0.000002     -0.000645      0.629002
      6.40959      0.00000      7.50000        -0.000274     -0.000085      0.628112
      4.27306      0.00000      9.63653        -0.000008     -0.000001      0.032081
      6.40959      6.40959      9.63653        -0.004078     -0.004210      0.020798
      4.27290      6.40558     11.78567        -0.000479      0.002818     -0.004295
      6.40920      8.54521     11.78219        -0.007670      0.000947     -0.013683
      4.27306      0.00000     13.90518        -0.000002      0.000000     -0.301528
      6.41073      6.41075     13.90685        -0.000133     -0.002789     -0.300818
      4.27306      2.13653      7.50000        -0.000018      0.000622      0.629227
      6.40959      4.27306      7.50000        -0.000616     -0.000001      0.628965
      4.27306      4.27306      9.63653         0.000005      0.000004      0.029563
      6.40959      2.13653      9.63653        -0.001635      0.001778      0.022334
      4.27322      2.14053     11.78567         0.000477     -0.002815     -0.004239
      6.40558      4.27290     11.78566         0.003732     -0.000484     -0.002296
      4.27306      4.27306     13.95143        -0.000002     -0.000001     -0.393835
      6.41332      2.13278     13.90043        -0.000828      0.003486     -0.297757
      0.00000      6.40959      9.63653        -0.003401      0.002668      0.035214
      2.13653      0.00000      9.63653        -0.002495      0.003386      0.035345
      0.00000      0.00000      7.50000        -0.000010     -0.000008     -0.274585
      2.13653      6.40959      7.50000        -0.000764      0.000803     -0.275028
      8.54534      6.41143     13.94643         0.001372      0.002528     -0.135744
      2.13468      0.00078     13.94642        -0.000723     -0.001378     -0.135338
      8.54611      8.54611     11.77659        -0.000004     -0.000001      0.023689
      2.13574      6.41037     11.77702        -0.002024      0.003059      0.020576
      0.00000      2.13653      9.63653         0.003380     -0.002668      0.035225
      2.13653      4.27306      9.63653         0.008491     -0.000455      0.040435
      0.00000      4.27306      7.50000        -0.000010      0.000007     -0.275159
      2.13653      2.13653      7.50000        -0.000636     -0.000682     -0.275060
      0.00078      2.13468     13.94643        -0.001374     -0.002529     -0.135746
      2.12872      4.27573     13.94453         0.015352     -0.001829     -0.108831
      0.00000      4.27306     11.77695        -0.000001      0.000002      0.016476
      2.13681      2.13682     11.77869        -0.002641     -0.003673      0.017922
      4.27306      6.40959      9.63653         0.000469     -0.008307      0.040644
      6.40959      0.00000      9.63653         0.002496     -0.003396      0.035330
      4.27306      0.00000      7.50000         0.000012      0.000003     -0.275102
      6.40959      6.40959      7.50000         0.000637      0.000680     -0.275111
      4.27038      6.41741     13.94447         0.001859     -0.016305     -0.103033
      6.41144      8.54534     13.94642         0.000723      0.001376     -0.135333
      4.27306      0.00000     11.77693         0.000003      0.000001      0.018093
      6.40930      6.40930     11.77869         0.002644      0.003675      0.017917
      4.27306      2.13653      9.63653        -0.000451      0.008307      0.040643
      6.40959      4.27306      9.63653        -0.008490      0.000465      0.040434
      4.27306      4.27306      7.50000         0.000006      0.000011     -0.276129
      6.40959      2.13653      7.50000         0.000758     -0.000812     -0.275027
      4.27573      2.12870     13.94447        -0.001861      0.016307     -0.103020
      6.41739      4.27038     13.94452        -0.015352      0.001833     -0.108853
      4.27306      4.27306     11.78548         0.000000     -0.000001     -0.001772
      6.41037      2.13575     11.77702         0.002022     -0.003061      0.020574
    total drift:                                0.000002     -0.000002     -0.000029

  FREE ENERGIE OF THE ION-ELECTRON SYSTEM (eV)
  free  energy   TOTEN  =      -453.17402774 eV

  energy  without entropy=     -453.17402774  energy(sigma->0) =     -453.17402774