 vasp.6.3.0 20Jan22 (build Apr  1 2022 16:44:48) complex
 executed on        HPECrayEX_GCC date 2023.02.23  08:50:24

 INCAR:
   SYSTEM = MgO-rocksalt
   ISMEAR = 0
   SIGMA = 0.05
   EDIFF = 1E-6
   ALGO = ALL
   ISTART = 0
   IBRION = -1
   NSW = 0
   ISYM = 0
   DIPOL = 0.5 0.5 0.5
   IDIPOL = 3
   LDIPOL = .TRUE.
   LHFCALC = .TRUE.
   GGA = B5
   AEXX = 0.2
   AGGAX = 0.72
   AGGAC = 0.81
   ALDAC = 0.19
   IVDW = 1
   VDW_S6 = 1.05
   VDW_C6 = 1.23 0.14 0.63 0.70
   VDW_R0 = 1.397 1.001 1.243 1.342
   ENCUT = 600
   PREC = Accurate
   LASPH = .TRUE.
   LREAL = .FALSE.
   ISPIN = 1
   NELM = 200
   NELMIN = 8
   NCORE = 8
   KPAR = 1
   LWAVE = .FALSE.
   LCHARG = .FALSE.

 POTCAR:    PAW_PBE N 08Apr2002
 POTCAR:    PAW_PBE H 15Jun2001
 POTCAR:    PAW_PBE Mg_pv 13Apr2007
 POTCAR:    PAW_PBE O 08Apr2002
 POTCAR:    PAW_PBE N 08Apr2002
   VRHFIN =N: s2p3

   TITEL  = PAW_PBE N 08Apr2002
   POMASS =   14.001; ZVAL   =    5.000    mass and valenz
   ENMAX  =  400.000; ENMIN  =  300.000 eV

   TITEL  = PAW_PBE H 15Jun2001
   POMASS =    1.000; ZVAL   =    1.000    mass and valenz
   ENMAX  =  250.000; ENMIN  =  200.000 eV

   TITEL  = PAW_PBE Mg_pv 13Apr2007
   POMASS =   24.305; ZVAL   =    8.000    mass and valenz
   ENMAX  =  403.929; ENMIN  =  302.947 eV

   TITEL  = PAW_PBE O 08Apr2002
   POMASS =   16.000; ZVAL   =    6.000    mass and valenz
   ENMAX  =  400.000; ENMIN  =  300.000 eV

  PAW_PBE N 08Apr2002                   :
  PAW_PBE H 15Jun2001                   :
  PAW_PBE Mg_pv 13Apr2007               :
  PAW_PBE O 08Apr2002                   :

 POSCAR:  N  H Mg  O
  positions in direct lattice
 exchange correlation table for  LEXCH =       12
   RHO(1)=    0.500       N(1)  =     2000
   RHO(2)=  100.500       N(2)  =     4000

 ion  position               nearest neighbor table
   1  0.500  0.516  0.760-   4 1.02   3 1.02   2 1.02
   2  0.500  0.635  0.768-   1 1.02
   3  0.402  0.469  0.782-   1 1.02
   4  0.598  0.469  0.782-   1 1.02
   5  0.000  0.750  0.352-  37 2.11  39 2.11  40 2.11  47 2.11  56 2.11
   6  0.250  0.000  0.352-  38 2.11  39 2.11  40 2.11  48 2.11  55 2.11
   7  0.000  0.000  0.451-  39 2.11  38 2.11  37 2.11  45 2.11  54 2.11  43 2.12
   8  0.250  0.750  0.451-  40 2.11  38 2.11  37 2.11  46 2.11  53 2.11  44 2.12
   9  0.000  0.750  0.550-  51 2.11  44 2.11  60 2.11  43 2.11  37 2.12  41 2.16
  10  0.250  1.000  0.550-  59 2.11  52 2.11  44 2.11  43 2.11  38 2.12  42 2.16
  11  0.000  1.000  0.648-  43 2.10  42 2.11  58 2.11  49 2.11  41 2.11
  12  0.250  0.750  0.648-  44 2.09  41 2.11  42 2.11  50 2.11  57 2.11
  13  0.000  0.250  0.352-  45 2.11  39 2.11  47 2.11  48 2.11  64 2.11
  14  0.250  0.500  0.352-  46 2.11  40 2.11  47 2.11  48 2.11  63 2.11
  15  0.000  0.500  0.451-  47 2.11  45 2.11  46 2.11  37 2.11  62 2.11  51 2.11
  16  0.250  0.250  0.451-  48 2.11  45 2.11  46 2.11  38 2.11  61 2.11  52 2.12
  17  1.000  0.250  0.550-  51 2.11  68 2.11  52 2.11  43 2.11  45 2.12  49 2.16
  18  0.251  0.500  0.551-  67 2.10  52 2.11  44 2.11  51 2.12  46 2.13  50 2.15
  19  0.000  0.500  0.648-  66 2.09  50 2.09  51 2.10  49 2.12  41 2.12
  20  0.250  0.250  0.648-  52 2.10  42 2.11  49 2.11  65 2.11  50 2.11
  21  0.500  0.750  0.352-  53 2.11  40 2.11  55 2.11  56 2.11  63 2.11
  22  0.750  0.000  0.352-  54 2.11  39 2.11  55 2.11  56 2.11  64 2.11
  23  0.500  0.000  0.451-  55 2.11  53 2.11  54 2.11  38 2.11  61 2.11  59 2.11
  24  0.750  0.750  0.451-  56 2.11  53 2.11  54 2.11  37 2.11  62 2.11  60 2.12
  25  0.500  0.749  0.551-  67 2.10  60 2.11  44 2.11  59 2.12  53 2.13  57 2.15
  26  0.750  1.000  0.550-  59 2.11  68 2.11  60 2.11  43 2.11  54 2.12  58 2.16
  27  0.500  0.000  0.648-  65 2.09  57 2.09  59 2.10  42 2.12  58 2.12
  28  0.750  0.750  0.648-  60 2.09  41 2.11  58 2.11  66 2.11  57 2.11
  29  0.500  0.250  0.352-  61 2.11  55 2.11  48 2.11  63 2.11  64 2.11
  30  0.750  0.500  0.352-  62 2.11  56 2.11  47 2.11  63 2.11  64 2.11
  31  0.500  0.500  0.451-  63 2.11  53 2.11  61 2.11  62 2.11  46 2.11  67 2.14
  32  0.750  0.250  0.451-  64 2.11  54 2.11  61 2.11  62 2.11  45 2.11  68 2.12
  33  0.500  0.251  0.551-  67 2.10  52 2.11  68 2.11  59 2.12  61 2.13  65 2.14
  34  0.749  0.500  0.551-  67 2.10  68 2.11  60 2.11  51 2.12  62 2.13  66 2.15
  35  0.500  0.499  0.655-  65 2.12  66 2.13  50 2.13  57 2.15  67 2.22
  36  0.750  0.250  0.648-  68 2.10  58 2.11  49 2.11  65 2.11  66 2.11
  37  0.000  0.750  0.451-   5 2.11   7 2.11   8 2.11  15 2.11  24 2.11   9 2.12
  38  0.250  0.000  0.451-   6 2.11   7 2.11   8 2.11  16 2.11  23 2.11  10 2.12
  39  0.000  0.000  0.352-   7 2.11   6 2.11   5 2.11  13 2.11  22 2.11
  40  0.250  0.750  0.352-   8 2.11   6 2.11   5 2.11  14 2.11  21 2.11
  41  1.000  0.750  0.651-  11 2.11  28 2.11  12 2.11  19 2.12   9 2.16
  42  0.249  1.000  0.651-  11 2.11  20 2.11  12 2.11  27 2.12  10 2.16
  43  1.000  1.000  0.550-  11 2.10   9 2.11  26 2.11  10 2.11  17 2.11   7 2.12
  44  0.250  0.750  0.550-  12 2.09  10 2.11   9 2.11  25 2.11  18 2.11   8 2.12
  45  0.000  0.250  0.451-  13 2.11   7 2.11  15 2.11  16 2.11  32 2.11  17 2.12
  46  0.250  0.500  0.451-  14 2.11   8 2.11  15 2.11  16 2.11  31 2.11  18 2.13
  47  0.000  0.500  0.352-  15 2.11  13 2.11  14 2.11   5 2.11  30 2.11
  48  0.250  0.250  0.352-  16 2.11  13 2.11  14 2.11   6 2.11  29 2.11
  49  0.000  0.249  0.651-  11 2.11  36 2.11  20 2.11  19 2.12  17 2.16
  50  0.247  0.500  0.651-  19 2.09  12 2.11  20 2.11  35 2.13  18 2.15
  51  0.000  0.500  0.550-  19 2.10   9 2.11  17 2.11  15 2.11  34 2.12  18 2.12
  52  0.250  0.250  0.550-  20 2.10  10 2.11  17 2.11  18 2.11  33 2.11  16 2.12
  53  0.500  0.750  0.451-  21 2.11   8 2.11  23 2.11  24 2.11  31 2.11  25 2.13
  54  0.750  0.000  0.451-  22 2.11   7 2.11  23 2.11  24 2.11  32 2.11  26 2.12
  55  0.500  0.000  0.352-  23 2.11  21 2.11  22 2.11   6 2.11  29 2.11
  56  0.750  0.750  0.352-  24 2.11  21 2.11  22 2.11   5 2.11  30 2.11
  57  0.500  0.753  0.651-  27 2.09  12 2.11  28 2.11  35 2.15  25 2.15
  58  0.751  1.000  0.651-  11 2.11  36 2.11  28 2.11  27 2.12  26 2.16
  59  0.500  1.000  0.550-  27 2.10  26 2.11  10 2.11  23 2.11  25 2.12  33 2.12
  60  0.750  0.750  0.550-  28 2.09  26 2.11   9 2.11  25 2.11  34 2.11  24 2.12
  61  0.500  0.250  0.451-  29 2.11  23 2.11  16 2.11  31 2.11  32 2.11  33 2.13
  62  0.750  0.500  0.451-  30 2.11  24 2.11  15 2.11  31 2.11  32 2.11  34 2.13
  63  0.500  0.500  0.352-  31 2.11  21 2.11  29 2.11  30 2.11  14 2.11
  64  0.750  0.250  0.352-  32 2.11  22 2.11  29 2.11  30 2.11  13 2.11
  65  0.500  0.247  0.651-  27 2.09  20 2.11  36 2.11  35 2.12  33 2.14
  66  0.753  0.500  0.651-  19 2.09  28 2.11  36 2.11  35 2.13  34 2.15
  67  0.500  0.500  0.551-  25 2.10  18 2.10  34 2.10  33 2.10  31 2.14  35 2.22
  68  0.750  0.250  0.550-  36 2.10  26 2.11  17 2.11  34 2.11  33 2.11  32 2.12

IMPORTANT INFORMATION: All symmetrisations will be switched off!
NOSYMM: (Re-)initialisation of all symmetry stuff for point group C_1.

                                     Primitive cell

  volume of cell :    1519.8199

  direct lattice vectors                    reciprocal lattice vectors
     8.440984654  0.000000000  0.000000000     0.118469591  0.000000000  0.000000000
     0.000000000  8.440984654  0.000000000     0.000000000  0.118469591  0.000000000
     0.000000000  0.000000000 21.330738491     0.000000000  0.000000000  0.046880702

  length of vectors
     8.440984654  8.440984654 21.330738491     0.118469591  0.118469591  0.046880702

  position of ions in fractional coordinates (direct lattice)
     0.500000238  0.515515988  0.760397415
     0.499999981  0.635067396  0.767938398
     0.402069061  0.469393035  0.781666100
     0.597931073  0.469393296  0.781666268
     0.000000000  0.750000000  0.351605267
     0.250000000  0.000000000  0.351605267
     0.000000000  0.000000000  0.450535089
     0.250000000  0.750000000  0.450535089
     0.000000002  0.749683926  0.549893410
     0.250263522  0.999989873  0.549908943
     0.000000001  0.999953889  0.648375512
     0.249680169  0.750035883  0.648043586
     0.000000000  0.250000000  0.351605267
     0.250000000  0.500000000  0.351605267
     0.000000000  0.500000000  0.450535089
     0.250000000  0.250000000  0.450535089
     0.999999995  0.250229246  0.549913058
     0.251264402  0.499907421  0.550551274
     0.000000017  0.499888939  0.648188279
     0.249874845  0.249731960  0.648151920
     0.500000000  0.750000000  0.351605267
     0.750000000  0.000000000  0.351605267
     0.500000000  0.000000000  0.450535089
     0.750000000  0.750000000  0.450535089
     0.499999996  0.748689127  0.550582001
     0.749736477  0.999989873  0.549908956
     0.499999995  0.000230885  0.648178485
     0.750319838  0.750035869  0.648043580
     0.500000000  0.250000000  0.351605267
     0.750000000  0.500000000  0.351605267
     0.500000000  0.500000000  0.450535089
     0.750000000  0.250000000  0.450535089
     0.499999999  0.251188744  0.550506166
     0.748735610  0.499907415  0.550551309
     0.500000034  0.498638580  0.654927800
     0.750125161  0.249731957  0.648151929
     0.000000000  0.750000000  0.450535089
     0.250000000  0.000000000  0.450535089
     0.000000000  0.000000000  0.351605267
     0.250000000  0.750000000  0.351605267
     0.999999998  0.750486788  0.651100364
     0.249403677  0.999906086  0.651133405
     0.999999997  0.999932321  0.549747566
     0.249933154  0.750096792  0.549885275
     0.000000000  0.250000000  0.450535089
     0.250000000  0.500000000  0.450535089
     0.000000000  0.500000000  0.351605267
     0.250000000  0.250000000  0.351605267
     0.000000002  0.249363374  0.651160803
     0.247373170  0.499927644  0.651129740
     0.000000005  0.499978499  0.549670801
     0.249818529  0.249801412  0.549853953
     0.500000000  0.750000000  0.450535089
     0.750000000  0.000000000  0.450535089
     0.500000000  0.000000000  0.351605267
     0.750000000  0.750000000  0.351605267
     0.499999996  0.752917707  0.651485348
     0.750596322  0.999906078  0.651133423
     0.500000000  0.999871141  0.549675125
     0.750066839  0.750096789  0.549885280
     0.500000000  0.250000000  0.450535089
     0.750000000  0.500000000  0.450535089
     0.500000000  0.500000000  0.351605267
     0.750000000  0.250000000  0.351605267
     0.500000002  0.247330485  0.650918475
     0.752626876  0.499927627  0.651129742
     0.500000005  0.500041645  0.550741581
     0.750181473  0.249801401  0.549853959

  ion indices of the primitive-cell ions
   primitive index   ion index
                 1           1
                 2           2
                 3           3
                 4           4
                 5           5
                 6           6
                 7           7
                 8           8
                 9           9
                10          10
                11          11
                12          12
                13          13
                14          14
                15          15
                16          16
                17          17
                18          18
                19          19
[...]
   4.22049433  4.35146255 16.21983842
   4.22049217  5.36059414 16.38069314
   3.39385877  3.96213941 16.67351516
   5.04712701  3.96214161 16.67351875
   0.00000000  6.33073849  7.50000000
   2.11024616  0.00000000  7.50000000
   0.00000000  0.00000000  9.61024616
   2.11024616  6.33073849  9.61024616
   0.00000001  6.32807051 11.72963254
   2.11247055  8.44089918 11.72996386
   0.00000000  8.44059543 13.83032849
   2.10754648  6.33104138 13.82324826
   0.00000000  2.11024616  7.50000000
   2.11024616  4.22049233  7.50000000
   0.00000000  4.22049233  9.61024616
   2.11024616  2.11024616  9.61024616
   8.44098461  2.11218123 11.73005164
   2.12091896  4.21971087 11.74366526
   0.00000015  4.21955487 13.82633468
   2.10918973  2.10798364 13.82555910
   4.22049233  6.33073849  7.50000000
   6.33073849  0.00000000  7.50000000
   4.22049233  0.00000000  9.61024616
   6.33073849  6.33073849  9.61024616
   4.22049230  6.31967343 11.74432068
   6.32851410  8.44089918 11.72996414
   4.22049228  0.00194889 13.82612576
   6.33343824  6.33104126 13.82324815
   4.22049233  2.11024616  7.50000000
   6.33073849  4.22049233  7.50000000
   4.22049233  4.22049233  9.61024616
   6.33073849  2.11024616  9.61024616
   4.22049232  2.12028034 11.74270306
   6.32006580  4.21971082 11.74366600
   4.22049261  4.20900061 13.97009364
   6.33179497  2.10798362 13.82555929
   0.00000000  6.33073849  9.61024616
   2.11024616  0.00000000  9.61024616
   0.00000000  0.00000000  7.50000000
   2.11024616  6.33073849  7.50000000
   8.44098464  6.33484746 13.88845160
   2.10521261  8.44019193 13.88915639
   8.44098463  8.44041337 11.72652157
   2.10968191  6.33155551 11.72945899
   0.00000000  2.11024616  9.61024616
   2.11024616  4.22049233  9.61024616
   0.00000000  4.22049233  7.50000000
   2.11024616  2.11024616  7.50000000
   0.00000002  2.10487242 13.88974081
   2.08807314  4.21988157 13.88907820
   0.00000005  4.22031084 11.72488410
   2.10871437  2.10856989 11.72879088
   4.22049233  6.33073849  9.61024616
   6.33073849  0.00000000  9.61024616
   4.22049233  0.00000000  7.50000000
   6.33073849  6.33073849  7.50000000
   4.22049229  6.35536681 13.89666358
   6.33577203  8.44019186 13.88915676
   4.22049233  8.43989696 11.72497634
   6.33130268  6.33155548 11.72945910
   4.22049233  2.11024616  9.61024616
   6.33073849  4.22049233  9.61024616
   4.22049233  4.22049233  7.50000000
   6.33073849  2.11024616  7.50000000
   4.22049234  2.08771283 13.88457177
   6.35291191  4.21988143 13.88907825
   4.22049237  4.22084386 11.74772465
   6.33227030  2.10856979 11.72879100

--------------------------------------- Iteration      FINAL  ---------------------------------------

--------------------OUTCAR has been truncated-------------------------

[...]

--------------------OUTCAR has been truncated-------------------------

  DFT-D2 method for vdW energy calculation

  Parameters of vdW forcefield:
         C6(Jnm^6/mol)     R0(A)
   N        1.230          1.397
   H        0.140          1.001
   Mg       0.630          1.243
   O        0.700          1.342

  vdW correction parametrized for the method ~ý      

  IVDW =   1
  VDW_RADIUS =    50.000 A
  VDW_S6 =     1.050
  VDW_SR =     1.000
  VDW_D =    20.000
  LVDW_EWALD = F

  Number of pair interactions contributing to vdW energy:  814665
  Edisp (eV):   -5.22639

 VOLUME and BASIS-vectors are now :
  energy-cutoff  :      600.00
  volume of cell :     1519.82
      direct lattice vectors                 reciprocal lattice vectors
     8.440984654  0.000000000  0.000000000     0.118469591  0.000000000  0.000000000
     0.000000000  8.440984654  0.000000000     0.000000000  0.118469591  0.000000000
     0.000000000  0.000000000 21.330738491     0.000000000  0.000000000  0.046880702

  length of vectors
     8.440984654  8.440984654 21.330738491     0.118469591  0.118469591  0.046880702

 FORCES acting on ions:
    Electron-Ion                     Ewald-Force                    Non-Local-Force
   -.788E-04 0.802E+01 -.133E+04   0.922E-04 -.130E+02 0.131E+04   -.751E-04 0.468E+01 0.234E+02
   0.136E-03 -.700E+02 -.274E+03   -.154E-03 0.771E+02 0.274E+03   0.151E-04 -.710E+01 -.868E+00
   0.580E+02 0.279E+02 -.279E+03   -.638E+02 -.307E+02 0.282E+03   0.587E+01 0.279E+01 -.298E+01
   -.580E+02 0.279E+02 -.279E+03   0.638E+02 -.307E+02 0.282E+03   -.587E+01 0.279E+01 -.298E+01
   0.167E-05 0.425E-01 0.208E+04   -.611E-05 -.498E-01 -.207E+04   0.154E-05 0.474E-02 -.638E+01
   -.397E-01 -.293E-04 0.208E+04   0.470E-01 -.817E-04 -.207E+04   -.470E-02 0.725E-04 -.638E+01
   0.140E-04 -.415E-01 0.712E+03   -.191E-04 0.468E-01 -.713E+03   0.560E-05 -.351E-02 0.448E+00
   -.353E+00 0.352E+00 0.713E+03   0.422E+00 -.412E+00 -.713E+03   -.439E-01 0.373E-01 0.502E+00
   0.108E-04 -.276E+01 -.645E+03   -.995E-05 0.267E+01 0.645E+03   -.421E-06 0.803E-01 0.881E-01
   0.280E+01 -.236E+00 -.646E+03   -.271E+01 0.251E+00 0.646E+03   -.781E-01 -.135E-01 0.919E-01
   -.264E-04 -.948E+00 -.201E+04   0.243E-04 0.961E+00 0.200E+04   -.993E-06 -.114E-01 0.528E+01
   0.208E+02 -.199E+02 -.198E+04   -.210E+02 0.200E+02 0.198E+04   0.125E+00 -.618E-01 0.544E+01
   0.118E-05 -.427E-01 0.208E+04   -.576E-05 0.499E-01 -.207E+04   0.200E-05 -.461E-02 -.638E+01
   -.739E-01 -.266E-03 0.208E+04   0.853E-01 0.166E-03 -.207E+04   -.765E-02 0.747E-04 -.641E+01
   0.302E-04 0.325E-01 0.713E+03   -.399E-04 -.415E-01 -.713E+03   0.444E-05 0.572E-02 0.350E+00
   -.320E+00 -.362E+00 0.713E+03   0.367E+00 0.417E+00 -.713E+03   -.290E-01 -.346E-01 0.483E+00
   -.184E-04 0.276E+01 -.647E+03   0.122E-04 -.267E+01 0.646E+03   0.594E-05 -.808E-01 0.103E+00
   0.274E+01 0.234E+00 -.643E+03   -.237E+01 -.246E+00 0.644E+03   -.334E+00 0.117E-01 -.338E+00
   -.929E-04 0.107E+01 -.200E+04   0.939E-04 -.108E+01 0.199E+04   0.483E-05 0.119E-01 0.527E+01
   0.188E+02 0.194E+02 -.199E+04   -.188E+02 -.194E+02 0.198E+04   0.534E-01 0.705E-01 0.543E+01
   -.918E-06 0.766E-01 0.208E+04   0.612E-05 -.881E-01 -.207E+04   0.185E-05 0.771E-02 -.641E+01
   0.397E-01 -.248E-04 0.208E+04   -.470E-01 -.820E-04 -.207E+04   0.470E-02 0.675E-04 -.638E+01
   -.161E-04 0.655E-02 0.713E+03   0.209E-04 -.220E-01 -.713E+03   -.216E-05 0.997E-02 0.352E+00
   0.353E+00 0.352E+00 0.713E+03   -.422E+00 -.412E+00 -.713E+03   0.439E-01 0.373E-01 0.502E+00
   0.366E-06 -.252E+01 -.644E+03   0.470E-06 0.215E+01 0.645E+03   0.264E-05 0.331E+00 -.201E+00
   -.280E+01 -.236E+00 -.646E+03   0.271E+01 0.251E+00 0.646E+03   0.781E-01 -.135E-01 0.919E-01
   0.436E-05 -.265E+01 -.199E+04   -.806E-05 0.268E+01 0.199E+04   -.419E-06 -.272E-01 0.526E+01
   -.208E+02 -.199E+02 -.198E+04   0.210E+02 0.200E+02 0.198E+04   -.125E+00 -.618E-01 0.544E+01
   0.764E-05 -.770E-01 0.208E+04   0.592E-05 0.883E-01 -.207E+04   -.209E-05 -.755E-02 -.641E+01
   0.739E-01 -.267E-03 0.208E+04   -.853E-01 0.166E-03 -.207E+04   0.764E-02 0.771E-04 -.641E+01
   -.324E-04 -.134E-01 0.711E+03   0.418E-04 0.246E-01 -.711E+03   -.486E-05 -.751E-02 0.580E+00
   0.320E+00 -.362E+00 0.713E+03   -.367E+00 0.417E+00 -.713E+03   0.290E-01 -.346E-01 0.483E+00
   -.447E-06 0.271E+01 -.643E+03   0.892E-05 -.235E+01 0.643E+03   -.828E-05 -.325E+00 -.396E+00
   -.274E+01 0.234E+00 -.643E+03   0.237E+01 -.246E+00 0.644E+03   0.334E+00 0.118E-01 -.338E+00
   0.134E-03 0.591E+01 -.192E+04   -.136E-03 -.624E+01 0.192E+04   -.316E-05 0.296E+00 0.697E+00
   -.188E+02 0.194E+02 -.199E+04   0.188E+02 -.194E+02 0.198E+04   -.534E-01 0.704E-01 0.543E+01
   0.130E-04 -.404E-01 0.535E+03   -.183E-04 0.181E-01 -.534E+03   0.499E-05 0.283E-01 -.274E-01
   0.447E-01 0.531E-02 0.534E+03   -.203E-01 -.149E-02 -.534E+03   -.308E-01 -.494E-02 -.382E-01
   0.118E-04 -.247E-02 0.156E+04   -.374E-05 0.350E-02 -.157E+04   0.821E-06 -.127E-02 0.314E+01
   -.491E-01 0.492E-01 0.156E+04   0.596E-01 -.585E-01 -.157E+04   -.130E-01 0.115E-01 0.313E+01
   -.426E-04 -.751E+01 -.153E+04   0.386E-04 0.736E+01 0.153E+04   0.444E-05 0.141E+00 -.459E+01
   0.758E+01 -.130E+01 -.153E+04   -.742E+01 0.129E+01 0.154E+04   -.154E+00 0.164E-01 -.458E+01
   0.486E-06 -.244E+00 -.481E+03   -.116E-05 0.249E+00 0.481E+03   -.627E-06 -.420E-02 0.315E+00
   0.186E+01 -.186E+01 -.475E+03   -.185E+01 0.184E+01 0.474E+03   -.160E-01 0.263E-01 0.527E+00
   0.640E-05 0.332E-01 0.534E+03   -.140E-04 -.656E-02 -.534E+03   0.544E-05 -.334E-01 -.443E-01
   -.108E+00 -.134E-01 0.533E+03   0.586E-01 0.150E-01 -.533E+03   0.577E-01 -.143E-02 -.181E+00
   0.759E-05 0.261E-02 0.156E+04   -.566E-05 -.352E-02 -.157E+04   0.699E-05 0.113E-02 0.313E+01
   -.446E-01 -.490E-01 0.156E+04   0.529E-01 0.585E-01 -.157E+04   -.103E-01 -.117E-01 0.313E+01
   -.389E-04 0.741E+01 -.153E+04   0.380E-04 -.726E+01 0.154E+04   0.288E-05 -.141E+00 -.457E+01
   0.255E+02 0.180E+01 -.149E+04   -.248E+02 -.179E+01 0.150E+04   -.671E+00 -.991E-02 -.449E+01
   -.752E-05 0.247E+00 -.475E+03   0.521E-05 -.251E+00 0.474E+03   0.175E-05 0.400E-02 0.395E+00
   0.194E+01 0.187E+01 -.476E+03   -.191E+01 -.184E+01 0.475E+03   -.317E-01 -.265E-01 0.472E+00
   -.158E-04 0.116E+00 0.533E+03   0.180E-04 -.639E-01 -.533E+03   -.521E-05 -.601E-01 -.190E+00
   -.447E-01 0.532E-02 0.534E+03   0.203E-01 -.150E-02 -.534E+03   0.308E-01 -.494E-02 -.382E-01
   0.398E-05 0.220E-02 0.156E+04   0.379E-05 -.332E-02 -.157E+04   -.771E-05 0.139E-02 0.313E+01
   0.491E-01 0.492E-01 0.156E+04   -.596E-01 -.585E-01 -.157E+04   0.130E-01 0.115E-01 0.313E+01
   0.183E-04 -.259E+02 -.149E+04   -.254E-04 0.250E+02 0.150E+04   -.448E-05 0.807E+00 -.435E+01
   -.758E+01 -.130E+01 -.153E+04   0.742E+01 0.129E+01 0.154E+04   0.154E+00 0.164E-01 -.458E+01
   -.697E-05 -.105E+00 -.474E+03   0.107E-04 0.109E+00 0.474E+03   0.673E-07 -.332E-02 0.399E+00
   -.186E+01 -.186E+01 -.475E+03   0.185E+01 0.184E+01 0.474E+03   0.160E-01 0.263E-01 0.527E+00
   -.655E-05 -.127E+00 0.533E+03   0.174E-04 0.798E-01 -.533E+03   -.580E-05 0.540E-01 -.167E+00
   0.108E+00 -.134E-01 0.533E+03   -.586E-01 0.150E-01 -.533E+03   -.577E-01 -.143E-02 -.181E+00
   -.513E-05 -.199E-02 0.156E+04   0.574E-05 0.323E-02 -.157E+04   -.840E-06 -.156E-02 0.311E+01
   0.446E-01 -.490E-01 0.156E+04   -.529E-01 0.585E-01 -.157E+04   0.103E-01 -.117E-01 0.313E+01
   0.393E-04 0.249E+02 -.150E+04   -.407E-04 -.243E+02 0.150E+04   -.201E-05 -.568E+00 -.455E+01
   -.255E+02 0.180E+01 -.149E+04   0.248E+02 -.179E+01 0.150E+04   0.671E+00 -.991E-02 -.449E+01
   0.829E-06 -.496E-01 -.489E+03   -.150E-05 0.439E-01 0.490E+03   0.823E-06 0.483E-02 -.106E+01
   -.194E+01 0.187E+01 -.476E+03   0.191E+01 -.184E+01 0.475E+03   0.317E-01 -.265E-01 0.472E+00
   0.698E-04 -.407E+01 0.449E+01   0.185E-12 -.163E-12 0.182E-11   -.825E-04 0.369E+01 -.350E+01

 POSITION                                       TOTAL-FORCE (eV/Angst)
      4.22049      4.35146     16.21984        -0.000067      0.093589      0.404389
      4.22049      5.36059     16.38069        -0.000001     -0.289218     -0.114303
      3.39386      3.96214     16.67352         0.224184      0.097289     -0.175921
      5.04713      3.96214     16.67352        -0.224138      0.097267     -0.175901
      0.00000      6.33074      7.50000        -0.000002     -0.001988      0.462960
      2.11025      0.00000      7.50000         0.002014      0.000017      0.463847
      0.00000      0.00000      9.61025         0.000001      0.001414      0.024209
      2.11025      6.33074      9.61025         0.019683     -0.017261      0.036879
      0.00000      6.32807     11.72963         0.000002     -0.002832      0.015662
      2.11247      8.44090     11.72996         0.002903      0.000328      0.015471
      0.00000      8.44060     13.83033        -0.000004      0.000649     -0.077266
      2.10755      6.33104     13.82325        -0.004547      0.003908     -0.100184
      0.00000      2.11025      7.50000        -0.000001      0.002042      0.464426
      2.11025      4.22049      7.50000         0.002844      0.000037      0.471279
      0.00000      4.22049      9.61025        -0.000005     -0.002438      0.060668
      2.11025      2.11025      9.61025         0.013794      0.015939      0.036919
      8.44098      2.11218     11.73005        -0.000001      0.002652      0.014840
      2.12092      4.21971     11.74367         0.005448      0.000137      0.027313
      0.00000      4.21955     13.82633         0.000008     -0.000335     -0.089752
      2.10919      2.10798     13.82556        -0.002323     -0.003241     -0.097926
      4.22049      6.33074      7.50000         0.000007     -0.002795      0.471977
      6.33074      0.00000      7.50000        -0.002020      0.000014      0.463860
      4.22049      0.00000      9.61025         0.000002     -0.004188      0.060475
      6.33074      6.33074      9.61025        -0.019679     -0.017259      0.036886
      4.22049      6.31967     11.74432         0.000004     -0.004800      0.025629
      6.32851      8.44090     11.72996        -0.002901      0.000330      0.015478
      4.22049      0.00195     13.82613        -0.000006      0.001901     -0.090322
      6.33344      6.33104     13.82325         0.004544      0.003898     -0.100194
      4.22049      2.11025      7.50000         0.000011      0.002865      0.470322
      6.33074      4.22049      7.50000        -0.002850      0.000039      0.471297
      4.22049      4.22049      9.61025         0.000005      0.002834      0.077285
      6.33074      2.11025      9.61025        -0.013792      0.015942      0.036911
      4.22049      2.12028     11.74270         0.000002      0.005212      0.028293
      6.32007      4.21971     11.74367        -0.005446      0.000145      0.027312
      4.22049      4.20900     13.97009        -0.000006     -0.000666      0.068298
      6.33179      2.10798     13.82556         0.002323     -0.003254     -0.097841
      0.00000      6.33074      9.61025         0.000001      0.010312      0.060168
      2.11025      0.00000      9.61025        -0.010959     -0.001783      0.057826
      0.00000      0.00000      7.50000         0.000010     -0.000360     -0.430715
      2.11025      6.33074      7.50000        -0.004349      0.003882     -0.434469
      8.44098      6.33485     13.88845         0.000001      0.006449     -0.111455
      2.10521      8.44019     13.88916        -0.007152      0.001471     -0.111494
      8.44098      8.44041     11.72652        -0.000001     -0.000155      0.033613
      2.10968      6.33156     11.72946        -0.001610      0.001471      0.033448
      0.00000      2.11025      9.61025        -0.000001     -0.011725      0.056018
      2.11025      4.22049      9.61025         0.015918     -0.000036      0.075833
      0.00000      4.22049      7.50000         0.000010      0.000423     -0.435344
      2.11025      2.11025      7.50000        -0.003432     -0.003870     -0.434618
      0.00000      2.10487     13.88974         0.000003     -0.005853     -0.111617
      2.08807      4.21988     13.88908        -0.027236     -0.000666     -0.113107
      0.00000      4.22031     11.72488        -0.000000      0.000346      0.035452
      2.10871      2.10857     11.72879        -0.001554     -0.001182      0.032344
      4.22049      6.33074      9.61025        -0.000003     -0.016605      0.075379
      6.33074      0.00000      9.61025         0.010962     -0.001775      0.057823
      4.22049      0.00000      7.50000        -0.000001      0.000514     -0.435293
      6.33074      6.33074      7.50000         0.004346      0.003879     -0.434469
      4.22049      6.35537     13.89666        -0.000013      0.029934     -0.102128
      6.33577      8.44019     13.88916         0.007156      0.001471     -0.111504
      4.22049      8.43990     11.72498         0.000004      0.000466      0.035052
      6.33130      6.33156     11.72946         0.001612      0.001470      0.033448
      4.22049      2.11025      9.61025         0.000004      0.014953      0.076287
      6.33074      4.22049      9.61025        -0.015911     -0.000039      0.075842
      4.22049      4.22049      7.50000        -0.000000     -0.000484     -0.441174
      6.33074      2.11025      7.50000         0.003418     -0.003865     -0.434577
      4.22049      2.08771     13.88457        -0.000003     -0.024911     -0.117866
      6.35291      4.21988     13.88908         0.027238     -0.000655     -0.113123
      4.22049      4.22084     11.74772         0.000001     -0.000063     -0.031201
      6.33227      2.10857     11.72879         0.001552     -0.001187      0.032344
    total drift:                               -0.000017     -0.003270      0.007308

  FREE ENERGIE OF THE ION-ELECTRON SYSTEM (eV)
  free  energy   TOTEN  =      -461.91617109 eV

  energy  without entropy=     -461.91617109  energy(sigma->0) =     -461.91617109