 vasp.6.3.0 20Jan22 (build Aug 21 2024 11:13:42) complex
 executed on        HPECrayEX_GCC date 2024.11.26  11:24:34

 INCAR:
   SYSTEM = MgO-rocksalt
   ISMEAR = 0
   SIGMA = 0.05
   EDIFF = 1E-4
   ALGO = ALL
   ISTART = 0
   IBRION = -1
   NSW = 0
   ISYM = 0
   DIPOL = 0.5 0.5 0.5
   IDIPOL = 3
   LDIPOL = .TRUE.
   GGA = MK
   LUSE_VDW = .TRUE.
   PARAM1 = 0.1234
   PARAM2 = 0.711357
   ZAB_VDW = -1.8867
   AGGAC = 0.0
   ENCUT = 520
   PREC = Accurate
   LASPH = .TRUE.
   LREAL = Auto
   ISPIN = 1
   NELM = 200
   NELMIN = 8
   NCORE = 8
   KPAR = 1
   LWAVE = .FALSE.
   LCHARG = .FALSE.

 POTCAR:    PAW_PBE C 08Apr2002
 POTCAR:    PAW_PBE H 15Jun2001
 POTCAR:    PAW_PBE O 08Apr2002
 POTCAR:    PAW_PBE Mg_pv 13Apr2007
 POTCAR:    PAW_PBE O 08Apr2002
|               ----> ADVICE to this user running VASP <----                  |
|     You have switched on vdW-DFT.                                           |
|     This routine was written and supplied by Jiri Klimes. We recommend      |
|     that you carefully read and cite the following publications:            |
|       J. Klimes, D.R. Bowler, A. Michelides                                 |
|          J. Phys.: Cond Matt. 22 022201 (2010)                              |
|       J. Klimes, D.R. Bowler, A. Michelides                                 |
|          Phys. Rev. B. 83, 195131 (2011)                                    |
|     and references therein.                                                 |

   TITEL  = PAW_PBE C 08Apr2002
   POMASS =   12.011; ZVAL   =    4.000    mass and valenz
   ENMAX  =  400.000; ENMIN  =  300.000 eV

   TITEL  = PAW_PBE H 15Jun2001
   POMASS =    1.000; ZVAL   =    1.000    mass and valenz
   ENMAX  =  250.000; ENMIN  =  200.000 eV

[...]

   TITEL  = PAW_PBE Mg_pv 13Apr2007
   POMASS =   24.305; ZVAL   =    8.000    mass and valenz
   ENMAX  =  403.929; ENMIN  =  302.947 eV

   TITEL  = PAW_PBE O 08Apr2002
   POMASS =   16.000; ZVAL   =    6.000    mass and valenz
   ENMAX  =  400.000; ENMIN  =  300.000 eV

 Optimization of the real space projectors (new method)

 maximal supplied QI-value         = 25.13
 optimisation between [QCUT,QGAM] = [ 11.56, 23.12] = [ 37.43,149.72] Ry
 Optimized for a Real-space Cutoff    1.04 Angstroem

   l    n(q)    QCUT    max X(q) W(low)/X(q) W(high)/X(q)  e(spline)
   0      7    11.561   115.676    0.20E-03    0.60E-03    0.21E-06
   0      7    11.561    87.132    0.20E-03    0.59E-03    0.21E-06
   1      7    11.561     4.429    0.23E-03    0.35E-03    0.15E-06
   1      7    11.561     2.733    0.18E-03    0.25E-03    0.12E-06
 Optimization of the real space projectors (new method)

[...]

   l    n(q)    QCUT    max X(q) W(low)/X(q) W(high)/X(q)  e(spline)
   1      8    11.527     2.974    0.44E-04    0.56E-04    0.12E-06
   1      8    11.527     4.279    0.12E-03    0.12E-03    0.26E-06
   0      9    11.527    16.381    0.46E-04    0.64E-04    0.78E-07
   0      9    11.527     5.611    0.26E-04    0.43E-04    0.55E-07
   2      8    11.527     4.652    0.22E-03    0.72E-04    0.47E-07
 Optimization of the real space projectors (new method)

 maximal supplied QI-value         = 24.76
 optimisation between [QCUT,QGAM] = [ 11.64, 23.27] = [ 37.91,151.63] Ry
 Optimized for a Real-space Cutoff    1.14 Angstroem

   l    n(q)    QCUT    max X(q) W(low)/X(q) W(high)/X(q)  e(spline)
   0      8    11.635    20.381    0.10E-03    0.33E-03    0.24E-06
   0      8    11.635    15.268    0.11E-03    0.35E-03    0.26E-06
   1      7    11.635     5.964    0.24E-03    0.31E-03    0.30E-06
   1      7    11.635     5.382    0.22E-03    0.25E-03    0.26E-06
|               ----> ADVICE to this user running VASP <----                  |
|     You enforced a specific xc type in the INCAR file but a different       |
|     type was found in the POTCAR file.                                      |
|     I HOPE YOU KNOW WHAT YOU ARE DOING!                                     |

  PAW_PBE C 08Apr2002                   :
  PAW_PBE H 15Jun2001                   :
  PAW_PBE O 08Apr2002                   :
  PAW_PBE Mg_pv 13Apr2007               :
  PAW_PBE O 08Apr2002                   :

 POSCAR:  C  H  O Mg  O
  positions in direct lattice
  velocities in cartesian coordinates
 exchange correlation table for  LEXCH =       43
   RHO(1)=    0.500       N(1)  =     2000
   RHO(2)=  100.500       N(2)  =     4000

 ion  position               nearest neighbor table
   1  0.495  0.539  0.801-   7 1.10   8 1.11   5 1.11  21 1.42
   2  0.333  0.392  0.800-  12 1.10   9 1.10  11 1.10  22 1.43
   3  0.448  0.189  0.788-  16 1.10  13 1.10  15 1.10  23 1.44
   4  0.683  0.419  0.790-  20 1.10  19 1.10  17 1.10  24 1.43
   5  0.497  0.515  0.849-   1 1.11
   6  0.571  0.420  0.759-  24 1.03
   7  0.544  0.582  0.796-   1 1.10
   8  0.439  0.573  0.797-   1 1.11
   9  0.355  0.387  0.848-   2 1.10
  10  0.442  0.427  0.758-  22 1.13  21 1.31
  11  0.307  0.452  0.793-   2 1.10
  12  0.286  0.348  0.792-   2 1.10
  13  0.452  0.198  0.839-   3 1.10
  14  0.456  0.301  0.761-  23 1.01
  15  0.385  0.187  0.774-   3 1.10
  16  0.476  0.133  0.775-   3 1.10
  17  0.688  0.483  0.779-   4 1.10
  18  0.619  0.257  0.710- 230 0.98
  19  0.672  0.413  0.841-   4 1.10
  20  0.738  0.390  0.777-   4 1.10
  21  0.500  0.479  0.755-  10 1.31   1 1.42 127 2.12
  22  0.395  0.378  0.756-  10 1.13   2 1.43  48 2.17
  23  0.489  0.252  0.755-  14 1.01   3 1.44 103 2.17
  24  0.620  0.384  0.755-   6 1.03   4 1.43  96 2.15
  25  0.000  0.375  0.352- 153 2.11 156 2.11 163 2.11 187 2.11 236 2.11
  26  0.125  0.000  0.352- 154 2.11 155 2.11 164 2.11 171 2.11 188 2.11
  27  0.000  0.000  0.451- 155 2.11 154 2.11 161 2.11 185 2.11 234 2.11 159 2.12
  28  0.125  0.375  0.451- 156 2.11 153 2.11 162 2.11 169 2.11 186 2.11 160 2.12
  29  0.000  0.375  0.550- 160 2.10 191 2.11 167 2.12 240 2.12 153 2.12 157 2.15
  30  0.125  1.000  0.550- 192 2.11 175 2.11 168 2.11 159 2.11 154 2.12 158 2.15
  31  0.000  1.000  0.649- 158 2.10 189 2.10 159 2.11 165 2.11 238 2.11
  32  0.125  0.375  0.649- 173 2.08 160 2.11 190 2.11 157 2.11 166 2.12
  33  0.000  0.125  0.352- 161 2.11 155 2.11 163 2.11 164 2.11 244 2.11
  34  0.125  0.250  0.352- 162 2.11 156 2.11 163 2.11 164 2.11 179 2.11
  35  0.000  0.250  0.451- 163 2.11 161 2.11 162 2.11 153 2.11 242 2.11 167 2.12
  36  0.125  0.125  0.451- 164 2.11 161 2.11 162 2.11 154 2.11 177 2.11 168 2.12
  37  0.000  0.125  0.550- 168 2.10 159 2.11 167 2.11 248 2.12 161 2.12 165 2.15
  38  0.125  0.250  0.550- 183 2.09 160 2.11 167 2.11 168 2.12 162 2.12 166 2.15
  39  0.001  0.250  0.649- 166 2.09 246 2.10 167 2.11 157 2.11 165 2.12
  40  0.125  0.125  0.649- 181 2.10 168 2.11 165 2.11 166 2.11 158 2.11
  41  0.250  0.375  0.352- 169 2.11 156 2.11 172 2.11 179 2.11 203 2.11
  42  0.375  0.000  0.352- 170 2.11 171 2.11 180 2.11 204 2.11 219 2.11
  43  0.250  0.000  0.451- 171 2.11 170 2.11 154 2.11 177 2.11 201 2.11 175 2.12
  44  0.375  0.375  0.451- 172 2.11 169 2.11 178 2.11 202 2.11 217 2.11 176 2.13
  45  0.251  0.375  0.551- 176 2.09 207 2.11 183 2.12 160 2.13 169 2.13 173 2.14
  46  0.375  1.000  0.550- 208 2.10 184 2.11 175 2.11 170 2.12 223 2.12 174 2.16
  47  0.250  1.000  0.649- 181 2.10 205 2.10 158 2.11 175 2.11 174 2.11
  48  0.374  0.376  0.655- 206 2.13 173 2.13 221 2.15  22 2.17 182 2.17 176 2.25
  49  0.250  0.125  0.352- 177 2.11 171 2.11 164 2.11 179 2.11 180 2.11
  50  0.375  0.250  0.352- 178 2.11 172 2.11 179 2.11 180 2.11 227 2.11
  51  0.250  0.250  0.451- 183 2.11 179 2.11 177 2.11 178 2.11 162 2.11 169 2.11
  52  0.375  0.125  0.451- 180 2.11 177 2.11 178 2.11 170 2.11 225 2.11 184 2.11
  53  0.250  0.125  0.550- 183 2.10 168 2.11 184 2.11 175 2.11 177 2.12 181 2.15
  54  0.375  0.251  0.551- 176 2.09 182 2.10 183 2.12 178 2.14 184 2.14 231 2.15
  55  0.249  0.250  0.648- 182 2.06 183 2.10 166 2.11 173 2.11 181 2.13
  56  0.373  0.124  0.648- 182 2.09 184 2.10 181 2.10 174 2.10 229 2.15
  57  0.000  0.875  0.352- 185 2.11 155 2.11 188 2.11 195 2.11 268 2.11
  58  0.125  0.500  0.352- 186 2.11 156 2.11 187 2.11 196 2.11 203 2.11
  59  0.000  0.500  0.451- 187 2.11 186 2.11 153 2.11 193 2.11 266 2.11 191 2.12
  60  0.125  0.875  0.451- 188 2.11 185 2.11 154 2.11 194 2.11 201 2.11 192 2.12
[...]
 266  0.875  0.500  0.451- 138 2.11 108 2.11  59 2.11 139 2.11 148 2.11 142 2.12
 267  0.750  0.500  0.352- 139 2.11 122 2.11 138 2.11 105 2.11 145 2.11
 268  0.875  0.875  0.352- 140 2.11 106 2.11 137 2.11  57 2.11 146 2.11
 269  0.750  0.875  0.651- 111 2.09 144 2.11 151 2.11 128 2.12 141 2.15
 270  0.875  0.500  0.651- 112 2.10 143 2.10  63 2.11 152 2.11 142 2.15
 271  0.751  0.500  0.550- 143 2.10 109 2.10 142 2.10 139 2.11 149 2.11 126 2.14
 272  0.875  0.875  0.550- 110 2.10 141 2.11 144 2.11  61 2.11 150 2.11 140 2.12
 273  0.750  0.625  0.451- 145 2.11 139 2.11 132 2.11 147 2.11 148 2.11 149 2.12
 274  0.875  0.750  0.451- 146 2.11 140 2.11  67 2.11 147 2.11 148 2.11 150 2.12
 275  0.750  0.750  0.352- 147 2.11 137 2.11 145 2.11 146 2.11 130 2.11
 276  0.875  0.625  0.352- 148 2.11 138 2.11 145 2.11 146 2.11  65 2.11
 277  0.751  0.626  0.651- 151 2.09 152 2.10 143 2.10 136 2.13 149 2.15
 278  0.875  0.750  0.651- 144 2.10  71 2.11 152 2.11 151 2.11 150 2.15
 279  0.750  0.750  0.550- 141 2.10 150 2.11 151 2.11 149 2.11 147 2.12 134 2.12
 280  0.875  0.625  0.550- 150 2.11 142 2.11 152 2.11  69 2.11 149 2.11 148 2.12

IMPORTANT INFORMATION: All symmetrisations will be switched off!
NOSYMM: (Re-)initialisation of all symmetry stuff for point group C_1.

                                     Primitive cell

  volume of cell :    6079.2794

  direct lattice vectors                    reciprocal lattice vectors
    16.881969308  0.000000000  0.000000000     0.059234796  0.000000000  0.000000000
     0.000000000 16.881969308  0.000000000     0.000000000  0.059234796  0.000000000
     0.000000000  0.000000000 21.330738491     0.000000000  0.000000000  0.046880702

  length of vectors
    16.881969308 16.881969308 21.330738491     0.059234796  0.059234796  0.046880702

  position of ions in fractional coordinates (direct lattice)
     0.494741545  0.539182070  0.801215795
     0.333236186  0.392243334  0.799604030
     0.448229860  0.189366262  0.787931134
     0.682716199  0.419263148  0.789829254
     0.497166009  0.514550325  0.849238886
     0.571002783  0.419976555  0.759115837
     0.544114108  0.581568107  0.796056678
     0.439018612  0.573160207  0.796742407
     0.354861461  0.387358676  0.848279834
     0.441581041  0.427193141  0.758326944
     0.307468089  0.451776984  0.793135907
     0.285906951  0.348447997  0.792309085
     0.452370826  0.197583293  0.839083781
     0.455769056  0.301229752  0.760710025
     0.385089841  0.187357266  0.774469186
     0.476218009  0.133167581  0.774776164
     0.688138344  0.482984513  0.778888956
     0.618621301  0.257367617  0.709885387
     0.672458705  0.412621021  0.840614496
     0.738320853  0.389771534  0.777025622
     0.499687436  0.478597566  0.755218860
     0.395496029  0.378436229  0.755605663
     0.488774222  0.251847682  0.755436829
     0.619772686  0.383702220  0.754595811
[...]
   4.21693063  2.11075898 11.72967733
   6.32419230  4.23758326 11.74584417
   4.20979214  4.22268410 13.82313809
   6.30474684  2.09500861 13.82017595
   0.00000000 14.77172314  7.50000000
   2.11024616  8.44098465  7.50000000
   0.00000000  8.44098465  9.61024616
   2.11024616 14.77172314  9.61024616
[...]
  14.77172314  8.44098465  9.61024616
  12.66147698  8.44098465  7.50000000
  14.77172314 14.77172314  7.50000000
  12.66849653 14.77063513 13.88517724
  14.77658113  8.44421274 13.88376136
  12.67015879  8.44101692 11.72294058
  14.77202142 14.77456091 11.72779920
  12.66147698 10.55123082  9.61024616
  14.77172314 12.66147698  9.61024616
  12.66147698 12.66147698  7.50000000
  14.77172314 10.55123082  7.50000000
  12.67798027 10.56612262 13.88279690
  14.77860535 12.66624663 13.88391124
  12.66576920 12.66578419 11.72692325
  14.77483967 10.55317847 11.72694951

--------------------------------------- Iteration      FINAL  ---------------------------------------

--------------------OUTCAR has been truncated-------------------------

[...]

--------------------OUTCAR has been truncated-------------------------

  FORCE on cell =-STRESS in cart. coord.  units (eV):
  Direction    XX          YY          ZZ          XY          YZ          ZX
  Alpha Z  3675.42456  3675.42456  3675.42456
  Ewald  632089.73261632074.60531************   167.36830   195.48894  -152.42735
  Hartree673487.49649673474.88140************   149.27502   113.40756   -84.37622
  E(xc)  -10053.88116-10053.82889-10055.00345    -0.22030     0.11921    -0.09117
  Local  ************************************  -319.15357  -291.96639   223.05838
  n-local-11481.71226-11482.04633-11557.85353     2.02581     1.07962    -1.00688
  augment  4232.40969  4232.34795  4196.40088    -0.01520    -1.35272     1.09532
  Kinetic 30145.06024 30144.13652 30299.96951     0.94045   -16.65525    13.81364
  Fock        0.00000     0.00000     0.00000     0.00000     0.00000     0.00000
  Total    -107.09445  -106.98059    -7.67355     0.22051     0.12097     0.06572
  in kB     -28.22445   -28.19444    -2.02234     0.05812     0.03188     0.01732

 VOLUME and BASIS-vectors are now :
  energy-cutoff  :      520.00
  volume of cell :     6079.28
      direct lattice vectors                 reciprocal lattice vectors
    16.881969308  0.000000000  0.000000000     0.059234796  0.000000000  0.000000000
     0.000000000 16.881969308  0.000000000     0.000000000  0.059234796  0.000000000
     0.000000000  0.000000000 21.330738491     0.000000000  0.000000000  0.046880702

  length of vectors
    16.881969308 16.881969308 21.330738491     0.059234796  0.059234796  0.046880702

 FORCES acting on ions:
    Electron-Ion                     Ewald-Force                    Non-Local-Force
   0.843E+01 -.199E+03 -.102E+04   -.867E+01 0.202E+03 0.102E+04   0.263E+00 -.367E+01 -.326E+01
   0.199E+03 -.244E+02 -.102E+04   -.203E+03 0.252E+02 0.102E+04   0.422E+01 -.834E+00 -.354E+01
   0.637E+02 0.190E+03 -.104E+04   -.662E+02 -.195E+03 0.104E+04   0.259E+01 0.462E+01 -.287E+01
   -.194E+03 -.513E+02 -.104E+04   0.198E+03 0.534E+02 0.104E+04   -.447E+01 -.219E+01 -.304E+01
   -.185E+01 -.813E+01 -.253E+03   0.206E+01 0.606E+01 0.258E+03   -.207E+00 0.204E+01 -.511E+01
   0.224E+02 -.272E+02 -.271E+03   -.276E+02 0.308E+02 0.271E+03   0.506E+01 -.356E+01 -.512E+00
   -.449E+02 -.703E+02 -.238E+03   0.491E+02 0.740E+02 0.238E+03   -.417E+01 -.363E+01 0.559E+00
   0.536E+02 -.636E+02 -.238E+03   -.584E+02 0.665E+02 0.238E+03   0.467E+01 -.288E+01 0.473E+00
   0.112E+02 0.225E+01 -.253E+03   -.938E+01 -.267E+01 0.259E+03   -.181E+01 0.413E+00 -.527E+01
   0.231E+01 -.241E+02 -.265E+03   -.634E+00 0.259E+02 0.265E+03   -.164E+01 -.174E+01 -.115E+00
   0.572E+02 -.599E+02 -.239E+03   -.594E+02 0.651E+02 0.238E+03   0.222E+01 -.507E+01 0.685E+00
   0.746E+02 0.381E+02 -.239E+03   -.788E+02 -.419E+02 0.238E+03   0.416E+01 0.378E+01 0.820E+00
   0.243E+01 0.226E+02 -.259E+03   -.205E+01 -.219E+02 0.265E+03   -.364E+00 -.678E+00 -.559E+01
   0.294E+02 -.295E+02 -.273E+03   -.332E+02 0.356E+02 0.273E+03   0.377E+01 -.595E+01 -.703E+00
   0.691E+02 0.349E+02 -.247E+03   -.746E+02 -.351E+02 0.245E+03   0.539E+01 0.153E+00 0.142E+01
   -.199E+02 0.789E+02 -.247E+03   0.224E+02 -.840E+02 0.246E+03   -.249E+01 0.502E+01 0.152E+01
   -.393E+02 -.679E+02 -.246E+03   0.397E+02 0.734E+02 0.245E+03   -.449E+00 -.543E+01 0.115E+01
   -.164E+02 0.158E+02 -.337E+03   0.150E+02 -.142E+02 0.345E+03   0.137E+01 -.156E+01 -.776E+01
   -.213E+02 0.196E+01 -.258E+03   0.204E+02 -.255E+01 0.264E+03   0.859E+00 0.579E+00 -.552E+01
   -.788E+02 0.228E+02 -.246E+03   0.838E+02 -.254E+02 0.244E+03   -.494E+01 0.259E+01 0.148E+01
   -.219E+02 -.106E+03 -.153E+04   0.285E+02 0.899E+02 0.151E+04   -.662E+01 0.163E+02 0.207E+02
   0.111E+03 0.438E+02 -.153E+04   -.100E+03 -.608E+02 0.151E+04   -.111E+02 0.170E+02 0.203E+02
   -.115E+03 0.116E+03 -.157E+04   0.149E+03 -.116E+03 0.156E+04   -.342E+02 -.336E+00 0.145E+02
   -.114E+03 0.117E+03 -.157E+04   0.110E+03 -.149E+03 0.155E+04   0.389E+01 0.318E+02 0.148E+02
   0.140E+01 0.828E+00 0.209E+04   -.129E+01 -.765E+00 -.208E+04   -.802E-01 -.484E-01 -.679E+01
   0.607E+01 0.504E+01 0.208E+04   -.603E+01 -.505E+01 -.208E+04   -.344E-01 0.137E-01 -.679E+01
   0.231E+01 0.642E+01 0.714E+03   -.221E+01 -.647E+01 -.714E+03   -.756E-01 0.387E-01 0.497E+00
   0.147E+02 0.985E-01 0.733E+03   -.144E+02 -.462E-01 -.733E+03   -.173E+00 -.389E-01 0.394E+00
   0.495E+01 0.225E+01 -.632E+03   -.457E+01 -.209E+01 0.632E+03   -.377E+00 -.156E+00 -.922E-01
   0.176E+02 0.149E+02 -.648E+03   -.175E+02 -.149E+02 0.648E+03   -.119E+00 0.306E-01 -.119E+00
   0.565E+01 0.163E+02 -.202E+04   -.530E+01 -.165E+02 0.202E+04   -.353E+00 0.168E+00 0.571E+01
   0.815E+02 0.174E+01 -.197E+04   -.807E+02 -.151E+01 0.197E+04   -.854E+00 -.231E+00 0.570E+01
   0.182E+01 0.685E+01 0.208E+04   -.172E+01 -.685E+01 -.208E+04   -.775E-01 0.150E-02 -.678E+01
   0.811E+01 0.564E+01 0.209E+04   -.802E+01 -.559E+01 -.208E+04   -.668E-01 -.429E-01 -.682E+01
   0.338E+01 0.848E+01 0.724E+03   -.310E+01 -.843E+01 -.724E+03   -.211E+00 -.343E-01 0.507E+00
   0.127E+02 0.124E+02 0.724E+03   -.126E+02 -.124E+02 -.724E+03   -.643E-01 -.295E-01 0.457E+00
   0.748E+01 0.178E+02 -.646E+03   -.708E+01 -.179E+02 0.646E+03   -.403E+00 0.268E-01 -.118E+00
   0.353E+02 0.176E+02 -.623E+03   -.349E+02 -.175E+02 0.623E+03   -.435E+00 -.191E+00 -.150E-01
   0.557E+01 0.236E+02 -.200E+04   -.521E+01 -.235E+02 0.200E+04   -.367E+00 -.879E-01 0.569E+01
   0.457E+02 0.377E+02 -.200E+04   -.453E+02 -.377E+02 0.200E+04   -.333E+00 -.272E-01 0.571E+01
   0.104E+02 0.323E+00 0.209E+04   -.103E+02 -.253E+00 -.209E+04   -.389E-01 -.536E-01 -.690E+01
   0.408E+01 0.653E+01 0.209E+04   -.414E+01 -.656E+01 -.208E+04   0.473E-01 0.274E-01 -.679E+01
   0.121E+02 0.109E+02 0.724E+03   -.121E+02 -.109E+02 -.725E+03   0.173E-01 0.810E-02 0.458E+00
   0.102E+02 0.763E+00 0.761E+03   -.102E+02 -.531E+00 -.761E+03   -.142E-02 -.171E+00 0.147E+00
   0.549E+02 -.181E+00 -.580E+03   -.542E+02 0.395E+00 0.580E+03   -.757E+00 -.215E+00 -.507E+00
   0.121E+02 0.303E+02 -.620E+03   -.123E+02 -.303E+02 0.620E+03   0.255E+00 -.121E-01 0.305E-01
   0.398E+02 0.431E+02 -.200E+04   -.400E+02 -.430E+02 0.200E+04   0.177E+00 -.528E-01 0.572E+01
   0.142E+03 0.559E+01 -.171E+04   -.142E+03 -.473E+01 0.171E+04   0.115E-01 -.860E+00 0.103E+01
   0.844E+01 0.889E+01 0.209E+04   -.845E+01 -.885E+01 -.208E+04   0.549E-02 -.314E-01 -.681E+01
   0.535E+01 0.757E+01 0.209E+04   -.543E+01 -.746E+01 -.209E+04   0.692E-01 -.865E-01 -.683E+01
   0.175E+02 0.107E+02 0.746E+03   -.175E+02 -.105E+02 -.746E+03   0.204E-01 -.129E+00 0.221E+00
   0.677E+01 0.174E+02 0.743E+03   -.690E+01 -.173E+02 -.743E+03   0.105E+00 -.667E-01 0.321E+00
   0.342E+02 0.357E+02 -.612E+03   -.342E+02 -.355E+02 0.612E+03   0.409E-01 -.201E+00 -.430E-01
   0.220E+02 0.377E+02 -.537E+03   -.227E+02 -.368E+02 0.538E+03   0.672E+00 -.912E+00 -.139E+01
   0.129E+03 0.647E+02 -.191E+04   -.128E+03 -.643E+02 0.191E+04   -.998E+00 -.404E+00 0.575E+01
   0.611E+02 0.127E+03 -.189E+04   -.622E+02 -.126E+03 0.188E+04   0.102E+01 -.444E+00 0.594E+01
   0.841E+00 -.762E+00 0.208E+04   -.793E+00 0.709E+00 -.207E+04   -.369E-01 0.409E-01 -.679E+01
   0.764E+01 -.507E+01 0.209E+04   -.754E+01 0.508E+01 -.208E+04   -.728E-01 -.919E-02 -.682E+01
   0.841E+00 -.682E+01 0.724E+03   -.734E+00 0.687E+01 -.725E+03   -.793E-01 -.351E-01 0.484E+00
   0.822E+01 -.270E+00 0.715E+03   -.817E+01 0.213E+00 -.715E+03   -.326E-01 0.425E-01 0.472E+00
[...]
   -.740E+01 -.343E+01 0.157E+04   0.737E+01 0.348E+01 -.157E+04   0.422E-01 -.753E-01 0.359E+01
   -.315E+01 -.952E+00 0.156E+04   0.317E+01 0.904E+00 -.157E+04   -.256E-01 0.712E-01 0.363E+01
   -.205E+02 -.195E+01 -.153E+04   0.204E+02 0.165E+01 0.154E+04   0.118E+00 0.298E+00 -.512E+01
   -.512E+02 -.242E+02 -.151E+04   0.514E+02 0.245E+02 0.151E+04   -.139E+00 -.233E+00 -.511E+01
   -.316E+02 -.151E+02 -.428E+03   0.311E+02 0.152E+02 0.428E+03   0.520E+00 -.106E+00 0.404E+00
   -.820E+01 -.183E+01 -.484E+03   0.824E+01 0.169E+01 0.484E+03   -.391E-01 0.130E+00 0.235E+00
   -.120E+02 -.110E+02 0.550E+03   0.119E+02 0.110E+02 -.550E+03   0.114E+00 0.471E-01 -.130E+00
   -.612E+01 -.726E+01 0.537E+03   0.611E+01 0.721E+01 -.537E+03   0.157E-01 0.640E-01 -.865E-01
   -.568E+01 -.531E+01 0.157E+04   0.566E+01 0.526E+01 -.157E+04   0.268E-01 0.641E-01 0.360E+01
   -.443E+01 -.547E+01 0.157E+04   0.443E+01 0.547E+01 -.157E+04   -.517E-03 -.357E-02 0.360E+01
   -.514E+02 -.575E+02 -.150E+04   0.509E+02 0.574E+02 0.150E+04   0.469E+00 0.893E-01 -.514E+01
   -.177E+02 -.195E+02 -.153E+04   0.176E+02 0.194E+02 0.154E+04   0.697E-01 0.136E+00 -.513E+01
   -.163E+02 -.175E+02 -.472E+03   0.162E+02 0.173E+02 0.472E+03   0.134E+00 0.170E+00 0.221E+00
   -.163E+02 -.168E+02 -.471E+03   0.162E+02 0.167E+02 0.471E+03   0.779E-01 0.279E-01 0.229E+00
   0.384E+02 -.518E+02 0.219E+02   -.628E-11 0.711E-12 -.100E-10   -.384E+02 0.518E+02 -.221E+02

 POSITION                                       TOTAL-FORCE (eV/Angst)
      8.35221      9.10246     17.09052         0.018602     -0.030356     -0.016835
      5.62568      6.62184     17.05614         0.037483     -0.021974     -0.027631
      7.56700      3.19688     16.80715         0.069486      0.045029      0.005117
     11.52559      7.07799     16.84764        -0.050520     -0.078952      0.007500
      8.39314      8.68662     18.11489         0.003759     -0.027195      0.022383
      9.63965      7.09003     16.19250        -0.112073      0.036713     -0.000322
      9.18572      9.81801     16.98048         0.041671      0.030460     -0.010568
      7.41150      9.67607     16.99510        -0.050332      0.026570     -0.013826
      5.99076      6.53938     18.09444         0.027424     -0.006550      0.028804
      7.45476      7.21186     16.17567         0.037960      0.023249     -0.013298
      5.19067      7.62689     16.91817        -0.016677      0.059599     -0.015263
      4.82667      5.88249     16.90054        -0.035749     -0.041941     -0.008376
      7.63691      3.33560     17.89828         0.015604      0.015644      0.020740
      7.69428      5.08535     16.22651        -0.049156      0.141210      0.009048
      6.50107      3.16296     16.52000        -0.060132      0.014449     -0.020374
      8.03950      2.24813     16.52655         0.035342     -0.041779     -0.006769
     11.61713      8.15373     16.61428        -0.007284      0.068883     -0.021205
     10.44355      4.34487     15.14238        -0.050536      0.055821      0.230911
     11.35243      6.96586     17.93093        -0.016321     -0.010609      0.016892
     12.46431      6.58011     16.57453         0.043424     -0.032009     -0.007050
      8.43571      8.07967     16.10938         0.013444      0.077295     -0.029982
      6.67675      6.38875     16.11763        -0.106697     -0.043313     -0.025662
      8.25147      4.25168     16.11403         0.021026     -0.181596     -0.061627
     10.46298      6.47765     16.09609         0.167445     -0.018223     -0.056835
      0.00000      6.33074      7.50000         0.022819      0.014558      0.308599
      2.11025      0.00000      7.50000         0.009965     -0.004032      0.309793
      0.00000      0.00000      9.61025         0.024143     -0.012814      0.023047
      2.11025      6.33074      9.61025         0.065722      0.013206      0.059079
      0.00685      6.33333     11.73261        -0.003649     -0.000321      0.028722
      2.11086     16.87941     11.73253         0.000437     -0.000183      0.027639
      0.00681     16.87474     13.83755        -0.001653      0.000858      0.033698
      2.11481      6.33584     13.83568        -0.002984      0.002256      0.031994
      0.00000      2.11025      7.50000         0.022189     -0.000694      0.303805
      2.11025      4.22049      7.50000         0.019285      0.012806      0.319551
      0.00000      4.22049      9.61025         0.064193      0.011023      0.017111
      2.11025      2.11025      9.61025         0.018678      0.009065      0.028707
      0.00587      2.10817     11.73329        -0.001727      0.000767      0.028673
      2.11283      4.22333     11.72992         0.002468     -0.001798      0.027330
      0.01438      4.21988     13.83815        -0.004760      0.001348      0.033706
      2.11113      2.10459     13.83631        -0.000065     -0.000558      0.033846
      4.22049      6.33074      7.50000         0.011610      0.016008      0.340428
      6.33074      0.00000      7.50000        -0.013090     -0.007922      0.308983
      4.22049      0.00000      9.61025        -0.006747     -0.004562      0.027142
      6.33074      6.33074      9.61025         0.021903      0.061093      0.165053
      4.23514      6.33489     11.74496         0.001228     -0.000522      0.023153
      6.32681     16.87764     11.72834         0.002224      0.005065      0.028535
      4.21259     16.87435     13.83567         0.000067      0.001612      0.033068
      6.32002      6.34640     13.98072         0.005310      0.000712      0.079988
      4.22049      2.11025      7.50000        -0.001080      0.008880      0.316577
      6.33074      4.22049      7.50000        -0.018022      0.025387      0.322478
      4.22049      4.22049      9.61025         0.003167      0.046072      0.063777
      6.33074      2.11025      9.61025        -0.024162      0.029034      0.065390
      4.21693      2.11076     11.72968         0.003282      0.001456      0.027797
      6.32419      4.23758     11.74584         0.001077     -0.000145      0.030642
      4.20979      4.22268     13.82314        -0.003494     -0.006714      0.014139
      6.30475      2.09501     13.82018        -0.015130     -0.008473      0.002227
      0.00000     14.77172      7.50000         0.010661     -0.011852      0.308003
      2.11025      8.44098      7.50000         0.020681      0.002468      0.320353
      0.00000      8.44098      9.61025         0.027609      0.011354      0.027953
      2.11025     14.77172      9.61025         0.010722     -0.014793      0.029834
[...]
     14.77172      8.44098      9.61025         0.011825     -0.021239      0.047882
     12.66148      8.44098      7.50000         0.011870     -0.021078     -0.406499
     14.77172     14.77172      7.50000        -0.004732      0.022238     -0.395603
     12.66850     14.77064     13.88518         0.001939      0.002033     -0.093943
     14.77658      8.44421     13.88376        -0.000897      0.001248     -0.090287
     12.67016      8.44102     11.72294         0.005412      0.002678      0.012521
     14.77202     14.77456     11.72780        -0.001571     -0.002889      0.008800
     12.66148     10.55123      9.61025         0.034368      0.010539      0.037292
     14.77172     12.66148      9.61025         0.005565      0.019349      0.058109
     12.66148     12.66148      7.50000         0.007470      0.017923     -0.405443
     14.77172     10.55123      7.50000         0.002266     -0.003304     -0.402822
     12.67798     10.56612     13.88280         0.003245     -0.001631     -0.087483
     14.77861     12.66625     13.88391        -0.000380      0.001017     -0.093438
     12.66577     12.66578     11.72692         0.000013     -0.000305      0.010708
     14.77484     10.55318     11.72695        -0.000947      0.000087      0.008630
    total drift:                                0.000751     -0.012969     -0.146260

  FREE ENERGIE OF THE ION-ELECTRON SYSTEM (eV)
  free  energy   TOTEN  =     -1171.90951810 eV

  energy  without entropy=    -1171.90951810  energy(sigma->0) =    -1171.90951810