 vasp.6.3.0 20Jan22 (build Apr  1 2022 16:44:48) complex
 executed on        HPECrayEX_GCC date 2022.11.02  17:53:47

 INCAR:
   SYSTEM = MgO-rocksalt
   ISMEAR = 0
   SIGMA = 0.05
   EDIFF = 1E-7
   ALGO = ALL
   ISTART = 0
   IBRION = 2
   NSW = 1000
   ISYM = 0
   ISIF = 2
   EDIFFG = -0.01
   DIPOL = 0.5 0.5 0.5
   IDIPOL = 3
   LDIPOL = .TRUE.
   GGA = PE
   IVDW = 1
   VDW_C6 = 1.75 0.70 0.14 0.63 0.70
   VDW_R0 = 1.452 1.342 1.001 1.243 1.342
   ENCUT = 600
   PREC = Accurate
   LASPH = .TRUE.
   LREAL = .FALSE.
   ISPIN = 1
   NELM = 200
   NELMIN = 8
   NCORE = 8
   KPAR = 1
   LWAVE = .FALSE.
   LCHARG = .FALSE.

 POTCAR:    PAW_PBE C 08Apr2002
 POTCAR:    PAW_PBE O 08Apr2002
 POTCAR:    PAW_PBE H 15Jun2001
 POTCAR:    PAW_PBE Mg_pv 13Apr2007
 POTCAR:    PAW_PBE O 08Apr2002
 POTCAR:    PAW_PBE C 08Apr2002
   VRHFIN =C: s2p2

   TITEL  = PAW_PBE C 08Apr2002
   POMASS =   12.011; ZVAL   =    4.000    mass and valenz
   ENMAX  =  400.000; ENMIN  =  300.000 eV

[...]

   TITEL  = PAW_PBE H 15Jun2001
   POMASS =    1.000; ZVAL   =    1.000    mass and valenz
   ENMAX  =  250.000; ENMIN  =  200.000 eV

   TITEL  = PAW_PBE Mg_pv 13Apr2007
   POMASS =   24.305; ZVAL   =    8.000    mass and valenz
   ENMAX  =  403.929; ENMIN  =  302.947 eV

   TITEL  = PAW_PBE O 08Apr2002
   POMASS =   16.000; ZVAL   =    6.000    mass and valenz
   ENMAX  =  400.000; ENMIN  =  300.000 eV

  PAW_PBE C 08Apr2002                   :
  PAW_PBE O 08Apr2002                   :
  PAW_PBE H 15Jun2001                   :
  PAW_PBE Mg_pv 13Apr2007               :
  PAW_PBE O 08Apr2002                   :

 POSCAR:  C  O  H Mg  O
  positions in direct lattice
 exchange correlation table for  LEXCH =        8
   RHO(1)=    0.500       N(1)  =     2000
   RHO(2)=  100.500       N(2)  =     4000

 ion  position               nearest neighbor table
   1  0.412  0.624  0.791-   3 1.10   6 1.10   5 1.10   2 1.44
   2  0.411  0.494  0.748-   4 1.02   1 1.44
   3  0.516  0.610  0.822-   1 1.10
   4  0.314  0.501  0.720-   2 1.02
   5  0.423  0.738  0.766-   1 1.10
   6  0.305  0.625  0.820-   1 1.10
   7  0.250  0.000  0.351-  39 2.12  41 2.12  42 2.12  49 2.12  58 2.12
   8  0.500  0.250  0.351-  40 2.12  41 2.12  42 2.12  50 2.12  57 2.12
   9  0.250  0.250  0.450-  41 2.12  40 2.12  39 2.12  47 2.12  56 2.12  45 2.12
  10  0.500  0.000  0.450-  42 2.12  40 2.12  39 2.12  48 2.12  55 2.12  46 2.12
  11  0.250  0.000  0.550-  45 2.12  46 2.12  53 2.12  62 2.12  39 2.13  43 2.15
  12  0.500  0.250  0.550-  45 2.12  46 2.12  54 2.12  61 2.12  40 2.13  44 2.15
  13  0.250  0.250  0.649-  45 2.11  44 2.12  43 2.12  51 2.12  60 2.12
  14  0.500  0.000  0.649-  46 2.11  44 2.12  43 2.12  52 2.12  59 2.12
  15  0.250  0.500  0.351-  47 2.12  41 2.12  49 2.12  50 2.12  66 2.12
  16  0.500  0.750  0.351-  48 2.12  42 2.12  49 2.12  50 2.12  65 2.12
  17  0.250  0.750  0.450-  49 2.12  47 2.12  48 2.12  39 2.12  64 2.12  53 2.12
  18  0.500  0.500  0.450-  50 2.12  47 2.12  48 2.12  40 2.12  63 2.12  54 2.12
  19  0.250  0.500  0.550-  45 2.12  53 2.12  54 2.12  70 2.12  47 2.13  51 2.15
  20  0.500  0.750  0.550-  46 2.12  53 2.12  54 2.12  69 2.12  48 2.13  52 2.15
  21  0.250  0.750  0.649-  53 2.11  51 2.12  52 2.12  43 2.12  68 2.12
  22  0.500  0.500  0.649-  54 2.11  51 2.12  52 2.12  44 2.12  67 2.12
  23  0.750  0.000  0.351-  55 2.12  42 2.12  57 2.12  58 2.12  65 2.12
  24  0.000  0.250  0.351-  56 2.12  41 2.12  57 2.12  58 2.12  66 2.12
  25  0.750  0.250  0.450-  57 2.12  55 2.12  56 2.12  40 2.12  63 2.12  61 2.12
  26  0.000  0.000  0.450-  58 2.12  55 2.12  56 2.12  39 2.12  64 2.12  62 2.12
  27  0.750  0.000  0.550-  46 2.12  61 2.12  62 2.12  69 2.12  55 2.13  59 2.15
  28  0.000  0.250  0.550-  45 2.12  61 2.12  62 2.12  70 2.12  56 2.13  60 2.15
  29  0.750  0.250  0.649-  61 2.11  59 2.12  60 2.12  44 2.12  67 2.12
  30  0.000  0.000  0.649-  62 2.11  59 2.12  60 2.12  43 2.12  68 2.12
  31  0.750  0.500  0.351-  63 2.12  57 2.12  50 2.12  65 2.12  66 2.12
  32  0.000  0.750  0.351-  64 2.12  58 2.12  49 2.12  65 2.12  66 2.12
  33  0.750  0.750  0.450-  65 2.12  55 2.12  63 2.12  64 2.12  48 2.12  69 2.12
  34  0.000  0.500  0.450-  66 2.12  56 2.12  63 2.12  64 2.12  47 2.12  70 2.12
  35  0.750  0.500  0.550-  54 2.12  61 2.12  69 2.12  70 2.12  63 2.13  67 2.15
  36  0.000  0.750  0.550-  53 2.12  62 2.12  69 2.12  70 2.12  64 2.13  68 2.15
  37  0.750  0.750  0.649-  69 2.11  59 2.12  67 2.12  68 2.12  52 2.12
  38  0.000  0.500  0.649-  70 2.11  60 2.12  67 2.12  68 2.12  51 2.12
  39  0.250  0.000  0.450-   7 2.12   9 2.12  10 2.12  17 2.12  26 2.12  11 2.13
  40  0.500  0.250  0.450-   8 2.12   9 2.12  10 2.12  18 2.12  25 2.12  12 2.13
  41  0.250  0.250  0.351-   9 2.12   8 2.12   7 2.12  15 2.12  24 2.12
  42  0.500  0.000  0.351-  10 2.12   8 2.12   7 2.12  16 2.12  23 2.12
  43  0.250  0.000  0.651-  13 2.12  14 2.12  21 2.12  30 2.12  11 2.15
  44  0.500  0.250  0.651-  13 2.12  14 2.12  22 2.12  29 2.12  12 2.15
  45  0.250  0.250  0.550-  13 2.11  12 2.12  11 2.12  19 2.12  28 2.12   9 2.12
  46  0.500  0.000  0.550-  14 2.11  12 2.12  11 2.12  20 2.12  27 2.12  10 2.12
  47  0.250  0.500  0.450-  15 2.12   9 2.12  17 2.12  18 2.12  34 2.12  19 2.13
  48  0.500  0.750  0.450-  16 2.12  10 2.12  17 2.12  18 2.12  33 2.12  20 2.13
  49  0.250  0.750  0.351-  17 2.12  15 2.12  16 2.12   7 2.12  32 2.12
  50  0.500  0.500  0.351-  18 2.12  15 2.12  16 2.12   8 2.12  31 2.12
  51  0.250  0.500  0.651-  13 2.12  21 2.12  22 2.12  38 2.12  19 2.15
  52  0.500  0.750  0.651-  14 2.12  21 2.12  22 2.12  37 2.12  20 2.15
  53  0.250  0.750  0.550-  21 2.11  19 2.12  20 2.12  11 2.12  36 2.12  17 2.12
  54  0.500  0.500  0.550-  22 2.11  19 2.12  20 2.12  12 2.12  35 2.12  18 2.12
  55  0.750  0.000  0.450-  23 2.12  10 2.12  25 2.12  26 2.12  33 2.12  27 2.13
  56  0.000  0.250  0.450-  24 2.12   9 2.12  25 2.12  26 2.12  34 2.12  28 2.13
  57  0.750  0.250  0.351-  25 2.12  23 2.12  24 2.12   8 2.12  31 2.12
  58  0.000  0.000  0.351-  26 2.12  23 2.12  24 2.12   7 2.12  32 2.12
  59  0.750  0.000  0.651-  14 2.12  29 2.12  30 2.12  37 2.12  27 2.15
  60  0.000  0.250  0.651-  13 2.12  29 2.12  30 2.12  38 2.12  28 2.15
  61  0.750  0.250  0.550-  29 2.11  27 2.12  28 2.12  12 2.12  35 2.12  25 2.12
  62  0.000  0.000  0.550-  30 2.11  27 2.12  28 2.12  11 2.12  36 2.12  26 2.12
  63  0.750  0.500  0.450-  31 2.12  25 2.12  18 2.12  33 2.12  34 2.12  35 2.13
  64  0.000  0.750  0.450-  32 2.12  26 2.12  17 2.12  33 2.12  34 2.12  36 2.13
  65  0.750  0.750  0.351-  33 2.12  23 2.12  31 2.12  32 2.12  16 2.12
  66  0.000  0.500  0.351-  34 2.12  24 2.12  31 2.12  32 2.12  15 2.12
  67  0.750  0.500  0.651-  22 2.12  29 2.12  37 2.12  38 2.12  35 2.15
  68  0.000  0.750  0.651-  21 2.12  30 2.12  37 2.12  38 2.12  36 2.15
  69  0.750  0.750  0.550-  37 2.11  27 2.12  35 2.12  36 2.12  20 2.12  33 2.12
  70  0.000  0.500  0.550-  38 2.11  28 2.12  35 2.12  36 2.12  19 2.12  34 2.12

IMPORTANT INFORMATION: All symmetrisations will be switched off!
NOSYMM: (Re-)initialisation of all symmetry stuff for point group C_1.

                                     Primitive cell

  volume of cell :    1530.6606

  direct lattice vectors                    reciprocal lattice vectors
     8.467142631  0.000000000  0.000000000     0.118103597  0.000000000  0.000000000
     0.000000000  8.467142631  0.000000000     0.000000000  0.118103597  0.000000000
     0.000000000  0.000000000 21.350356973     0.000000000  0.000000000  0.046837624

  length of vectors
     8.467142631  8.467142631 21.350356973     0.118103597  0.118103597  0.046837624

  position of ions in fractional coordinates (direct lattice)
     0.412435668  0.624233030  0.790982184
     0.410713953  0.493920183  0.747979124
     0.515573770  0.609789829  0.821596186
     0.313742289  0.501219609  0.720054425
     0.423395649  0.738152259  0.766188590
     0.305331483  0.625197066  0.820292509
     0.250000000  0.000000000  0.351282183
     0.500000000  0.250000000  0.351282183
     0.250000000  0.250000000  0.450427394
     0.500000000  0.000000000  0.450427394
     0.250000000  0.000000000  0.550191116
     0.500000000  0.250000000  0.550191116
     0.250000000  0.250000000  0.648532086
     0.500000000  0.000000000  0.648532086
     0.250000000  0.500000000  0.351282183
     0.500000000  0.750000000  0.351282183
     0.250000000  0.750000000  0.450427394
     0.500000000  0.500000000  0.450427394
     0.250000000  0.500000000  0.550191116
     0.500000000  0.750000000  0.550191116
     0.250000000  0.750000000  0.648532086
     0.500000000  0.500000000  0.648532086
     0.750000000  0.000000000  0.351282183
     0.000000000  0.250000000  0.351282183
     0.750000000  0.250000000  0.450427394
     0.000000000  0.000000000  0.450427394
     0.750000000  0.000000000  0.550191116
     0.000000000  0.250000000  0.550191116
     0.750000000  0.250000000  0.648532086
     0.000000000  0.000000000  0.648532086
     0.750000000  0.500000000  0.351282183
     0.000000000  0.750000000  0.351282183
     0.750000000  0.750000000  0.450427394
     0.000000000  0.500000000  0.450427394
     0.750000000  0.500000000  0.550191116
     0.000000000  0.750000000  0.550191116
     0.750000000  0.750000000  0.648532086
     0.000000000  0.500000000  0.648532086
     0.250000000  0.000000000  0.450427394
     0.500000000  0.250000000  0.450427394
     0.250000000  0.250000000  0.351282183
     0.500000000  0.000000000  0.351282183
     0.250000000  0.000000000  0.650785562
     0.500000000  0.250000000  0.650785562
     0.250000000  0.250000000  0.549814593
     0.500000000  0.000000000  0.549814593
     0.250000000  0.500000000  0.450427394
     0.500000000  0.750000000  0.450427394
     0.250000000  0.750000000  0.351282183
     0.500000000  0.500000000  0.351282183
     0.250000000  0.500000000  0.650785562
     0.500000000  0.750000000  0.650785562
     0.250000000  0.750000000  0.549814593
     0.500000000  0.500000000  0.549814593
     0.750000000  0.000000000  0.450427394
     0.000000000  0.250000000  0.450427394
     0.750000000  0.250000000  0.351282183
     0.000000000  0.000000000  0.351282183
     0.750000000  0.000000000  0.650785562
     0.000000000  0.250000000  0.650785562
     0.750000000  0.250000000  0.549814593
     0.000000000  0.000000000  0.549814593
     0.750000000  0.500000000  0.450427394
     0.000000000  0.750000000  0.450427394
     0.750000000  0.750000000  0.351282183
     0.000000000  0.500000000  0.351282183
     0.750000000  0.500000000  0.650785562
     0.000000000  0.750000000  0.650785562
     0.750000000  0.750000000  0.549814593
     0.000000000  0.500000000  0.549814593

  ion indices of the primitive-cell ions
   primitive index   ion index
                 1           1
                 2           2
                 3           3
                 4           4
                 5           5
                 6           6
                 7           7
                 8           8
                 9           9
                10          10
                11          11
                12          12
[...]
   6.35035697  6.35035697 13.84639155
   0.00000000  4.23357132 13.84639155
   2.11678566  0.00000000  9.61678566
   4.23357132  2.11678566  9.61678566
   2.11678566  2.11678566  7.50000000
   4.23357132  0.00000000  7.50000000
   2.11678566  0.00000000 13.89450407
   4.23357132  2.11678566 13.89450407
   2.11678566  2.11678566 11.73873783
   4.23357132  0.00000000 11.73873783
   2.11678566  4.23357132  9.61678566
   4.23357132  6.35035697  9.61678566
   2.11678566  6.35035697  7.50000000
   4.23357132  4.23357132  7.50000000
   2.11678566  4.23357132 13.89450407
   4.23357132  6.35035697 13.89450407
   2.11678566  6.35035697 11.73873783
   4.23357132  4.23357132 11.73873783
   6.35035697  0.00000000  9.61678566
   0.00000000  2.11678566  9.61678566
   6.35035697  2.11678566  7.50000000
   0.00000000  0.00000000  7.50000000
   6.35035697  0.00000000 13.89450407
   0.00000000  2.11678566 13.89450407
   6.35035697  2.11678566 11.73873783
   0.00000000  0.00000000 11.73873783
   6.35035697  4.23357132  9.61678566
   0.00000000  6.35035697  9.61678566
   6.35035697  6.35035697  7.50000000
   0.00000000  4.23357132  7.50000000
   6.35035697  4.23357132 13.89450407
   0.00000000  6.35035697 13.89450407
   6.35035697  6.35035697 11.73873783
   0.00000000  4.23357132 11.73873783

--------------------------------------- Iteration      FINAL  ---------------------------------------

--------------------OUTCAR has been truncated-------------------------

[...]

--------------------OUTCAR has been truncated-------------------------

  Number of pair interactions contributing to vdW energy:  857511
  Edisp (eV):   -3.76625

  FORCE on cell =-STRESS in cart. coord.  units (eV):
  Direction    XX          YY          ZZ          XY          YZ          ZX
  Alpha Z   912.34846   912.34846   912.34846
  Ewald  157114.19256157183.13754************     4.24811   136.96949    25.26286
  Hartree167519.23266167582.78034************     3.17394    79.08809     0.65566
  E(xc)   -2513.43556 -2513.51810 -2518.06556    -0.01044     0.18377     0.25961
  Local  ************************334032.63377    -8.05160  -206.53308   -16.60226
  n-local -2853.86441 -2852.09940 -2872.26458     0.18418     1.95135    -0.28629
  augment  1054.68058  1054.69959  1045.66408     0.04863    -0.84946    -0.59047
  Kinetic  7532.85615  7535.30106  7571.21998     0.42863   -10.82705    -8.59677
  Fock        0.00000     0.00000     0.00000     0.00000     0.00000     0.00000
  vdW        -5.27179    -5.37594    -4.53753    -0.00971    -0.02461    -0.01454
  Total     -28.02415   -28.37271    -2.82949     0.01174    -0.04150     0.08780
  in kB     -29.33351   -29.69836    -2.96169     0.01229    -0.04343     0.09190

 VOLUME and BASIS-vectors are now :
  energy-cutoff  :      600.00
  volume of cell :     1530.66
      direct lattice vectors                 reciprocal lattice vectors
     8.467142631  0.000000000  0.000000000     0.118103597  0.000000000  0.000000000
     0.000000000  8.467142631  0.000000000     0.000000000  0.118103597  0.000000000
     0.000000000  0.000000000 21.350356973     0.000000000  0.000000000  0.046837624

  length of vectors
     8.467142631  8.467142631 21.350356973     0.118103597  0.118103597  0.046837624

 FORCES acting on ions:
    Electron-Ion                     Ewald-Force                    Non-Local-Force
   -.235E+01 -.948E+02 -.101E+04   0.257E+01 0.994E+02 0.102E+04   -.226E+00 -.466E+01 -.355E+01
   -.296E+02 0.138E+03 -.159E+04   0.534E+02 -.169E+03 0.159E+04   -.238E+02 0.311E+02 -.464E-01
   -.485E+02 -.313E+01 -.244E+03   0.530E+02 0.259E+01 0.247E+03   -.452E+01 0.541E+00 -.338E+01
   0.668E+02 0.603E+01 -.251E+03   -.723E+02 -.591E+01 0.247E+03   0.546E+01 -.133E+00 0.395E+01
   -.457E+01 -.605E+02 -.238E+03   0.506E+01 0.652E+02 0.236E+03   -.481E+00 -.481E+01 0.272E+01
   0.487E+02 -.893E+01 -.243E+03   -.532E+02 0.895E+01 0.246E+03   0.454E+01 -.227E-01 -.321E+01
   0.920E-01 -.115E+00 0.207E+04   -.882E-01 0.116E+00 -.207E+04   -.266E-02 -.988E-03 -.700E+01
   -.799E-01 -.228E-01 0.207E+04   0.822E-01 0.304E-01 -.207E+04   -.161E-02 -.585E-02 -.704E+01
   0.156E+00 0.142E+00 0.729E+03   -.138E+00 -.611E-01 -.729E+03   -.112E-01 -.595E-01 0.589E+00
   -.467E+00 -.514E+00 0.730E+03   0.498E+00 0.499E+00 -.730E+03   -.218E-01 0.113E-01 0.302E+00
   0.443E+01 -.211E+01 -.605E+03   -.436E+01 0.217E+01 0.605E+03   -.757E-01 -.552E-01 -.155E+00
   -.208E+01 0.451E+01 -.602E+03   0.213E+01 -.421E+01 0.603E+03   -.507E-01 -.293E+00 -.110E+01
   0.267E+02 0.313E+02 -.193E+04   -.268E+02 -.324E+02 0.192E+04   -.131E-02 0.115E+01 0.626E+01
   -.930E+01 -.102E+02 -.195E+04   0.949E+01 0.103E+02 0.194E+04   -.194E+00 -.154E+00 0.612E+01
   0.613E-01 0.115E+00 0.207E+04   -.518E-01 -.117E+00 -.207E+04   -.718E-02 0.101E-02 -.703E+01
   -.914E-01 0.224E-01 0.207E+04   0.942E-01 -.302E-01 -.207E+04   -.197E-02 0.604E-02 -.705E+01
   0.197E+00 -.156E+00 0.730E+03   -.156E+00 0.751E-01 -.730E+03   -.285E-01 0.596E-01 0.584E+00
   -.521E+00 0.504E+00 0.727E+03   0.495E+00 -.493E+00 -.728E+03   0.203E-01 -.867E-02 0.693E+00
   0.394E+01 0.220E+01 -.608E+03   -.367E+01 -.226E+01 0.607E+03   -.267E+00 0.532E-01 0.917E+00
   -.275E+01 -.451E+01 -.601E+03   0.283E+01 0.422E+01 0.601E+03   -.777E-01 0.297E+00 -.713E+00
   0.335E+02 -.328E+02 -.190E+04   -.337E+02 0.339E+02 0.189E+04   0.212E+00 -.114E+01 0.632E+01
   -.409E+02 0.141E+02 -.185E+04   0.430E+02 -.142E+02 0.184E+04   -.216E+01 0.120E+00 0.273E+01
   -.913E-01 -.104E+00 0.207E+04   0.874E-01 0.104E+00 -.207E+04   0.272E-02 -.539E-03 -.703E+01
   0.793E-01 0.718E-02 0.207E+04   -.817E-01 -.533E-02 -.207E+04   0.167E-02 -.131E-02 -.703E+01
   -.152E+00 0.283E-02 0.729E+03   0.132E+00 0.869E-02 -.729E+03   0.119E-01 -.761E-02 0.444E+00
   0.441E+00 -.461E+00 0.728E+03   -.473E+00 0.472E+00 -.729E+03   0.229E-01 -.787E-02 0.434E+00
   -.428E+01 -.147E+01 -.612E+03   0.422E+01 0.150E+01 0.612E+03   0.694E-01 -.284E-01 -.164E+00
   0.210E+01 0.349E+01 -.613E+03   -.216E+01 -.344E+01 0.613E+03   0.560E-01 -.500E-01 -.293E+00
   -.227E+02 0.193E+02 -.196E+04   0.227E+02 -.197E+02 0.195E+04   -.161E-01 0.406E+00 0.616E+01
   0.801E+01 -.496E+01 -.197E+04   -.818E+01 0.501E+01 0.197E+04   0.169E+00 -.485E-01 0.608E+01
   -.607E-01 0.104E+00 0.207E+04   0.513E-01 -.105E+00 -.207E+04   0.711E-02 0.599E-03 -.702E+01
   0.904E-01 -.791E-02 0.207E+04   -.934E-01 0.586E-02 -.207E+04   0.218E-02 0.147E-02 -.702E+01
   -.194E+00 -.133E-01 0.729E+03   0.148E+00 0.534E-03 -.730E+03   0.314E-01 0.851E-02 0.471E+00
   0.516E+00 0.464E+00 0.728E+03   -.489E+00 -.478E+00 -.729E+03   -.211E-01 0.998E-02 0.490E+00
   -.524E+01 0.155E+01 -.605E+03   0.500E+01 -.157E+01 0.605E+03   0.241E+00 0.249E-01 -.384E+00
   0.274E+01 -.351E+01 -.609E+03   -.282E+01 0.346E+01 0.609E+03   0.833E-01 0.491E-01 -.237E+00
   -.274E+02 -.200E+02 -.195E+04   0.276E+02 0.204E+02 0.194E+04   -.169E+00 -.385E+00 0.616E+01
   0.180E+02 0.522E+01 -.195E+04   -.184E+02 -.527E+01 0.194E+04   0.427E+00 0.598E-01 0.596E+01
   0.461E+00 -.333E+00 0.547E+03   -.440E+00 0.329E+00 -.547E+03   -.308E-01 0.528E-02 0.391E-01
   -.170E+00 -.338E-01 0.545E+03   0.189E+00 -.313E-01 -.545E+03   -.283E-01 0.878E-01 -.184E+00
   0.513E-01 -.176E-02 0.156E+04   -.462E-01 0.101E-01 -.156E+04   -.714E-02 -.117E-01 0.350E+01
   -.649E-01 -.845E-01 0.156E+04   0.708E-01 0.840E-01 -.156E+04   -.821E-02 0.664E-03 0.349E+01
   0.119E+02 -.795E+01 -.149E+04   -.118E+02 0.799E+01 0.149E+04   -.921E-01 -.290E-01 -.520E+01
   -.120E+02 0.337E+02 -.145E+04   0.119E+02 -.332E+02 0.146E+04   0.110E+00 -.474E+00 -.534E+01
   0.315E+01 0.272E+01 -.448E+03   -.309E+01 -.281E+01 0.448E+03   -.554E-01 0.839E-01 0.552E+00
   -.209E+01 -.148E+01 -.445E+03   0.213E+01 0.150E+01 0.445E+03   -.310E-01 -.216E-01 0.368E+00
   0.288E+00 0.338E+00 0.546E+03   -.333E+00 -.334E+00 -.546E+03   0.573E-01 -.583E-02 -.125E+00
   -.240E+00 0.286E-01 0.546E+03   0.255E+00 0.415E-01 -.546E+03   -.227E-01 -.947E-01 -.198E+00
   0.542E-01 0.141E-02 0.156E+04   -.464E-01 -.977E-02 -.156E+04   -.109E-01 0.117E-01 0.350E+01
   -.696E-01 0.848E-01 0.156E+04   0.690E-01 -.842E-01 -.156E+04   0.923E-03 -.954E-03 0.348E+01
   0.449E+02 0.947E+01 -.141E+04   -.448E+02 -.950E+01 0.141E+04   -.892E-01 0.246E-01 -.131E+01
   -.172E+02 -.360E+02 -.143E+04   0.171E+02 0.355E+02 0.144E+04   0.105E+00 0.482E+00 -.505E+01
   0.330E+01 -.274E+01 -.442E+03   -.325E+01 0.282E+01 0.442E+03   -.459E-01 -.766E-01 0.784E+00
   -.683E+00 0.154E+01 -.457E+03   0.710E+00 -.157E+01 0.458E+03   -.279E-01 0.291E-01 -.896E+00
   -.446E+00 -.269E+00 0.546E+03   0.427E+00 0.272E+00 -.546E+03   0.287E-01 -.400E-02 -.506E-01
   0.162E+00 0.949E-01 0.546E+03   -.179E+00 -.937E-01 -.546E+03   0.262E-01 -.112E-02 -.969E-01
   -.509E-01 -.698E-02 0.156E+04   0.458E-01 0.867E-02 -.156E+04   0.708E-02 -.236E-02 0.349E+01
   0.643E-01 -.817E-01 0.156E+04   -.702E-01 0.838E-01 -.156E+04   0.813E-02 -.299E-02 0.350E+01
   -.109E+02 -.470E+01 -.150E+04   0.109E+02 0.471E+01 0.150E+04   0.825E-01 -.792E-02 -.517E+01
   0.880E+01 0.111E+02 -.150E+04   -.870E+01 -.109E+02 0.150E+04   -.984E-01 -.255E+00 -.517E+01
   -.313E+01 0.291E+01 -.451E+03   0.306E+01 -.292E+01 0.450E+03   0.669E-01 0.433E-02 0.349E+00
   0.196E+01 -.125E+01 -.455E+03   -.198E+01 0.125E+01 0.454E+03   0.212E-01 -.142E-02 0.305E+00
   -.278E+00 0.270E+00 0.546E+03   0.320E+00 -.270E+00 -.546E+03   -.538E-01 0.178E-02 -.919E-01
   0.224E+00 -.108E+00 0.546E+03   -.233E+00 0.111E+00 -.546E+03   0.149E-01 -.479E-02 -.598E-01
   -.535E-01 0.681E-02 0.156E+04   0.458E-01 -.847E-02 -.156E+04   0.106E-01 0.232E-02 0.349E+01
   0.692E-01 0.822E-01 0.156E+04   -.686E-01 -.842E-01 -.156E+04   -.868E-03 0.276E-02 0.350E+01
   -.324E+02 0.514E+01 -.147E+04   0.325E+02 -.516E+01 0.148E+04   -.122E+00 0.189E-01 -.497E+01
   0.118E+02 -.113E+02 -.149E+04   -.118E+02 0.110E+02 0.150E+04   -.593E-01 0.276E+00 -.518E+01
   -.329E+01 -.295E+01 -.448E+03   0.323E+01 0.296E+01 0.448E+03   0.545E-01 -.324E-02 0.440E+00
   0.162E+01 0.129E+01 -.449E+03   -.163E+01 -.130E+01 0.449E+03   0.130E-01 0.103E-01 0.468E+00
   0.210E+02 -.221E+02 0.199E+02   -.306E-12 -.117E-12 0.455E-12   -.210E+02 0.221E+02 -.199E+02

 POSITION                                       TOTAL-FORCE (eV/Angst)
      3.53203      5.29293     16.98001        -0.001372     -0.005325     -0.003866
      3.52439      4.18518     16.07120         0.000250      0.003208      0.003072
      4.40934      5.18606     17.63216         0.006611     -0.003350     -0.001372
      2.70122      4.23761     15.47413         0.007183     -0.002248     -0.001044
      3.61136      6.25386     16.43966         0.006481     -0.004001     -0.001948
      2.62586      5.29499     17.60842         0.003336     -0.002338      0.007653
      2.11679      0.00000      7.50000         0.001174      0.000370      0.387075
      4.23357      2.11679      7.50000         0.000720      0.001739      0.396030
      2.11679      2.11679      9.61679         0.006586      0.020664      0.017694
      4.23357      0.00000      9.61679         0.008759     -0.003543      0.035832
      2.11903      0.00152     11.73828        -0.003679      0.001170     -0.008269
      4.23464      2.12585     11.75434         0.001145      0.003856     -0.006309
      2.11768      2.09234     13.83911        -0.006812      0.007100     -0.001671
      4.23778      0.00359     13.83394        -0.001009     -0.001026      0.001854
      2.11679      4.23357      7.50000         0.002333     -0.000294      0.394727
      4.23357      6.35036      7.50000         0.000809     -0.001734      0.397588
      2.11679      6.35036      9.61679         0.012463     -0.020593      0.014631
      4.23357      4.23357      9.61679        -0.005657      0.002299      0.053795
      2.12588      4.23185     11.75095        -0.000950      0.000633      0.005608
      4.23513      6.34059     11.75425         0.001766     -0.002304     -0.002125
      2.11148      6.37503     13.82291        -0.004639     -0.004095     -0.004292
      4.29736      4.22714     13.96560        -0.008071      0.002900      0.001912
      6.35036      0.00000      7.50000        -0.001110      0.000258      0.394062
      0.00000      2.11679      7.50000        -0.000701      0.000557      0.393565
      6.35036      2.11679      9.61679        -0.007226      0.003696      0.021696
      0.00000      0.00000      9.61679        -0.008924      0.003029      0.010273
      6.34800      0.00068     11.74001         0.000060     -0.000420     -0.003460
     -0.00139      2.11797     11.74460        -0.001438      0.001624     -0.003329
      6.34974      2.10680     13.84297         0.003769     -0.000819      0.001927
     -0.00489      0.00090     13.83982        -0.001803      0.001487      0.000099
      6.35036      4.23357      7.50000        -0.002276     -0.000186      0.392400
      0.00000      6.35036      7.50000        -0.000833     -0.000549      0.391448
      6.35036      6.35036      9.61679        -0.014249     -0.003966      0.017862
      0.00000      4.23357      9.61679         0.006680     -0.004202      0.039044
      6.34221      4.23253     11.74932         0.001855      0.000502     -0.001783
     -0.00244      6.34846     11.74257        -0.002825     -0.000076     -0.006337
      6.35314      6.35979     13.83789         0.000866      0.003269      0.001859
     -0.02373      4.23149     13.84045         0.005616      0.001846     -0.003613
      2.11679      0.00000      9.61679        -0.009982      0.000768      0.058350
      4.23357      2.11679      9.61679        -0.009182      0.022781      0.069709
      2.11679      2.11679      7.50000        -0.001980     -0.003309     -0.474993
      4.23357      0.00000      7.50000        -0.002276      0.000231     -0.476946
      2.11328     -0.00174     13.88661         0.003518      0.001044      0.001504
      4.23262      2.10252     13.86840         0.001556     -0.000744     -0.006623
      2.11336      2.12250     11.74193         0.003201     -0.003451      0.004493
      4.23163     -0.00213     11.73078         0.001713      0.001467      0.004386
      2.11679      4.23357      9.61679         0.013181     -0.000891      0.069016
      4.23357      6.35036      9.61679        -0.007751     -0.024509      0.063934
      2.11679      6.35036      7.50000        -0.003064      0.003379     -0.474462
      4.23357      4.23357      7.50000         0.000321     -0.000254     -0.479621
      2.06577      4.23586     13.94413         0.001845     -0.000389      0.000993
      4.23150      6.36451     13.88530         0.001463      0.000203     -0.004332
      2.11421      6.34431     11.74011         0.002792      0.004611      0.002351
      4.22908      4.23492     11.75988        -0.001636     -0.001061      0.000286
      6.35036      0.00000      9.61679         0.009289     -0.001557      0.038946
      0.00000      2.11679      9.61679         0.008858      0.000044      0.047129
      6.35036      2.11679      7.50000         0.002005     -0.000644     -0.477014
      0.00000      0.00000      7.50000         0.002300     -0.000814     -0.474268
      6.35214     -0.00123     13.88879         0.001723      0.001612     -0.004102
     -0.00097      2.11020     13.89121        -0.002635     -0.006863      0.001117
      6.35352      2.11755     11.73615        -0.002097     -0.003603      0.004718
      0.00151     -0.00081     11.73482        -0.001337      0.001077     -0.002223
      6.35036      4.23357      9.61679        -0.012697      0.001064      0.073561
      0.00000      6.35036      9.61679         0.006018     -0.001381      0.048457
      6.35036      6.35036      7.50000         0.003019      0.000697     -0.476696
      0.00000      4.23357      7.50000        -0.000252      0.000809     -0.475080
      6.36942      4.23496     13.89301        -0.003913     -0.001662     -0.000328
     -0.00082      6.35639     13.89045        -0.002502      0.007107      0.004113
      6.35217      6.34917     11.73660        -0.001521      0.004798      0.004240
      0.00429      4.23377     11.74013        -0.004861      0.000301     -0.002906
    total drift:                               -0.001653     -0.002381      0.021062

  FREE ENERGIE OF THE ION-ELECTRON SYSTEM (eV)
  free  energy   TOTEN  =      -406.51957882 eV

  energy  without entropy=     -406.51957882  energy(sigma->0) =     -406.51957882

 d Force = 0.2531113E-04[ 0.162E-04, 0.344E-04]  d Energy = 0.2659391E-04-0.128E-05
 d Force =-0.3835186E+01[-0.384E+01,-0.384E+01]  d Ewald  =-0.3835186E+01-0.615E-07

 reached required accuracy - stopping structural energy minimisation