 vasp.6.4.2 20Jul23 (build Feb 22 2024 13:53:45) complex
 executed on              LinuxNV date 2024.08.27  17:09:02
 OpenACC runtime initialized ...    4 GPUs detected

 INCAR:
   SYSTEM = Oxide-Surface
   ISMEAR = 0
   SIGMA = 0.05
   EDIFF = 1E-5
   ALGO = Normal
   IBRION = -1
   NSW = 0
   ISYM = 0
   DIPOL = 0.5 0.5 0.5
   IDIPOL = 3
   LDIPOL = .TRUE.
   ISTART = 1
   GGA = PE
   IVDW = 11
   ENCUT = 1000
   PREC = Normal
   PRECFOCK = Normal
   LASPH = .TRUE.
   LREAL = Auto
   ISPIN = 1
   NELM = 200
   NELMIN = 8
   NCORE = 1
   KPAR = 1
   LWAVE = .FALSE.
   LCHARG = .FALSE.

 POTCAR:    PAW_PBE C_h 06Feb2004
 POTCAR:    PAW_PBE O_h 06Feb2004
 POTCAR:    PAW_PBE Mg_sv 12Apr2007
 POTCAR:    PAW_PBE O_h 06Feb2004
 POTCAR:    PAW_PBE C_h 06Feb2004
   VRHFIN =C: s2p2

   TITEL  = PAW_PBE C_h 06Feb2004
   POMASS =   12.011; ZVAL   =    4.000    mass and valenz
   ENMAX  =  700.000; ENMIN  =  500.000 eV

[...]

   TITEL  = PAW_PBE Mg_sv 12Apr2007
   POMASS =   24.305; ZVAL   =   10.000    mass and valenz
   ENMAX  =  495.223; ENMIN  =  371.417 eV

   TITEL  = PAW_PBE O_h 06Feb2004
   POMASS =   16.000; ZVAL   =    6.000    mass and valenz
   ENMAX  =  700.000; ENMIN  =  500.000 eV

 Optimization of the real space projectors (new method)

 maximal supplied QI-value         = 34.20
 optimisation between [QCUT,QGAM] = [ 16.08, 32.15] = [ 72.37,289.48] Ry
 Optimized for a Real-space Cutoff    0.71 Angstroem

   l    n(q)    QCUT    max X(q) W(low)/X(q) W(high)/X(q)  e(spline)
   0      7    16.076   134.812    0.49E-03    0.92E-03    0.59E-07
   0      7    16.076    80.524    0.48E-03    0.91E-03    0.58E-07
   1      6    16.076    79.026    0.37E-03    0.58E-03    0.12E-06
   1      6    16.076    45.188    0.36E-03    0.56E-03    0.12E-06
 Optimization of the real space projectors (new method)

[...]

   l    n(q)    QCUT    max X(q) W(low)/X(q) W(high)/X(q)  e(spline)
   0      9    16.140     8.730    0.14E-04    0.12E-04    0.27E-07
   0      9    16.140     8.910    0.19E-04    0.17E-04    0.41E-07
   1      9    16.140     2.513    0.16E-04    0.28E-04    0.54E-07
   1      9    16.140     3.341    0.27E-04    0.13E-03    0.17E-06
   2      9    16.140     3.683    0.18E-03    0.21E-03    0.81E-07
 Optimization of the real space projectors (new method)

 maximal supplied QI-value         = 34.20
 optimisation between [QCUT,QGAM] = [ 16.08, 32.15] = [ 72.37,289.48] Ry
 Optimized for a Real-space Cutoff    0.71 Angstroem

   l    n(q)    QCUT    max X(q) W(low)/X(q) W(high)/X(q)  e(spline)
   0      7    16.076   280.207    0.42E-03    0.69E-03    0.60E-07
   0      7    16.076   228.978    0.42E-03    0.69E-03    0.61E-07
   1      6    16.076    86.127    0.11E-03    0.66E-03    0.10E-06
   1      6    16.076    65.368    0.11E-03    0.65E-03    0.10E-06
  PAW_PBE C_h 06Feb2004                 :
  PAW_PBE O_h 06Feb2004                 :
  PAW_PBE Mg_sv 12Apr2007               :
  PAW_PBE O_h 06Feb2004                 :

 POSCAR:  C  O Mg  O
  positions in direct lattice
 exchange correlation table for  LEXCH =        8
   RHO(1)=    0.500       N(1)  =     2000
   RHO(2)=  100.500       N(2)  =     4000

 ion  position               nearest neighbor table
   1  0.625  0.625  0.762-   3 1.18   2 1.18
   2  0.526  0.526  0.764-   1 1.18
   3  0.724  0.724  0.764-   1 1.18
   4  0.000  0.750  0.236-
   5  0.250  0.000  0.236-
   6  0.000  0.000  0.360-
   7  0.250  0.750  0.360-
   8  0.000  0.750  0.485-
   9  0.250  1.000  0.485-
  10  0.000  0.000  0.609-
  11  0.250  0.750  0.609-
  12  0.000  0.250  0.236-
  13  0.250  0.500  0.236-
  14  0.000  0.500  0.360-
  15  0.250  0.250  0.360-
  16  1.000  0.250  0.485-
  17  0.250  0.500  0.485-
  18  0.000  0.500  0.609-
  19  0.250  0.250  0.609-
  20  0.500  0.750  0.236-
  21  0.750  0.000  0.236-
  22  0.500  0.000  0.360-
  23  0.750  0.750  0.360-
  24  0.500  0.750  0.485-
  25  0.750  0.000  0.485-
  26  0.500  0.000  0.609-
  27  0.752  0.752  0.609-
  28  0.500  0.250  0.236-
  29  0.750  0.500  0.236-
  30  0.500  0.500  0.360-
  31  0.750  0.250  0.360-
  32  0.500  0.250  0.485-
  33  0.750  0.500  0.485-
  34  0.498  0.498  0.609-
  35  0.750  0.250  0.609-
  36  0.000  0.750  0.360-
  37  0.250  0.000  0.360-
  38  0.000  0.000  0.236-
  39  0.250  0.750  0.236-
  40  0.001  0.750  0.611-
  41  0.250  1.000  0.612-
  42  0.000  0.000  0.485-
  43  0.250  0.750  0.485-
  44  0.000  0.250  0.360-
  45  0.250  0.500  0.360-
  46  0.000  0.500  0.236-
  47  0.250  0.250  0.236-
  48  1.000  0.250  0.612-
  49  0.249  0.500  0.611-
  50  1.000  0.500  0.485-
  51  0.250  0.250  0.485-
  52  0.500  0.750  0.360-
  53  0.750  0.000  0.360-
  54  0.500  0.000  0.236-
  55  0.750  0.750  0.236-
  56  0.500  0.750  0.613-
  57  0.750  0.001  0.611-
  58  0.500  1.000  0.485-
  59  0.750  0.750  0.485-
  60  0.500  0.250  0.360-
  61  0.750  0.500  0.360-
  62  0.500  0.500  0.236-
  63  0.750  0.250  0.236-
  64  0.500  0.249  0.611-
  65  0.750  0.500  0.613-
  66  0.500  0.500  0.485-
  67  0.750  0.250  0.485-

IMPORTANT INFORMATION: All symmetrisations will be switched off!
NOSYMM: (Re-)initialisation of all symmetry stuff for point group C_1.

                                     Primitive cell

  volume of cell :    1211.2538

  direct lattice vectors                    reciprocal lattice vectors
     8.440984654  0.000000000  0.000000000     0.118469591  0.000000000  0.000000000
     0.000000000  8.440984654  0.000000000     0.000000000  0.118469591  0.000000000
     0.000000000  0.000000000 17.000000000     0.000000000  0.000000000  0.058823529

  length of vectors
     8.440984654  8.440984654 17.000000000     0.118469591  0.118469591  0.058823529

  position of ions in fractional coordinates (direct lattice)
     0.625033636  0.625033636  0.762419616
     0.526174150  0.526174133  0.764180546
     0.723885278  0.723885283  0.764179839
     0.000030738  0.750030735  0.235819454
     0.250030738  0.000030735  0.235819454
     0.000030738  0.000030735  0.359951582
     0.250030738  0.750030735  0.359951582
     0.000201210  0.750096264  0.484924403
     0.250092311  0.999969265  0.484937667
     0.000230924  0.000230921  0.608776447
     0.249858919  0.749819737  0.608667763
     0.000030738  0.250030735  0.235819454
     0.250030738  0.500030735  0.235819454
     0.000030738  0.500030735  0.359951582
     0.250030738  0.250030735  0.359951582
     0.999969262  0.250092302  0.484937664
     0.249860443  0.499965307  0.484924424
     0.000202696  0.500241874  0.608667759
     0.249830687  0.249830684  0.608776513
     0.500030738  0.750030735  0.235819454
     0.750030738  0.000030735  0.235819454
     0.500030738  0.000030735  0.359951582
     0.750030738  0.750030735  0.359951582
     0.500301088  0.749760405  0.485169396
     0.750096258  0.000201208  0.484924406
     0.500241885  0.000202690  0.608667756
     0.751949439  0.751949450  0.609119152
     0.500030738  0.250030735  0.235819454
     0.750030738  0.500030735  0.235819454
     0.500030738  0.500030735  0.359951582
     0.750030738  0.250030735  0.359951582
     0.499965312  0.249860434  0.484924423
     0.749760398  0.500301085  0.485169393
     0.498112182  0.498112177  0.609119267
     0.749819734  0.249858918  0.608667762
     0.000030738  0.750030735  0.359951582
     0.250030738  0.000030735  0.359951582
     0.000030738  0.000030735  0.235819454
     0.250030738  0.750030735  0.235819454
     0.000691699  0.750207572  0.610894536
     0.250199398  0.999862199  0.611557811
     0.000145627  0.000145627  0.484545221
     0.250434878  0.750012183  0.484600927
     0.000030738  0.250030735  0.359951582
     0.250030738  0.500030735  0.359951582
     0.000030738  0.500030735  0.235819454
     0.250030738  0.250030735  0.235819454
     0.999862202  0.250199394  0.611557812
     0.249369970  0.499854062  0.610894625
     0.999626681  0.500049381  0.484600930
     0.249915938  0.249915934  0.484545237
     0.500030738  0.750030735  0.359951582
     0.750030738  0.000030735  0.359951582
     0.500030738  0.000030735  0.235819454
     0.750030738  0.750030735  0.235819454
     0.500350929  0.749710577  0.612502175
     0.750207565  0.000691696  0.610894534
     0.500049381  0.999626692  0.484600929
     0.750001397  0.750001391  0.484806093
     0.500030738  0.250030735  0.359951582
     0.750030738  0.500030735  0.359951582
     0.500030738  0.500030735  0.235819454
     0.750030738  0.250030735  0.235819454
     0.499854065  0.249369967  0.610894620
     0.749710588  0.500350924  0.612502182
     0.500060181  0.500060179  0.484806128
     0.750012185  0.250434879  0.484600929

  ion indices of the primitive-cell ions
   primitive index   ion index
                 1           1
                 2           2
                 3           3
                 4           4
                 5           5
                 6           6
                 7           7
                 8           8
                 9           9
                10          10
                11          11
                12          12
                13          13
                14          14
                15          15
                16          16
                17          17
                18          18
                19          19
                20          20
                21          21
                22          22
                23          23
                24          24
                25          25
                26          26
                27          27
                28          28
                29          29
                30          30
                31          31
                32          32
                33          33
                34          34
                35          35
                36          36
                37          37
                38          38
                39          39
                40          40
                41          41
                42          42
                43          43
                44          44
                45          45
                46          46
                47          47
                48          48
                49          49
                50          50
                51          51
                52          52
                53          53
                54          54
                55          55
                56          56
                57          57
                58          58
                59          59
                60          60
                61          61
                62          62
                63          63
                64          64
                65          65
                66          66
                67          67

 KPOINTS: pymatgen v2020.8.13 with grid density =

Automatic generation of k-mesh.
 Grid dimensions read from file:
 generate k-points for:    2    2    1

 Generating k-lattice:

  Cartesian coordinates                     Fractional coordinates (reciprocal lattice)
     0.059234796  0.000000000  0.000000000     0.500000000  0.000000000  0.000000000
[...]
 alpha8   =   16.0000
 k1-k3    =   16.0000    1.3333   -4.0000
 VDW_RADIUS   =   50.2022 A
 VDW_CNRADIUS =   21.1671 A
 Edisp (eV)   -9.52670

 E6    (eV) :    -4.4158
 E8    (eV) :    -5.1109
 % E8        : 53.65

  FORCE on cell =-STRESS in cart. coord.  units (eV):
  Direction    XX          YY          ZZ          XY          YZ          ZX
  Alpha Z  1248.31882  1248.31882  1248.31882
  Ewald  105910.19249105910.19261************   387.37522    -0.00198    -0.00197
  Hartree122928.09178122928.09186************   175.03877    -0.00119    -0.00118
  E(xc)   -3300.68605 -3300.68605 -3307.41826     0.96681    -0.00000    -0.00000
  Local  ************************237614.41056  -527.98072     0.00289     0.00287
  n-local -5641.82773 -5641.82773 -5645.14571     3.35781     0.00083     0.00083
  augment   724.98819   724.98819   715.98505    -0.29485    -0.00025    -0.00025
  Kinetic 12906.73732 12906.73731 12959.55336   -39.10938     0.00021     0.00020
  Fock        0.00000     0.00000     0.00000     0.00000     0.00000     0.00000
  vdW       -12.15518   -12.15518    -7.70865     0.01455     0.00000     0.00000
  Total     -28.46468   -28.46468     0.26404    -0.63180     0.00050     0.00050
  in kB     -37.65145   -37.65146     0.34925    -0.83571     0.00067     0.00066

 VOLUME and BASIS-vectors are now :
  energy-cutoff  :     1000.00
  volume of cell :     1211.25
      direct lattice vectors                 reciprocal lattice vectors
     8.440984654  0.000000000  0.000000000     0.118469591  0.000000000  0.000000000
     0.000000000  8.440984654  0.000000000     0.000000000  0.118469591  0.000000000
     0.000000000  0.000000000 17.000000000     0.000000000  0.000000000  0.058823529

  length of vectors
     8.440984654  8.440984654 17.000000000     0.118469591  0.118469591  0.058823529

 FORCES acting on ions
    electron-ion (+dipol)            ewald-force                    non-local-force                 convergence-correction
   0.254E-01 0.253E-01 -.819E+03   -.282E-01 -.281E-01 0.819E+03   0.563E-02 0.563E-02 -.168E+00   0.694E-07 -.135E-05 -.192E-03
   0.189E+03 0.189E+03 -.124E+04   -.232E+03 -.232E+03 0.125E+04   0.429E+02 0.429E+02 -.267E+01   0.403E-04 0.415E-04 -.294E-03
   -.189E+03 -.189E+03 -.124E+04   0.232E+03 0.232E+03 0.125E+04   -.430E+02 -.430E+02 -.267E+01   -.411E-04 -.449E-04 -.295E-03
   -.919E+00 -.770E+00 0.244E+04   0.921E+00 0.773E+00 -.243E+04   -.154E-02 -.168E-02 -.914E+01   -.391E-05 0.118E-04 0.628E-03
   0.768E+00 -.768E+00 0.244E+04   -.770E+00 0.770E+00 -.243E+04   0.139E-02 -.133E-02 -.916E+01   0.554E-06 -.851E-06 0.626E-03
   -.127E+01 -.127E+01 0.848E+03   0.129E+01 0.129E+01 -.849E+03   -.200E-01 -.200E-01 0.665E+00   -.972E-05 0.464E-05 0.822E-03
   0.114E+01 -.130E+01 0.850E+03   -.109E+01 0.131E+01 -.850E+03   -.443E-01 -.165E-01 0.690E+00   0.385E-05 0.102E-04 0.816E-03
   -.802E+01 -.475E+01 -.729E+03   0.802E+01 0.475E+01 0.729E+03   0.287E-02 -.407E-02 -.550E+00   -.258E-04 0.107E-04 0.566E-03
   0.459E+01 -.459E+01 -.744E+03   -.460E+01 0.460E+01 0.744E+03   0.462E-02 -.399E-02 -.253E+00   -.384E-05 0.130E-04 0.597E-03
   -.245E+02 -.245E+02 -.234E+04   0.245E+02 0.245E+02 0.233E+04   -.126E-01 -.126E-01 0.782E+01   -.285E-06 0.570E-05 0.836E-03
   0.312E+02 -.264E+02 -.231E+04   -.315E+02 0.264E+02 0.231E+04   0.336E+00 -.282E-02 0.781E+01   0.133E-04 -.181E-05 0.855E-03
   -.768E+00 0.768E+00 0.244E+04   0.770E+00 -.770E+00 -.243E+04   -.132E-02 0.138E-02 -.916E+01   -.508E-05 -.551E-06 0.630E-03
   0.919E+00 0.770E+00 0.244E+04   -.921E+00 -.773E+00 -.243E+04   0.160E-02 0.174E-02 -.914E+01   -.275E-05 -.105E-04 0.620E-03
   -.114E+01 0.130E+01 0.850E+03   0.109E+01 -.131E+01 -.850E+03   0.433E-01 0.154E-01 0.690E+00   -.155E-04 -.763E-05 0.816E-03
   0.127E+01 0.127E+01 0.848E+03   -.129E+01 -.129E+01 -.849E+03   0.189E-01 0.189E-01 0.666E+00   -.168E-05 -.114E-06 0.822E-03
   -.459E+01 0.459E+01 -.744E+03   0.460E+01 -.460E+01 0.744E+03   -.399E-02 0.463E-02 -.253E+00   0.307E-05 -.195E-04 0.582E-03
   0.802E+01 0.475E+01 -.729E+03   -.802E+01 -.475E+01 0.729E+03   -.499E-02 0.488E-02 -.550E+00   0.265E-04 -.862E-05 0.573E-03
   -.312E+02 0.264E+02 -.231E+04   0.315E+02 -.264E+02 0.231E+04   -.338E+00 0.965E-03 0.781E+01   -.803E-05 0.755E-05 0.873E-03
   0.245E+02 0.245E+02 -.234E+04   -.245E+02 -.245E+02 0.233E+04   0.111E-01 0.111E-01 0.782E+01   0.588E-05 -.626E-05 0.843E-03
   0.930E+00 -.930E+00 0.244E+04   -.930E+00 0.930E+00 -.243E+04   0.372E-03 -.316E-03 -.917E+01   -.660E-05 0.135E-04 0.630E-03
   -.770E+00 -.919E+00 0.244E+04   0.773E+00 0.921E+00 -.243E+04   -.168E-02 -.155E-02 -.914E+01   0.965E-05 0.342E-05 0.630E-03
   0.130E+01 -.114E+01 0.850E+03   -.131E+01 0.109E+01 -.850E+03   0.154E-01 0.433E-01 0.690E+00   -.267E-06 -.221E-05 0.814E-03
   -.123E+01 -.123E+01 0.852E+03   0.120E+01 0.120E+01 -.852E+03   0.236E-01 0.236E-01 0.765E+00   0.220E-05 -.153E-05 0.808E-03
   0.816E+01 -.816E+01 -.722E+03   -.815E+01 0.815E+01 0.722E+03   -.193E-01 0.168E-01 0.344E-01   0.270E-04 -.179E-04 0.556E-03
   -.475E+01 -.802E+01 -.729E+03   0.475E+01 0.802E+01 0.729E+03   -.407E-02 0.286E-02 -.550E+00   0.291E-05 -.155E-04 0.578E-03
   0.264E+02 -.312E+02 -.231E+04   -.264E+02 0.315E+02 0.231E+04   0.960E-03 -.338E+00 0.781E+01   0.103E-04 -.159E-05 0.837E-03
   -.424E+02 -.424E+02 -.219E+04   0.429E+02 0.429E+02 0.218E+04   -.582E+00 -.582E+00 0.745E+01   -.243E-04 -.141E-04 0.746E-03
   0.770E+00 0.919E+00 0.244E+04   -.773E+00 -.921E+00 -.243E+04   0.173E-02 0.160E-02 -.914E+01   -.288E-05 -.569E-05 0.628E-03
   -.930E+00 0.930E+00 0.244E+04   0.930E+00 -.930E+00 -.243E+04   -.310E-03 0.372E-03 -.917E+01   0.958E-05 -.870E-05 0.633E-03
   0.123E+01 0.123E+01 0.852E+03   -.120E+01 -.120E+01 -.852E+03   -.247E-01 -.247E-01 0.764E+00   0.111E-04 -.400E-05 0.804E-03
   -.130E+01 0.114E+01 0.850E+03   0.131E+01 -.109E+01 -.850E+03   -.165E-01 -.443E-01 0.690E+00   0.692E-05 0.220E-05 0.817E-03
   0.475E+01 0.802E+01 -.729E+03   -.475E+01 -.802E+01 0.729E+03   0.488E-02 -.499E-02 -.550E+00   -.221E-05 0.134E-04 0.579E-03
   -.816E+01 0.816E+01 -.722E+03   0.815E+01 -.815E+01 0.722E+03   0.168E-01 -.193E-01 0.344E-01   -.299E-04 0.233E-04 0.544E-03
   0.424E+02 0.424E+02 -.219E+04   -.429E+02 -.429E+02 0.218E+04   0.585E+00 0.585E+00 0.745E+01   0.166E-04 0.191E-04 0.747E-03
   -.264E+02 0.312E+02 -.231E+04   0.264E+02 -.315E+02 0.231E+04   -.281E-02 0.336E+00 0.781E+01   -.130E-04 -.302E-05 0.847E-03
   -.781E+00 -.638E+00 0.509E+03   0.773E+00 0.635E+00 -.509E+03   0.887E-02 0.264E-02 -.496E-01   -.639E-05 0.342E-06 0.719E-03
   0.642E+00 -.642E+00 0.508E+03   -.648E+00 0.648E+00 -.508E+03   0.744E-02 -.834E-02 -.956E-01   0.430E-05 -.153E-05 0.712E-03
   -.494E+00 -.494E+00 0.148E+04   0.498E+00 0.498E+00 -.148E+04   -.306E-02 -.306E-02 0.263E+01   -.156E-05 0.475E-06 0.537E-03
   0.518E+00 -.495E+00 0.148E+04   -.516E+00 0.499E+00 -.148E+04   -.325E-02 -.560E-02 0.263E+01   -.216E-05 0.123E-04 0.534E-03
   -.292E+02 -.109E+02 -.141E+04   0.293E+02 0.109E+02 0.142E+04   -.392E-01 0.205E-01 -.472E+01   -.544E-04 0.131E-04 0.638E-03
   0.970E+01 -.970E+01 -.144E+04   -.967E+01 0.967E+01 0.144E+04   -.403E-01 0.412E-01 -.462E+01   -.107E-04 0.125E-04 0.600E-03
   -.373E+01 -.373E+01 -.439E+03   0.372E+01 0.372E+01 0.439E+03   0.145E-01 0.145E-01 0.243E+00   0.447E-06 0.890E-05 0.527E-03
   0.348E+01 -.386E+01 -.434E+03   -.349E+01 0.385E+01 0.433E+03   0.144E-01 0.108E-01 0.313E+00   0.120E-04 0.701E-05 0.515E-03
   -.642E+00 0.642E+00 0.508E+03   0.648E+00 -.648E+00 -.508E+03   -.834E-02 0.745E-02 -.956E-01   -.919E-05 0.267E-05 0.715E-03
   0.781E+00 0.638E+00 0.509E+03   -.773E+00 -.635E+00 -.509E+03   -.976E-02 -.354E-02 -.496E-01   -.221E-06 -.484E-05 0.720E-03
   -.518E+00 0.495E+00 0.148E+04   0.516E+00 -.499E+00 -.148E+04   0.438E-02 0.673E-02 0.263E+01   -.449E-05 -.634E-05 0.537E-03
   0.494E+00 0.494E+00 0.148E+04   -.498E+00 -.498E+00 -.148E+04   0.418E-02 0.419E-02 0.264E+01   -.114E-06 -.470E-05 0.530E-03
   -.970E+01 0.970E+01 -.144E+04   0.967E+01 -.967E+01 0.144E+04   0.412E-01 -.403E-01 -.462E+01   0.106E-04 -.190E-04 0.611E-03
   0.292E+02 0.109E+02 -.141E+04   -.293E+02 -.109E+02 0.142E+04   0.416E-01 -.203E-01 -.472E+01   0.555E-04 -.847E-05 0.642E-03
   -.348E+01 0.386E+01 -.434E+03   0.349E+01 -.385E+01 0.433E+03   -.156E-01 -.993E-02 0.302E+00   -.156E-04 -.203E-05 0.506E-03
   0.373E+01 0.373E+01 -.439E+03   -.372E+01 -.372E+01 0.439E+03   -.152E-01 -.152E-01 0.254E+00   -.241E-05 -.103E-04 0.531E-03
   0.880E+00 -.880E+00 0.510E+03   -.909E+00 0.909E+00 -.510E+03   0.356E-01 -.365E-01 -.122E+00   -.334E-06 0.748E-05 0.723E-03
   -.638E+00 -.781E+00 0.509E+03   0.635E+00 0.773E+00 -.509E+03   0.264E-02 0.887E-02 -.496E-01   0.224E-05 0.277E-05 0.719E-03
   0.495E+00 -.518E+00 0.148E+04   -.499E+00 0.516E+00 -.148E+04   0.672E-02 0.438E-02 0.263E+01   -.400E-05 0.399E-05 0.540E-03
   -.525E+00 -.525E+00 0.148E+04   0.521E+00 0.521E+00 -.148E+04   0.429E-02 0.429E-02 0.263E+01   0.893E-05 0.804E-05 0.541E-03
   0.355E+02 -.355E+02 -.136E+04   -.354E+02 0.354E+02 0.137E+04   -.113E+00 0.115E+00 -.430E+01   0.646E-04 -.589E-04 0.610E-03
   -.109E+02 -.292E+02 -.141E+04   0.109E+02 0.293E+02 0.142E+04   0.205E-01 -.392E-01 -.472E+01   0.561E-05 -.512E-04 0.622E-03
   0.386E+01 -.348E+01 -.434E+03   -.385E+01 0.349E+01 0.433E+03   -.993E-02 -.156E-01 0.302E+00   0.892E-06 -.967E-05 0.518E-03
   -.368E+01 -.368E+01 -.424E+03   0.372E+01 0.372E+01 0.424E+03   -.359E-01 -.359E-01 0.277E+00   -.111E-04 -.592E-05 0.559E-03
   0.638E+00 0.781E+00 0.509E+03   -.636E+00 -.773E+00 -.509E+03   -.354E-02 -.976E-02 -.496E-01   0.459E-05 -.661E-06 0.721E-03
   -.880E+00 0.880E+00 0.510E+03   0.909E+00 -.909E+00 -.510E+03   -.365E-01 0.356E-01 -.122E+00   0.597E-05 -.706E-05 0.721E-03
   0.525E+00 0.525E+00 0.148E+04   -.521E+00 -.521E+00 -.148E+04   -.316E-02 -.316E-02 0.262E+01   -.858E-06 -.107E-04 0.536E-03
   -.495E+00 0.518E+00 0.148E+04   0.499E+00 -.516E+00 -.148E+04   -.559E-02 -.325E-02 0.263E+01   0.469E-05 -.228E-05 0.543E-03
   0.109E+02 0.292E+02 -.141E+04   -.109E+02 -.293E+02 0.142E+04   -.203E-01 0.416E-01 -.472E+01   -.782E-05 0.460E-04 0.622E-03
   -.355E+02 0.355E+02 -.136E+04   0.354E+02 -.354E+02 0.137E+04   0.115E+00 -.113E+00 -.430E+01   -.636E-04 0.649E-04 0.624E-03
   0.368E+01 0.368E+01 -.424E+03   -.372E+01 -.372E+01 0.424E+03   0.372E-01 0.372E-01 0.275E+00   0.148E-04 0.107E-04 0.563E-03
   -.386E+01 0.348E+01 -.434E+03   0.385E+01 -.349E+01 0.433E+03   0.108E-01 0.144E-01 0.313E+00   0.244E-05 0.419E-05 0.511E-03
   0.407E-02 0.407E-02 0.280E+02   0.639E-12 -.135E-12 -.273E-11   -.372E-02 -.374E-02 -.280E+02   -.444E-05 0.567E-05 0.412E-01

 POSITION                                       TOTAL-FORCE (eV/Angst)
      5.27590      5.27590     12.96113         0.002831      0.002831      0.081462
      4.44143      4.44143     12.99107         0.585547      0.585548     -0.004905
      6.11030      6.11030     12.99106        -0.584421     -0.584421     -0.001446
      0.00026      6.33100      4.00893         0.000638      0.000513      0.385046
      2.11051      0.00026      4.00893        -0.000358      0.000499      0.387884
      0.00026      0.00026      6.11918         0.005525      0.005522      0.090869
      2.11051      6.33100      6.11918         0.012120      0.002444      0.097717
      0.00170      6.33155      8.24371        -0.004072      0.000322     -0.009460
      2.11103      8.44073      8.24394        -0.000408      0.001126     -0.012327
      0.00195      0.00195     10.34920        -0.000784     -0.000785     -0.051969
      2.10906      6.32922     10.34735        -0.007606      0.003331     -0.052504
      0.00026      2.11051      4.00893         0.000500     -0.000359      0.387884
      2.11051      4.22075      4.00893        -0.000494     -0.000377      0.385049
      0.00026      4.22075      6.11918        -0.013200     -0.003526      0.093775
      2.11051      2.11051      6.11918        -0.006603     -0.006605      0.094825
      8.44073      2.11103      8.24394         0.001126     -0.000408     -0.012326
      2.10907      4.22020      8.24372         0.001974      0.000499     -0.009166
      0.00171      4.22253     10.34735         0.006015     -0.005272     -0.050884
      2.10882      2.10882     10.34920        -0.000467     -0.000463     -0.051397
      4.22075      6.33100      4.00893        -0.000093      0.000227      0.391444
      6.33100      0.00026      4.00893         0.000517      0.000634      0.385042
      4.22075      0.00026      6.11918        -0.003526     -0.013203      0.093778
      6.33100      6.33100      6.11918        -0.006242     -0.006240      0.101231
      4.22303      6.32872      8.24788        -0.003711      0.001177     -0.008427
      6.33155      0.00170      8.24371         0.000324     -0.004071     -0.009465
      4.22253      0.00171     10.34735        -0.005273      0.006016     -0.050886
      6.34719      6.34719     10.35503         0.010167      0.010165     -0.053745
      4.22075      2.11051      4.00893        -0.000379     -0.000493      0.385043
      6.33100      4.22075      4.00893         0.000230     -0.000091      0.391440
      4.22075      4.22075      6.11918         0.005166      0.005170      0.097307
      6.33100      2.11051      6.11918         0.002444      0.012120      0.097722
      4.22020      2.10907      8.24372         0.000498      0.001977     -0.009169
      6.32872      4.22303      8.24788         0.001175     -0.003708     -0.008423
      4.20456      4.20456     10.35503        -0.008842     -0.008843     -0.054489
      6.32922      2.10906     10.34735         0.003333     -0.007603     -0.052506
      0.00026      6.33100      6.11918         0.000984     -0.000050      0.075577
      2.11051      0.00026      6.11918         0.001454     -0.002357      0.064567
      0.00026      0.00026      4.00893         0.000521      0.000521     -0.520805
      2.11051      6.33100      4.00893        -0.001135     -0.001637     -0.513025
      0.00584      6.33249     10.38521         0.007704      0.001159      0.022746
      2.11193      8.43982     10.39648        -0.001206      0.002126      0.021108
      0.00123      0.00123      8.23727         0.000812      0.000812     -0.005110
      2.11392      6.33084      8.23822         0.001796      0.001513      0.002951
      0.00026      2.11051      6.11918        -0.002356      0.001452      0.064571
      2.11051      4.22075      6.11918        -0.001885     -0.000851      0.075579
      0.00026      4.22075      4.00893         0.002240      0.002743     -0.522037
      2.11051      2.11051      4.00893         0.000582      0.000584     -0.511790
      8.43982      2.11193     10.39648         0.002126     -0.001205      0.021106
      2.10493      4.21926     10.38521        -0.005455     -0.000942      0.022462
      8.43783      4.22091      8.23822        -0.002363     -0.000626     -0.006734
      2.10954      2.10954      8.23727        -0.001736     -0.001735      0.004971
      4.22075      6.33100      6.11918         0.007420     -0.008328      0.073096
      6.33100      0.00026      6.11918        -0.000053      0.000983      0.075578
      4.22075      0.00026      4.00893         0.002743      0.002240     -0.522038
      6.33100      6.33100      4.00893         0.000677      0.000676     -0.514468
      4.22345      6.32830     10.41254        -0.017799      0.019294     -0.004691
      6.33249      0.00584     10.38521         0.001159      0.007705      0.022749
      4.22091      8.43783      8.23822        -0.000625     -0.002365     -0.006738
      6.33075      6.33075      8.24170        -0.001615     -0.001616      0.002457
      4.22075      2.11051      6.11918        -0.000851     -0.001886      0.075578
      6.33100      4.22075      6.11918        -0.008329      0.007419      0.073099
      4.22075      4.22075      4.00893         0.000428      0.000428     -0.523476
      6.33100      2.11051      4.00893        -0.001637     -0.001135     -0.513026
      4.21926      2.10493     10.38521        -0.000942     -0.005455      0.022462
      6.32830      4.22345     10.41254         0.019292     -0.017799     -0.004692
      4.22100      4.22100      8.24170         0.002887      0.002885      0.000999
      6.33084      2.11392      8.23822         0.001514      0.001796      0.002952
    total drift:                                0.000344      0.000334      0.008995

  FREE ENERGIE OF THE ION-ELECTRON SYSTEM (eV)
  free  energy   TOTEN  =      -405.47428864 eV

  energy  without entropy=     -405.47428864  energy(sigma->0) =     -405.47428864