 vasp.6.3.0 20Jan22 (build Apr  1 2022 16:44:48) gamma-only
 executed on        HPECrayEX_GCC date 2023.02.22  03:53:24

 INCAR:
   SYSTEM = MgO-rocksalt
   ISMEAR = 0
   SIGMA = 0.05
   EDIFF = 1E-6
   ALGO = ALL
   ISTART = 0
   IBRION = -1
   NSW = 0
   ISYM = 0
   DIPOL = 0.5 0.5 0.5
   IDIPOL = 3
   LDIPOL = .TRUE.
   GGA = RE
   AGGAC = 0.0
   LUSE_VDW = .TRUE.
   LASPH = .TRUE.
   ENCUT = 520
   PREC = Accurate
   LASPH = .TRUE.
   LREAL = Auto
   ISPIN = 1
   NELM = 200
   NELMIN = 8
   NCORE = 8
   KPAR = 1
   LWAVE = .FALSE.
   LCHARG = .FALSE.

 POTCAR:    PAW_PBE Mg_pv 13Apr2007
 POTCAR:    PAW_PBE O 08Apr2002
|               ----> ADVICE to this user running VASP <----                  |
|     You have switched on vdW-DFT.                                           |
|     This routine was written and supplied by Jiri Klimes. We recommend      |
|     that you carefully read and cite the following publications:            |
|       J. Klimes, D.R. Bowler, A. Michelides                                 |
|          J. Phys.: Cond Matt. 22 022201 (2010)                              |
|       J. Klimes, D.R. Bowler, A. Michelides                                 |
|          Phys. Rev. B. 83, 195131 (2011)                                    |
|     and references therein.                                                 |

   TITEL  = PAW_PBE Mg_pv 13Apr2007
   POMASS =   24.305; ZVAL   =    8.000    mass and valenz
   ENMAX  =  403.929; ENMIN  =  302.947 eV

   TITEL  = PAW_PBE O 08Apr2002
   POMASS =   16.000; ZVAL   =    6.000    mass and valenz
   ENMAX  =  400.000; ENMIN  =  300.000 eV

 Optimization of the real space projectors (new method)

 maximal supplied QI-value         = 18.90
 optimisation between [QCUT,QGAM] = [ 11.53, 23.24] = [ 37.21,151.29] Ry
 Optimized for a Real-space Cutoff    1.28 Angstroem

   l    n(q)    QCUT    max X(q) W(low)/X(q) W(high)/X(q)  e(spline)
   1      8    11.527     2.974    0.44E-04    0.56E-04    0.12E-06
   1      8    11.527     4.279    0.12E-03    0.12E-03    0.26E-06
   0      9    11.527    16.381    0.46E-04    0.64E-04    0.78E-07
   0      9    11.527     5.611    0.26E-04    0.43E-04    0.55E-07
   2      8    11.527     4.652    0.22E-03    0.72E-04    0.47E-07
 Optimization of the real space projectors (new method)

 maximal supplied QI-value         = 24.76
 optimisation between [QCUT,QGAM] = [ 11.64, 23.27] = [ 37.91,151.63] Ry
 Optimized for a Real-space Cutoff    1.14 Angstroem

   l    n(q)    QCUT    max X(q) W(low)/X(q) W(high)/X(q)  e(spline)
   0      8    11.635    20.381    0.10E-03    0.33E-03    0.24E-06
   0      8    11.635    15.268    0.11E-03    0.35E-03    0.26E-06
   1      7    11.635     5.964    0.24E-03    0.31E-03    0.30E-06
   1      7    11.635     5.382    0.22E-03    0.25E-03    0.26E-06
|               ----> ADVICE to this user running VASP <----                  |
|     You enforced a specific xc type in the INCAR file but a different       |
|     type was found in the POTCAR file.                                      |
|     I HOPE YOU KNOW WHAT YOU ARE DOING!                                     |

  PAW_PBE Mg_pv 13Apr2007               :
  PAW_PBE O 08Apr2002                   :

 POSCAR: Mg  O
  positions in direct lattice
 exchange correlation table for  LEXCH =       40
   RHO(1)=    0.500       N(1)  =     2000
   RHO(2)=  100.500       N(2)  =     4000

 ion  position               nearest neighbor table
   1  0.125  0.000  0.352- 129 2.11 131 2.11 132 2.11 148 2.11 171 2.11
   2  0.250  0.125  0.352- 130 2.11 131 2.11 132 2.11 140 2.11 147 2.11
   3  0.125  0.125  0.451- 135 2.11 131 2.11 129 2.11 130 2.11 137 2.11 146 2.11
   4  0.250  0.000  0.451- 136 2.11 132 2.11 129 2.11 130 2.11 145 2.11 170 2.11
   5  0.125  1.000  0.550- 152 2.11 175 2.11 135 2.11 136 2.11 129 2.11 133 2.14
   6  0.250  0.125  0.550- 144 2.11 151 2.11 135 2.11 136 2.11 130 2.11 134 2.14
   7  0.125  0.125  0.648- 135 2.10 134 2.10 150 2.11 141 2.11 133 2.11
   8  0.250  1.000  0.648- 136 2.10 134 2.10 174 2.11 149 2.11 133 2.11
   9  0.125  0.250  0.352- 137 2.11 131 2.11 139 2.11 140 2.11 156 2.11
  10  0.250  0.375  0.352- 138 2.11 139 2.11 140 2.11 155 2.11 164 2.11
  11  0.125  0.375  0.451- 139 2.11 138 2.11 137 2.11 154 2.11 161 2.11 143 2.11
  12  0.250  0.250  0.451- 144 2.11 140 2.11 138 2.11 130 2.11 137 2.11 153 2.11
  13  0.125  0.250  0.550- 144 2.10 160 2.11 143 2.11 135 2.11 137 2.11 141 2.14
  14  0.250  0.375  0.550- 159 2.09 144 2.11 168 2.11 143 2.12 138 2.12 142 2.15
  15  0.125  0.375  0.648- 143 2.09 142 2.10 158 2.11 141 2.11 165 2.11
  16  0.250  0.250  0.647- 144 2.09 157 2.09 141 2.11 134 2.11 142 2.12
  17  0.375  0.000  0.352- 145 2.11 132 2.11 147 2.11 187 2.11 212 2.11
  18  0.000  0.125  0.352- 146 2.11 131 2.11 148 2.11 156 2.11 211 2.11
  19  0.375  0.125  0.451- 151 2.11 147 2.11 130 2.11 145 2.11 153 2.11 210 2.11
  20  0.000  0.000  0.451- 148 2.11 146 2.11 129 2.11 186 2.11 209 2.11 152 2.11
  21  0.375  1.000  0.550- 151 2.10 191 2.11 216 2.11 136 2.11 145 2.11 149 2.14
  22  0.000  0.125  0.550- 135 2.11 215 2.11 152 2.11 160 2.11 146 2.11 150 2.14
  23  0.375  0.125  0.647- 151 2.08 157 2.09 149 2.11 134 2.11 214 2.12
  24  0.000  1.000  0.648- 152 2.10 133 2.11 213 2.11 190 2.11 150 2.11
  25  0.375  0.250  0.352- 153 2.11 147 2.11 140 2.11 155 2.11 220 2.11
  26  0.000  0.375  0.352- 154 2.11 139 2.11 156 2.11 180 2.11 219 2.11
  27  0.375  0.375  0.451- 155 2.11 153 2.11 138 2.11 177 2.11 218 2.11 159 2.12
  28  0.000  0.250  0.451- 156 2.11 146 2.11 154 2.11 137 2.11 217 2.11 160 2.11
  29  0.375  0.250  0.550- 159 2.10 224 2.10 157 2.11 151 2.12 144 2.12 153 2.13
  30  0.000  0.375  0.550- 143 2.11 223 2.11 184 2.11 160 2.11 154 2.12 158 2.14
  31  0.375  0.375  0.651- 222 2.11 157 2.13 142 2.13 181 2.14 159 2.15
  32  0.000  0.250  0.648- 160 2.10 141 2.11 221 2.11 150 2.11 158 2.11
  33  0.125  0.500  0.352- 161 2.11 139 2.11 163 2.11 164 2.11 180 2.11
  34  0.250  0.625  0.352- 162 2.11 163 2.11 164 2.11 172 2.11 179 2.11
  35  0.125  0.625  0.451- 167 2.11 163 2.11 161 2.11 162 2.11 169 2.11 178 2.11
  36  0.250  0.500  0.451- 168 2.11 164 2.11 162 2.11 138 2.11 161 2.11 177 2.11
  37  0.125  0.500  0.550- 168 2.10 184 2.11 143 2.11 167 2.11 161 2.11 165 2.14
  38  0.250  0.625  0.550- 183 2.11 168 2.11 176 2.11 162 2.11 167 2.11 166 2.14
  39  0.125  0.625  0.648- 167 2.10 166 2.10 182 2.11 165 2.11 173 2.11
  40  0.250  0.500  0.647- 168 2.08 181 2.09 165 2.11 166 2.11 142 2.12
  41  0.125  0.750  0.352- 169 2.11 163 2.11 171 2.11 172 2.11 188 2.11
  42  0.250  0.875  0.352- 170 2.11 132 2.11 171 2.11 172 2.11 187 2.11
  43  0.125  0.875  0.451- 175 2.11 171 2.11 170 2.11 129 2.11 169 2.11 186 2.11
  44  0.250  0.750  0.451- 176 2.11 172 2.11 170 2.11 162 2.11 169 2.11 185 2.11
  45  0.125  0.750  0.550- 175 2.11 192 2.11 167 2.11 176 2.11 169 2.11 173 2.14
  46  0.250  0.875  0.550- 176 2.11 136 2.11 175 2.11 191 2.11 170 2.11 174 2.14
  47  0.125  0.875  0.648- 175 2.10 133 2.11 173 2.11 190 2.11 174 2.11
  48  0.250  0.750  0.648- 176 2.10 166 2.10 174 2.11 189 2.11 173 2.11
  49  0.375  0.500  0.352- 177 2.11 164 2.11 155 2.11 179 2.11 244 2.11
  50  0.000  0.625  0.352- 178 2.11 163 2.11 180 2.11 188 2.11 243 2.11
  51  0.375  0.625  0.451- 183 2.11 179 2.11 162 2.11 177 2.11 185 2.11 242 2.11
  52  0.000  0.500  0.451- 180 2.11 161 2.11 178 2.11 154 2.11 241 2.11 184 2.11
  53  0.375  0.500  0.550- 159 2.10 248 2.10 181 2.11 168 2.12 183 2.12 177 2.13
  54  1.000  0.625  0.550- 247 2.11 167 2.11 192 2.11 184 2.11 178 2.11 182 2.14
  55  0.375  0.625  0.647- 183 2.09 181 2.09 189 2.11 166 2.11 246 2.12
  56  0.000  0.500  0.648- 184 2.10 245 2.11 165 2.11 182 2.11 158 2.11
  57  0.375  0.750  0.352- 185 2.11 179 2.11 172 2.11 187 2.11 252 2.11
  58  0.000  0.875  0.352- 186 2.11 171 2.11 148 2.11 188 2.11 251 2.11
  59  0.375  0.875  0.451- 187 2.11 170 2.11 185 2.11 145 2.11 250 2.11 191 2.11
  60  0.000  0.750  0.451- 188 2.11 178 2.11 186 2.11 169 2.11 249 2.11 192 2.11
[...]
 242  0.500  0.625  0.451- 114 2.11  99 2.11  51 2.11 116 2.11 124 2.11 118 2.12
 243  0.875  0.625  0.352- 115 2.11  98 2.11 113 2.11  50 2.11 121 2.11
 244  0.500  0.500  0.352- 116 2.11  90 2.11  97 2.11 114 2.11  49 2.11
 245  0.875  0.500  0.650-  56 2.11 119 2.11 104 2.11  95 2.11 117 2.14
 246  0.500  0.626  0.651- 128 2.10 103 2.12  55 2.12 120 2.14 118 2.16
 247  0.875  0.625  0.549- 119 2.10  54 2.11 115 2.11 125 2.11 102 2.11 117 2.11
 248  0.500  0.501  0.550- 118 2.09  53 2.10 101 2.10 116 2.12  94 2.12 120 2.14
 249  0.875  0.750  0.451- 121 2.11 108 2.11 115 2.11  60 2.11 123 2.11 125 2.11
 250  0.500  0.875  0.451- 122 2.11  84 2.11 107 2.11  59 2.11 124 2.11 126 2.12
 251  0.875  0.875  0.352- 123 2.11  81 2.11 106 2.11 121 2.11  58 2.11
 252  0.500  0.750  0.352- 124 2.11 105 2.11 114 2.11 122 2.11  57 2.11
 253  0.875  0.750  0.650-  64 2.11 127 2.11 112 2.11 119 2.11 125 2.14
 254  0.500  0.875  0.650- 128 2.11  88 2.11  63 2.11 111 2.11 126 2.14
 255  0.875  0.875  0.549- 127 2.10  85 2.11  62 2.11 125 2.11 123 2.11 110 2.11
 256  0.500  0.750  0.550- 128 2.09 126 2.11 109 2.11  61 2.11 124 2.11 118 2.12

IMPORTANT INFORMATION: All symmetrisations will be switched off!
NOSYMM: (Re-)initialisation of all symmetry stuff for point group C_1.

                                     Primitive cell

  volume of cell :    6078.6138

  direct lattice vectors                    reciprocal lattice vectors
    16.881164524  0.000000000  0.000000000     0.059237619  0.000000000  0.000000000
     0.000000000 16.881164524  0.000000000     0.000000000  0.059237619  0.000000000
     0.000000000  0.000000000 21.330436697     0.000000000  0.000000000  0.046881366

  length of vectors
    16.881164524 16.881164524 21.330436697     0.059237619  0.059237619  0.046881366

  position of ions in fractional coordinates (direct lattice)
     0.125000000  0.000000000  0.351610242
     0.250000000  0.125000000  0.351610242
     0.125000000  0.125000000  0.450536747
     0.250000000  0.000000000  0.450536747
     0.124943395  0.999932730  0.549682781
     0.249940047  0.124981930  0.549559326
     0.124909329  0.124819445  0.647725645
     0.249826340  0.999885417  0.647710752
     0.125000000  0.250000000  0.351610242
     0.250000000  0.375000000  0.351610242
     0.125000000  0.375000000  0.450536747
     0.250000000  0.250000000  0.450536747
     0.124975963  0.250008431  0.549645673
     0.250385847  0.374956210  0.549913777
     0.124839384  0.374999508  0.647738270
     0.249861640  0.249645525  0.647291492
     0.375000000  0.000000000  0.351610242
     0.000000000  0.125000000  0.351610242
     0.375000000  0.125000000  0.450536747
     0.000000000  0.000000000  0.450536747
     0.375023842  0.999948640  0.549611160
     0.000009066  0.124936412  0.549668638
     0.374642766  0.124841517  0.647004938
     0.000012448  0.999904702  0.647819373
     0.375000000  0.250000000  0.351610242
     0.000000000  0.375000000  0.351610242
     0.375000000  0.375000000  0.450536747
     0.000000000  0.250000000  0.450536747
     0.375462919  0.250385952  0.550264382
[...]
   6.33655795  8.43260421 11.73580994
  16.88107034 10.55172469 11.72459987
   6.32382927 10.55317496 13.80596940
   0.00006983  8.44320195 13.81765336
   6.33043670 12.66087339  7.50000000
   0.00000000 14.77101896  7.50000000
   6.33043670 14.77101896  9.61014557
   0.00000000 12.66087339  9.61014557
[...]
   8.44058226 10.55072783  9.61014557
  14.77101896 10.55072783  7.50000000
   8.44058226  8.44058226  7.50000000
  14.77453428  8.44447902 13.86358673
   8.44180142 10.56843834 13.88661339
  14.77330937 10.55259271 11.71943057
   8.43968798  8.44947287 11.72827126
  14.77101896 12.66087339  9.61014557
   8.44058226 14.77101896  9.61014557
  14.77101896 14.77101896  7.50000000
   8.44058226 12.66087339  7.50000000
  14.77398816 12.66396229 13.86210204
   8.44073771 14.77050308 13.86588169
  14.77208137 14.77127304 11.71999142
   8.44073067 12.66192073 11.72221622

--------------------------------------- Iteration      FINAL  ---------------------------------------

--------------------OUTCAR has been truncated-------------------------

[...]

--------------------OUTCAR has been truncated-------------------------

  FORCE on cell =-STRESS in cart. coord.  units (eV):
  Direction    XX          YY          ZZ          XY          YZ          ZX
  Alpha Z  3501.42050  3501.42050  3501.42050
  Ewald  647164.15855647164.18150************    -0.01210     0.02833    -0.00517
  Hartree687310.24282687310.24682************    -0.00709     0.02125    -0.01529
  E(xc)  -10091.38282-10091.38279-10101.53551    -0.00002    -0.00017    -0.00013
  Local  ************************************     0.01922    -0.04380     0.02597
  n-local-11246.07080-11246.04756-11321.31421    -0.00068    -0.00754    -0.00258
  augment  4308.95936  4308.95701  4274.00051    -0.00036    -0.00119    -0.00134
  Kinetic 29309.46970 29309.46905 29447.69068     0.00001     0.01056     0.00425
  Fock        0.00000     0.00000     0.00000     0.00000     0.00000     0.00000
  Total     -22.97025   -22.94851    70.73418    -0.00103     0.00745     0.00572
  in kB      -6.05441    -6.04868    18.64384    -0.00027     0.00196     0.00151

 VOLUME and BASIS-vectors are now :
  energy-cutoff  :      520.00
  volume of cell :     6078.61
      direct lattice vectors                 reciprocal lattice vectors
    16.881164524  0.000000000  0.000000000     0.059237619  0.000000000  0.000000000
     0.000000000 16.881164524  0.000000000     0.000000000  0.059237619  0.000000000
     0.000000000  0.000000000 21.330436697     0.000000000  0.000000000  0.046881366

  length of vectors
    16.881164524 16.881164524 21.330436697     0.059237619  0.059237619  0.046881366

 FORCES acting on ions:
    Electron-Ion                     Ewald-Force                    Non-Local-Force
   -.317E+00 -.349E+00 0.207E+04   0.307E+00 0.338E+00 -.206E+04   0.766E-02 0.817E-02 -.647E+01
   -.784E+00 -.796E+00 0.207E+04   0.773E+00 0.785E+00 -.206E+04   0.869E-02 0.883E-02 -.645E+01
   -.692E+00 -.962E+00 0.688E+03   0.652E+00 0.932E+00 -.688E+03   0.294E-01 0.225E-01 0.328E+00
   -.899E+00 -.750E+00 0.688E+03   0.867E+00 0.709E+00 -.688E+03   0.232E-01 0.310E-01 0.329E+00
   -.706E+00 -.761E+00 -.690E+03   0.687E+00 0.737E+00 0.690E+03   0.165E-01 0.199E-01 -.242E+00
   -.174E+01 -.181E+01 -.688E+03   0.161E+01 0.170E+01 0.688E+03   0.915E-01 0.685E-01 -.188E+00
   0.992E-01 -.126E+01 -.206E+04   -.809E-01 0.126E+01 0.205E+04   -.403E-01 -.550E-02 0.556E+01
   -.131E+01 0.600E-01 -.206E+04   0.133E+01 -.416E-01 0.205E+04   -.798E-02 -.393E-01 0.556E+01
   -.597E+00 -.455E+00 0.207E+04   0.588E+00 0.448E+00 -.206E+04   0.717E-02 0.557E-02 -.646E+01
   -.116E+01 0.535E-01 0.207E+04   0.115E+01 -.536E-01 -.206E+04   0.843E-02 -.523E-04 -.646E+01
   -.152E+01 0.132E+00 0.686E+03   0.153E+01 -.133E+00 -.687E+03   -.306E-02 0.888E-03 0.375E+00
   -.294E+01 -.158E+01 0.686E+03   0.293E+01 0.159E+01 -.686E+03   0.108E-01 -.924E-02 0.369E+00
   -.484E+00 -.147E+01 -.690E+03   0.448E+00 0.146E+01 0.690E+03   -.334E-02 -.565E-02 -.239E+00
   -.243E+01 0.807E-01 -.696E+03   0.256E+01 -.108E+00 0.696E+03   -.217E+00 0.283E-01 0.550E-01
   0.187E+00 -.112E+00 -.205E+04   -.157E+00 0.127E+00 0.205E+04   -.768E-01 -.871E-02 0.545E+01
   0.110E+01 -.349E+01 -.205E+04   -.138E+01 0.330E+01 0.204E+04   0.874E-01 0.177E+00 0.554E+01
   -.483E+00 -.638E+00 0.207E+04   0.476E+00 0.628E+00 -.206E+04   0.551E-02 0.778E-02 -.646E+01
   0.131E-01 -.480E+00 0.207E+04   -.130E-01 0.468E+00 -.206E+04   -.407E-04 0.967E-02 -.647E+01
   -.168E+01 -.300E+01 0.686E+03   0.170E+01 0.299E+01 -.687E+03   -.974E-02 0.112E-01 0.353E+00
   0.167E-01 -.465E+00 0.688E+03   -.165E-01 0.447E+00 -.688E+03   -.127E-03 0.132E-01 0.352E+00
   -.143E+01 -.459E+00 -.689E+03   0.143E+01 0.408E+00 0.689E+03   -.408E-02 0.108E-01 -.224E+00
   0.670E-01 -.137E+01 -.690E+03   -.646E-01 0.134E+01 0.690E+03   -.365E-02 0.307E-01 -.251E+00
   -.344E+01 0.726E+00 -.205E+04   0.327E+01 -.988E+00 0.204E+04   0.151E+00 0.822E-01 0.550E+01
   0.144E-01 -.103E+01 -.206E+04   -.128E-01 0.101E+01 0.205E+04   -.246E-02 0.229E-01 0.558E+01
   -.895E+00 -.853E+00 0.207E+04   0.889E+00 0.846E+00 -.206E+04   0.419E-02 0.490E-02 -.645E+01
   0.343E-01 0.233E-01 0.207E+04   -.346E-01 -.226E-01 -.206E+04   0.238E-03 -.627E-03 -.646E+01
   -.339E+01 0.141E+00 0.682E+03   0.337E+01 -.151E+00 -.682E+03   0.254E-01 0.722E-02 0.543E+00
   0.881E-02 -.766E+00 0.687E+03   -.597E-02 0.748E+00 -.687E+03   -.177E-02 0.136E-01 0.353E+00
   -.323E+01 -.294E+01 -.694E+03   0.336E+01 0.308E+01 0.694E+03   -.192E+00 -.200E+00 -.366E+00
   0.110E+00 0.467E-01 -.691E+03   -.110E+00 -.491E-01 0.691E+03   -.419E-03 0.147E-02 -.247E+00
   0.121E+01 -.209E+01 -.208E+04   -.219E+01 0.197E+01 0.207E+04   0.595E+00 0.175E+00 0.640E+01
   0.122E+00 -.135E+01 -.206E+04   -.132E+00 0.131E+01 0.205E+04   0.553E-02 0.507E-01 0.556E+01
   -.571E+00 0.497E+00 0.207E+04   0.561E+00 -.489E+00 -.206E+04   0.788E-02 -.620E-02 -.646E+01
   -.785E+00 0.767E+00 0.207E+04   0.773E+00 -.754E+00 -.206E+04   0.888E-02 -.953E-02 -.645E+01
   -.616E+00 0.878E+00 0.688E+03   0.576E+00 -.844E+00 -.688E+03   0.299E-01 -.256E-01 0.322E+00
   -.290E+01 0.169E+01 0.686E+03   0.288E+01 -.171E+01 -.687E+03   0.153E-01 0.777E-02 0.335E+00
   -.371E+00 0.154E+01 -.689E+03   0.320E+00 -.153E+01 0.689E+03   0.140E-01 0.398E-02 -.225E+00
   -.183E+01 0.168E+01 -.687E+03   0.172E+01 -.155E+01 0.688E+03   0.712E-01 -.948E-01 -.189E+00
   0.651E-02 0.139E+01 -.206E+04   0.122E-01 -.141E+01 0.205E+04   -.382E-01 0.121E-01 0.555E+01
   0.705E+00 0.371E+01 -.205E+04   -.943E+00 -.355E+01 0.204E+04   0.657E-01 -.155E+00 0.549E+01
   -.311E+00 0.307E+00 0.207E+04   0.301E+00 -.297E+00 -.206E+04   0.753E-02 -.756E-02 -.647E+01
   -.467E+00 -.243E-01 0.207E+04   0.455E+00 0.232E-01 -.206E+04   0.940E-02 0.693E-03 -.647E+01
   -.410E+00 -.536E-01 0.688E+03   0.394E+00 0.508E-01 -.688E+03   0.119E-01 0.207E-02 0.333E+00
   -.943E+00 0.637E+00 0.688E+03   0.914E+00 -.595E+00 -.688E+03   0.218E-01 -.306E-01 0.330E+00
   -.692E+00 0.732E+00 -.690E+03   0.667E+00 -.708E+00 0.690E+03   0.212E-01 -.221E-01 -.248E+00
   -.127E+01 -.790E-01 -.690E+03   0.124E+01 0.758E-01 0.690E+03   0.261E-01 0.398E-02 -.255E+00
   -.993E+00 -.828E-02 -.206E+04   0.974E+00 0.687E-02 0.205E+04   0.211E-01 0.569E-03 0.556E+01
   -.132E+01 0.553E-01 -.206E+04   0.134E+01 -.699E-01 0.205E+04   -.985E-02 0.328E-01 0.557E+01
   -.906E+00 0.897E+00 0.207E+04   0.899E+00 -.890E+00 -.206E+04   0.486E-02 -.489E-02 -.645E+01
   0.278E-01 0.480E+00 0.207E+04   -.281E-01 -.467E+00 -.206E+04   0.227E-03 -.958E-02 -.647E+01
   -.169E+01 0.285E+01 0.686E+03   0.171E+01 -.284E+01 -.686E+03   -.923E-02 -.164E-01 0.355E+00
   0.129E+00 0.821E+00 0.687E+03   -.133E+00 -.802E+00 -.687E+03   0.245E-02 -.146E-01 0.367E+00
   -.317E+01 0.308E+01 -.693E+03   0.329E+01 -.320E+01 0.693E+03   -.178E+00 0.186E+00 -.395E+00
   0.423E-01 0.133E+01 -.690E+03   -.460E-01 -.129E+01 0.690E+03   0.408E-02 -.310E-01 -.254E+00
   -.396E+01 -.859E+00 -.205E+04   0.379E+01 0.113E+01 0.204E+04   0.160E+00 -.859E-01 0.553E+01
   -.414E-01 0.132E+01 -.206E+04   0.493E-01 -.127E+01 0.205E+04   -.475E-02 -.500E-01 0.557E+01
   -.482E+00 0.592E+00 0.207E+04   0.474E+00 -.583E+00 -.206E+04   0.590E-02 -.743E-02 -.646E+01
   0.901E-02 -.229E-01 0.207E+04   -.907E-02 0.222E-01 -.206E+04   0.539E-04 0.478E-03 -.647E+01
   -.775E+00 -.436E-03 0.687E+03   0.755E+00 -.482E-02 -.688E+03   0.145E-01 0.361E-02 0.349E+00
   0.225E-01 0.418E+00 0.688E+03   -.229E-01 -.401E+00 -.688E+03   0.359E-03 -.132E-01 0.337E+00
[...]
   0.338E+00 0.424E+00 0.156E+04   -.330E+00 -.416E+00 -.156E+04   -.774E-02 -.144E-01 0.355E+01
   -.238E-01 0.783E+00 0.155E+04   0.241E-01 -.775E+00 -.156E+04   -.358E-03 -.109E-01 0.356E+01
   0.119E+01 0.120E+01 -.156E+04   -.120E+01 -.125E+01 0.157E+04   -.253E-01 0.426E-01 -.522E+01
   -.336E+00 0.620E+01 -.157E+04   0.398E+00 -.605E+01 0.157E+04   -.872E-01 -.440E+00 -.524E+01
   0.710E+00 0.116E+01 -.512E+03   -.709E+00 -.117E+01 0.512E+03   -.183E-01 -.724E-02 0.178E+00
   -.397E+00 0.397E+01 -.521E+03   0.423E+00 -.402E+01 0.521E+03   -.251E-01 -.920E-01 0.143E+00
   0.352E+00 0.368E+00 0.516E+03   -.350E+00 -.367E+00 -.516E+03   -.180E-04 -.161E-02 -.802E-01
   -.969E-03 -.220E-01 0.515E+03   0.278E-04 0.187E-01 -.515E+03   0.126E-02 0.273E-02 -.470E-01
   0.214E+00 -.180E-01 0.156E+04   -.209E+00 0.174E-01 -.156E+04   -.426E-02 0.409E-02 0.354E+01
   -.267E-03 0.510E+00 0.155E+04   -.496E-04 -.505E+00 -.156E+04   0.433E-03 -.659E-02 0.356E+01
   0.708E+00 0.728E+00 -.156E+04   -.725E+00 -.750E+00 0.157E+04   0.898E-02 0.124E-01 -.511E+01
   -.220E-01 -.515E-01 -.156E+04   0.243E-01 0.533E-01 0.157E+04   -.251E-02 0.314E-02 -.518E+01
   0.582E+00 -.151E-01 -.512E+03   -.593E+00 0.129E-01 0.512E+03   0.624E-02 0.229E-02 0.187E+00
   0.380E-01 0.262E+01 -.513E+03   -.355E-01 -.268E+01 0.513E+03   -.331E-02 0.237E-01 0.259E+00
   -.680E-01 -.843E-01 0.608E+02   0.135E-11 0.115E-11 0.482E-10   0.666E-01 0.621E-01 -.605E+02

 POSITION                                       TOTAL-FORCE (eV/Angst)
      2.11015      0.00000      7.50000        -0.002190     -0.002354      0.156939
      4.22029      2.11015      7.50000        -0.002570     -0.002358      0.152397
      2.11015      2.11015      9.61015        -0.010074     -0.007283      0.008277
      4.22029      0.00000      9.61015        -0.007758     -0.010243      0.009498
      2.10919     16.88003     11.72497        -0.002519     -0.003474      0.036502
      4.21928      2.10984     11.72234        -0.038242     -0.040437      0.028239
      2.10861      2.10710     13.81627        -0.021917     -0.002152      0.255606
      4.21736     16.87923     13.81595         0.002717     -0.020757      0.259968
      2.11015      4.22029      7.50000        -0.001955     -0.001454      0.154714
      4.22029      6.33044      7.50000        -0.002433     -0.000052      0.154918
      2.11015      6.33044      9.61015         0.005758     -0.000574      0.017357
      4.22029      4.22029      9.61015         0.004511      0.004495      0.007632
      2.10974      4.22043     11.72418        -0.039238     -0.009970      0.044528
      4.22680      6.32970     11.72990        -0.088068      0.001467      0.015591
      2.10743      6.33043     13.81654        -0.046586      0.006681      0.301440
      4.21796      4.21431     13.80701        -0.187505     -0.017350      0.318017
      6.33044      0.00000      7.50000        -0.001602     -0.002203      0.154184
      0.00000      2.11015      7.50000         0.000011     -0.002656      0.156598
      6.33044      2.11015      9.61015         0.004835      0.003730      0.003394
      0.00000      0.00000      9.61015         0.000030     -0.004134      0.012688
      6.33084     16.88030     11.72345        -0.013210     -0.040382      0.048296
      0.00015      2.10907     11.72467        -0.001202     -0.001348      0.042025
      6.32441      2.10747     13.80090        -0.015933     -0.179131      0.359777
      0.00021     16.87956     13.81827        -0.000887      0.001959      0.247349
      6.33044      4.22029      7.50000        -0.001474     -0.001436      0.152707
      0.00000      6.33044      7.50000        -0.000070      0.000202      0.153906
      6.33044      6.33044      9.61015        -0.000118     -0.002837      0.013210
      0.00000      4.22029      9.61015         0.001050     -0.004458      0.011479
      6.33825      4.22681     11.73738        -0.061185     -0.060421     -0.122783
      0.00002      6.33049     11.72561        -0.000342     -0.000867      0.050823
      6.33507      6.32237     13.87923        -0.380930      0.053873     -0.299208
      0.00018      4.21755     13.81742        -0.004237      0.007357      0.259561
      2.11015      8.44058      7.50000        -0.002214      0.001817      0.154310
      4.22029     10.55073      7.50000        -0.002625      0.003082      0.152532
      2.11015     10.55073      9.61015        -0.010082      0.009015      0.008494
      4.22029      8.44058      9.61015         0.001560     -0.004071      0.000904
      2.10893      8.44052     11.72314        -0.036599      0.011560      0.051120
      4.21980     10.55204     11.72171        -0.036624      0.038281      0.031711
      2.10827     10.55421     13.81581        -0.019454     -0.004069      0.259408
      4.21753      8.44734     13.79926        -0.171570      0.002942      0.369103
      2.11015     12.66087      7.50000        -0.002076      0.002334      0.157527
      4.22029     14.77102      7.50000        -0.002725     -0.000277      0.157145
      2.11015     14.77102      9.61015        -0.003710     -0.000686      0.012093
      4.22029     12.66087      9.61015        -0.007235      0.010972      0.009435
      2.10909     12.66206     11.72501        -0.004503      0.002251      0.034432
      4.21955     14.77086     11.72472        -0.003636      0.000915      0.040241
      2.10862     14.77099     13.81787         0.002138     -0.000746      0.247211
      4.21734     12.66268     13.81610         0.002265      0.018255      0.255860
      6.33044      8.44058      7.50000        -0.001585      0.001625      0.152067
      0.00000     10.55073      7.50000        -0.000059      0.002960      0.156722
      6.33044     10.55073      9.61015         0.004322     -0.001940      0.007151
      0.00000      8.44058      9.61015        -0.001414      0.004935      0.011073
      6.33656      8.43260     11.73581        -0.060069      0.066739     -0.116581
     16.88107     10.55172     11.72460         0.000375      0.005233      0.043414
      6.32383     10.55317     13.80597        -0.004123      0.182475      0.324750
      0.00007      8.44320     13.81765         0.003071     -0.004584      0.260588
      6.33044     12.66087      7.50000        -0.001806      0.002260      0.155070
      0.00000     14.77102      7.50000        -0.000002     -0.000136      0.157763
      6.33044     14.77102      9.61015        -0.004953     -0.001534      0.010548
      0.00000     12.66087      9.61015        -0.000069      0.004474      0.013137
[...]
      8.44058     10.55073      9.61015        -0.000966     -0.010498      0.048437
     14.77102     10.55073      7.50000         0.000180     -0.006283     -0.563567
      8.44058      8.44058      7.50000        -0.000089     -0.002988     -0.564598
     14.77453      8.44448     13.86359        -0.032599     -0.010000      0.075167
      8.44180     10.56844     13.88661        -0.024648     -0.294094      0.015463
     14.77331     10.55259     11.71943        -0.017069     -0.013639     -0.036242
      8.43969      8.44947     11.72827         0.000947     -0.136384      0.134612
     14.77102     12.66087      9.61015         0.001327     -0.000707      0.019985
      8.44058     14.77102      9.61015         0.000321     -0.000459      0.032473
     14.77102     14.77102      7.50000         0.001169      0.003581     -0.565730
      8.44058     12.66087      7.50000         0.000122     -0.001741     -0.563106
     14.77399     12.66396     13.86210        -0.008142     -0.008936      0.103923
      8.44074     14.77050     13.86588        -0.000191      0.004967      0.078558
     14.77208     14.77127     11.71999        -0.004115      0.000119     -0.032361
      8.44073     12.66192     11.72222        -0.000861     -0.036946     -0.034817
    total drift:                               -0.001380     -0.022208      0.280165

  FREE ENERGIE OF THE ION-ELECTRON SYSTEM (eV)
  free  energy   TOTEN  =      -909.35988429 eV

  energy  without entropy=     -909.35988429  energy(sigma->0) =     -909.35988429