 vasp.6.3.0 20Jan22 (build Mar 11 2022 13:48:16) complex

 executed on             LinuxIFC date 2024.01.22  05:33:07

 INCAR:
   SYSTEM = TiO2
   ISMEAR = 0
   SIGMA = 0.05
   EDIFF = 1E-5
   ALGO = ALL
   ISTART = 0
   IBRION = -1
   NSW = 0
   ISYM = 0
   ISIF = 2
   EDIFFG = -0.01
   DIPOL = 0.5 0.5 0.5
   IDIPOL = 3
   LDIPOL = .TRUE.
   GGA = RE
   AGGAC = 0.0
   LUSE_VDW = .TRUE.
   LASPH = .TRUE.
   ENCUT = 600
   PREC = Accurate
   LASPH = .TRUE.
   LREAL = .FALSE.
   ISPIN = 1
   NELM = 200
   NELMIN = 8
   NCORE = 2
   KPAR = 1
   LWAVE = .FALSE.
   LCHARG = .FALSE.

 POTCAR:    PAW_PBE Ti_pv 07Sep2000
 POTCAR:    PAW_PBE O 08Apr2002
|           W    W    AA    RRRRR   N    N  II  N    N   GGGG   !!!           |
|           W    W   A  A   R    R  NN   N  II  NN   N  G    G  !!!           |
|           W    W  A    A  R    R  N N  N  II  N N  N  G       !!!           |
|           W WW W  AAAAAA  RRRRR   N  N N  II  N  N N  G  GGG   !            |
|           WW  WW  A    A  R   R   N   NN  II  N   NN  G    G                |
|           W    W  A    A  R    R  N    N  II  N    N   GGGG   !!!           |
|     For optimal performance we recommend to set                             |
|       NCORE = 2 up to number-of-cores-per-socket                            |
|     This setting can greatly improve the performance of VASP for DFT.       |
|     The default, NCORE=1 might be grossly inefficient on modern             |
|     multi-core architectures or massively parallel machines. Do your        |
|     Unfortunately you need to use the default for GW and RPA                |
|     calculations (for HF NCORE is supported but not extensively tested      |
|     yet).                                                                   |

   TITEL  = PAW_PBE Ti_pv 07Sep2000
   POMASS =   47.880; ZVAL   =   10.000    mass and valenz
   ENMAX  =  222.335; ENMIN  =  166.751 eV

   TITEL  = PAW_PBE O 08Apr2002
   POMASS =   16.000; ZVAL   =    6.000    mass and valenz
   ENMAX  =  400.000; ENMIN  =  300.000 eV

  PAW_PBE Ti_pv 07Sep2000               :
  PAW_PBE O 08Apr2002                   :

 POSCAR: Ti  O
  positions in direct lattice
 exchange correlation table for  LEXCH =       40
   RHO(1)=    0.500       N(1)  =     2000
   RHO(2)=  100.500       N(2)  =     4000

 ion  position               nearest neighbor table
   1  0.807  0.833  0.295-  51 1.93  85 1.93  53 1.93  52 1.99  50 1.99  18 3.04   2 3.04   4 3.04

   2  0.591  0.667  0.327-  54 1.93  49 1.93 116 1.93  52 1.93  55 1.99  53 1.99   3 3.04  33 3.04
                             1 3.04   7 3.07
   3  0.307  0.667  0.295-  55 1.93 121 1.93  57 1.93  56 1.99  49 1.99  36 3.04   2 3.04   4 3.04

   4  0.091  0.833  0.327-  58 1.93  50 1.93  88 1.93  56 1.93  57 1.99  51 1.99  19 3.04   3 3.04
                             1 3.04   5 3.07
   5  0.945  0.833  0.422-  59 1.93  93 1.93  61 1.93  51 1.97  60 1.98  58 1.98   8 3.00   6 3.04
                            22 3.04   4 3.07
   6  0.727  0.666  0.451-  54 1.90 124 1.93  60 1.94  62 1.95  63 1.99  61 1.99   7 3.01   5 3.04
                            37 3.05  11 3.09
   7  0.444  0.666  0.422-  63 1.93 129 1.93  65 1.93  55 1.96  64 1.98  54 1.99   6 3.01   8 3.04
                            40 3.05   2 3.07
   8  0.226  0.833  0.452-  58 1.90  96 1.94  64 1.94  66 1.96  59 1.97  65 1.99   5 3.00   7 3.04
                            23 3.04   9 3.09
   9  0.086  0.834  0.550-  67 1.93 101 1.93  69 1.93  68 1.97  66 1.99  59 1.99  12 2.95  10 3.03
                            26 3.04   8 3.09
  10  0.866  0.666  0.575-  62 1.87 132 1.93  68 1.94  71 1.95  70 1.99  69 1.99  11 2.98   9 3.03
                            41 3.05  15 3.15
  11  0.584  0.667  0.549- 137 1.93  73 1.93  71 1.93  63 1.97  72 1.97  62 2.00  10 2.98  12 3.04
                            44 3.05   6 3.09
  12  0.365  0.833  0.577-  66 1.87 104 1.94  72 1.94  67 1.95  74 1.98  73 2.00   9 2.95  27 3.04
                            11 3.04
  13  0.231  0.833  0.680-  75 1.86  77 1.93 109 1.94  76 2.00  67 2.08  74 2.08  16 2.85  30 3.06
                            14 3.08
  14  0.001  0.666  0.700-  70 1.78  78 1.84 140 1.96  76 1.98  77 2.05  15 2.86  13 3.08  45 3.09

[...]

  17  0.807  0.167  0.295-  83 1.93  85 1.93 117 1.93  84 1.99  82 1.99  18 3.04  34 3.04  20 3.04

[...]

  36  0.091  0.500  0.327- 122 1.93 114 1.93 120 1.93  56 1.93 121 1.99 115 1.99   3 3.04  35 3.04
                            33 3.04  37 3.05
  37  0.946  0.500  0.422- 123 1.93 125 1.93  61 1.93 115 1.97 122 1.97 124 1.99  40 3.00   6 3.05
                            38 3.05  36 3.05
  38  0.727  0.334  0.451- 118 1.90 124 1.93  92 1.94 126 1.95 127 1.99 125 1.99  39 3.01  21 3.04
                            37 3.05  43 3.09
  39  0.444  0.334  0.422- 127 1.93 129 1.93  97 1.93 119 1.96 128 1.98 118 1.99  38 3.01  24 3.04
                            40 3.05  34 3.07
  40  0.226  0.500  0.453- 122 1.93 128 1.94  64 1.94 123 1.96 130 1.96 129 2.00  37 3.00  39 3.05
                             7 3.05  41 3.06
  41  0.089  0.500  0.550- 131 1.93 133 1.93  69 1.93 130 1.97 132 2.00 123 2.00  44 2.97  10 3.05
                            42 3.05  40 3.06
  42  0.866  0.334  0.575- 126 1.87 132 1.93 100 1.94 135 1.95 134 1.99 133 1.99  43 2.98  25 3.03
                            41 3.05  47 3.15
  43  0.584  0.333  0.549- 137 1.93 105 1.93 135 1.93 127 1.97 136 1.97 126 2.00  42 2.98  28 3.04
                            44 3.05  38 3.09
  44  0.367  0.500  0.580- 130 1.93  72 1.94 136 1.94 131 1.94 138 1.97 137 2.01  41 2.97  11 3.05
                            43 3.05  45 3.12
  45  0.235  0.500  0.680- 139 1.86  77 1.93 141 1.93 140 2.02 138 2.03 131 2.08  48 2.88  14 3.09
                            46 3.09  44 3.12
  46  0.001  0.334  0.700- 134 1.78 142 1.84 140 1.96 108 1.98 141 2.05  47 2.86  29 3.08  45 3.09

  47  0.729  0.334  0.676- 142 1.89 144 1.92 112 1.94 143 1.99 135 2.02 134 2.08  46 2.86  32 3.07
                            48 3.07  42 3.15
  48  0.506  0.500  0.706- 139 1.82 138 1.88 143 1.97  79 1.97 144 2.09  45 2.88  47 3.07  15 3.07

  49  0.487  0.667  0.269-   2 1.93   3 1.99
  50  0.987  0.833  0.269-   4 1.93   1 1.99
  51  0.911  0.833  0.353-   1 1.93   5 1.97   4 1.99
  52  0.627  0.833  0.321-  18 1.93   2 1.93   1 1.99
  53  0.771  0.667  0.300-  33 1.93   1 1.93   2 1.99
  54  0.623  0.667  0.395-   6 1.90   2 1.93   7 1.99
  55  0.411  0.667  0.353-   3 1.93   7 1.96   2 1.99
  56  0.127  0.667  0.321-  36 1.93   4 1.93   3 1.99
  57  0.271  0.833  0.300-  19 1.93   3 1.93   4 1.99
  58  0.123  0.833  0.395-   8 1.90   4 1.93   5 1.98
  59  0.050  0.834  0.480-   5 1.93   8 1.97   9 1.99
  60  0.764  0.833  0.447-  22 1.94   6 1.94   5 1.98
  61  0.909  0.667  0.427-   5 1.93  37 1.93   6 1.99
  62  0.763  0.666  0.520-  10 1.87   6 1.95  11 2.00
  63  0.549  0.666  0.480-   7 1.93  11 1.97   6 1.99
  64  0.264  0.667  0.448-  40 1.94   8 1.94   7 1.98
  65  0.408  0.833  0.427-   7 1.93  23 1.93   8 1.99
  66  0.263  0.833  0.521-  12 1.87   8 1.96   9 1.99
  67  0.193  0.833  0.607-   9 1.93  12 1.95  13 2.08
  68  0.904  0.833  0.572-  26 1.94  10 1.94   9 1.97
  69  0.051  0.667  0.553-  41 1.93   9 1.93  10 1.99
  70  0.912  0.668  0.645-  14 1.78  10 1.99  15 2.08
  71  0.694  0.670  0.605-  11 1.93  10 1.95  15 2.02
  72  0.405  0.667  0.574-  44 1.94  12 1.94  11 1.97
  73  0.549  0.833  0.553-  27 1.93  11 1.93  12 2.00
  74  0.411  0.834  0.646-  16 1.79  12 1.98  13 2.08
  75  0.347  0.833  0.731-  16 1.83  13 1.86
  76  0.051  0.833  0.708-  30 1.98  14 1.98  13 2.00
  77  0.194  0.666  0.681-  13 1.93  45 1.93  14 2.05
  78  0.841  0.660  0.730-  14 1.84  15 1.89
  79  0.554  0.668  0.707-  16 1.96  48 1.97  15 1.99
  80  0.694  0.834  0.679-  31 1.93  15 1.94  16 2.04
  81  0.487  0.000  0.269-  18 1.93  19 1.99
  82  0.987  0.167  0.269-  20 1.93  17 1.99
  83  0.911  0.167  0.353-  17 1.93  21 1.97  20 1.99
  84  0.627  0.167  0.321-  18 1.93  34 1.93  17 1.99
  85  0.771  0.000  0.300-   1 1.93  17 1.93  18 1.99
  86  0.623  0.000  0.395-  22 1.90  18 1.93  23 1.99
  87  0.411  0.000  0.353-  19 1.93  23 1.97  18 1.99
  88  0.127  0.000  0.321-   4 1.93  20 1.93  19 1.99
  89  0.271  0.167  0.300-  19 1.93  35 1.93  20 1.99
  90  0.123  0.167  0.395-  24 1.90  20 1.93  21 1.98
  91  0.050  0.166  0.480-  21 1.93  24 1.97  25 1.99
  92  0.764  0.167  0.447-  22 1.94  38 1.94  21 1.98
  93  0.908  0.000  0.427-   5 1.93  21 1.93  22 1.99
  94  0.763  0.000  0.520-  26 1.87  22 1.95  27 2.00
  95  0.549  0.000  0.479-  23 1.92  22 1.98  27 1.98
  96  0.264  0.000  0.448-   8 1.94  24 1.94  23 1.98
  97  0.408  0.167  0.427-  39 1.93  23 1.93  24 1.99
  98  0.263  0.167  0.521-  28 1.87  24 1.96  25 1.99
  99  0.193  0.167  0.607-  25 1.93  28 1.95  29 2.08
 100  0.904  0.167  0.572-  26 1.94  42 1.94  25 1.97
 101  0.051  1.000  0.553-   9 1.93  25 1.93  26 2.01
 102  0.912  0.000  0.645-  30 1.79  26 1.99  31 2.07
 103  0.693  0.000  0.606-  27 1.93  26 1.95  31 2.07
 104  0.404  0.000  0.573-  28 1.94  12 1.94  27 1.98
 105  0.549  0.167  0.553-  27 1.93  43 1.93  28 2.00
 106  0.411  0.166  0.646-  32 1.79  28 1.98  29 2.08
 107  0.347  0.167  0.731-  32 1.83  29 1.86
 108  0.051  0.167  0.708-  30 1.98  46 1.98  29 2.00
[...]
 130  0.265  0.500  0.522-  44 1.93  40 1.96  41 1.97
 131  0.193  0.500  0.607-  41 1.93  44 1.94  45 2.08
 132  0.905  0.500  0.573-  10 1.93  42 1.93  41 2.00
 133  0.051  0.333  0.553-  41 1.93  25 1.93  42 1.99
 134  0.912  0.332  0.645-  46 1.78  42 1.99  47 2.08
 135  0.694  0.330  0.605-  43 1.93  42 1.95  47 2.02
 136  0.405  0.333  0.574-  44 1.94  28 1.94  43 1.97
 137  0.550  0.500  0.554-  43 1.93  11 1.93  44 2.01
 138  0.413  0.500  0.648-  48 1.88  44 1.97  45 2.03
 139  0.345  0.500  0.733-  48 1.82  45 1.86
 140  0.051  0.500  0.707-  46 1.96  14 1.96  45 2.02
 141  0.194  0.334  0.681-  29 1.93  45 1.93  46 2.05
 142  0.841  0.340  0.730-  46 1.84  47 1.89
 143  0.554  0.332  0.707-  32 1.96  48 1.97  47 1.99
 144  0.691  0.500  0.675-  15 1.92  47 1.92  48 2.09

IMPORTANT INFORMATION: All symmetrisations will be switched off!
NOSYMM: (Re-)initialisation of all symmetry stuff for point group C_1.

                                     Primitive cell

  volume of cell :    3249.2297

  direct lattice vectors                    reciprocal lattice vectors
    10.254981746  0.000000000  0.000000000     0.097513582 -0.000000000  0.000000000
     0.000000000 11.356579900  0.000000000     0.000000000  0.088054679  0.000000000
     0.000000000  0.000000000 27.899598656     0.000000000  0.000000000  0.035842810

  length of vectors
    10.254981746 11.356579900 27.899598656     0.097513582  0.088054679  0.035842810

  position of ions in fractional coordinates (direct lattice)
     0.807140271  0.833333333  0.295085782
     0.591206404  0.666666667  0.326611047
     0.307140271  0.666666667  0.295085782
     0.091206404  0.833333333  0.326611047
     0.944789313  0.833424992  0.422410323
     0.726927449  0.666299533  0.451298039
     0.444006824  0.666473063  0.422245327
     0.225958389  0.833302505  0.451800300
[...]
   7.90769693  7.57105327  8.37954222
   6.39199420  7.57105327 11.01816888
   4.21792484  7.57105327  9.84509201
   1.30483183  7.57105327  8.96554979
   2.78020605  9.46381658  8.37954222
   1.26450333  9.46381658 11.01816888
   0.50836564  9.46639837 13.38270278
   7.83593997  9.46312272 12.47940855
[...]
   2.71519812  5.67828948 14.55660815
   1.98325137  5.67829009 16.94663270
   9.27669860  5.67829025 15.98881807
   0.52184410  3.78735827 15.42860093
   9.35630848  3.77004056 17.98543007
   7.11712469  3.75253245 16.88311285
   4.15087089  3.78725954 16.02059511
   5.64290977  5.67828954 15.45383640
   4.23056639  5.67828826 18.08941244
   3.53976820  5.67829004 20.45394685
   0.52811425  5.67828947 19.73657776
   1.98554169  3.79012575 18.99935208
   8.62932216  3.85842996 20.36096205
   5.68518657  3.76622110 19.73148024
   7.08845444  5.67828966 18.82703671

--------------------------------------- Iteration      FINAL  ---------------------------------------

--------------------OUTCAR has been truncated-------------------------

[...]

--------------------OUTCAR has been truncated-------------------------

  FORCE on cell =-STRESS in cart. coord.  units (eV):
  Direction    XX          YY          ZZ          XY          YZ          ZX
  Alpha Z  2423.77692  2423.77692  2423.77692
  Ewald  491928.19671485245.52309************    -0.00102    -0.00087 -2069.15839
  Hartree512779.76114508757.39275************    -0.00053    -0.00039 -1362.39638
  E(xc)   -5282.72378 -5287.85778 -5290.18770    -0.00000    -0.00000    -1.38606
  Local  ************************************     0.00155     0.00125  3439.97431
  n-local -3256.09045 -3227.10065 -3268.93174    -0.00001     0.00000     0.49637
  augment  3179.28874  3176.30343  3167.91789    -0.00000    -0.00000    -1.60378
  Kinetic 17095.43163 17153.29885 17192.51560     0.00001     0.00006   -19.36239
  Fock        0.00000     0.00000     0.00000     0.00000     0.00000     0.00000
  Total      67.68848    84.62053    76.67110    -0.00000     0.00004   -13.43632
  in kB      33.37682    41.72592    37.80610    -0.00000     0.00002    -6.62538

 VOLUME and BASIS-vectors are now :
  energy-cutoff  :      600.00
  volume of cell :     3249.23
      direct lattice vectors                 reciprocal lattice vectors
    10.254981746  0.000000000  0.000000000     0.097513582 -0.000000000  0.000000000
     0.000000000 11.356579900  0.000000000     0.000000000  0.088054679  0.000000000
     0.000000000  0.000000000 27.899598656     0.000000000  0.000000000  0.035842810

  length of vectors
    10.254981746 11.356579900 27.899598656     0.097513582  0.088054679  0.035842810

 FORCES acting on ions:
    Electron-Ion                     Ewald-Force                    Non-Local-Force
   0.614E+01 0.242E-01 0.338E+04   -.135E+01 -.209E-01 -.338E+04   -.102E+01 -.722E-03 -.311E+01
   0.448E+01 -.633E-01 0.278E+04   -.593E+01 0.671E-01 -.278E+04   -.140E+00 -.120E-02 -.827E-01
   0.615E+01 0.239E+00 0.338E+04   -.140E+01 -.242E+00 -.338E+04   -.102E+01 0.835E-03 -.311E+01
   0.307E+01 0.216E+00 0.278E+04   -.457E+01 -.221E+00 -.278E+04   -.131E+00 0.102E-02 -.874E-01
   0.505E+00 0.323E+00 0.125E+04   -.643E+00 -.318E+00 -.125E+04   0.147E+00 -.183E-02 0.501E-03
   0.232E+01 -.127E+01 0.785E+03   -.227E+01 0.125E+01 -.785E+03   -.401E-01 0.239E-01 -.127E+00
   0.206E+01 0.445E+00 0.125E+04   -.218E+01 -.443E+00 -.125E+04   0.134E+00 0.568E-02 -.191E-01
   -.452E+01 0.928E+00 0.775E+03   0.454E+01 -.920E+00 -.775E+03   -.194E-01 -.321E-03 -.122E+00
   -.601E+01 0.186E+00 -.813E+03   0.573E+01 -.178E+00 0.813E+03   0.281E+00 -.111E-02 0.118E+00
   -.549E+01 0.130E+01 -.121E+04   0.560E+01 -.125E+01 0.121E+04   -.686E-01 -.423E-01 -.227E+00
   0.168E+01 0.200E+01 -.787E+03   -.182E+01 -.196E+01 0.787E+03   0.215E+00 -.211E-02 0.801E-01
   0.275E+00 0.209E+01 -.124E+04   -.206E+00 -.203E+01 0.124E+04   -.815E-01 -.165E-01 -.254E+00
   0.234E+02 -.102E+01 -.283E+04   -.246E+02 0.105E+01 0.283E+04   0.997E+00 0.898E-02 -.137E+00
   -.622E+02 -.952E+01 -.323E+04   0.621E+02 0.934E+01 0.323E+04   0.390E-02 0.175E+00 0.677E+00
   0.115E+02 -.726E+01 -.279E+04   -.119E+02 0.741E+01 0.279E+04   0.791E+00 -.323E-01 -.341E-01
   -.693E+02 -.283E+01 -.323E+04   0.697E+02 0.304E+01 0.323E+04   -.244E-01 -.453E-01 0.698E+00
   0.614E+01 -.242E-01 0.338E+04   -.135E+01 0.209E-01 -.338E+04   -.102E+01 0.722E-03 -.311E+01
   0.436E+01 -.829E-05 0.278E+04   -.584E+01 -.129E-04 -.278E+04   -.133E+00 0.201E-05 -.900E-01
   0.602E+01 -.350E-05 0.338E+04   -.124E+01 -.414E-05 -.338E+04   -.102E+01 0.930E-06 -.311E+01
   0.307E+01 -.216E+00 0.278E+04   -.457E+01 0.221E+00 -.278E+04   -.131E+00 -.102E-02 -.874E-01
   0.505E+00 -.323E+00 0.125E+04   -.643E+00 0.318E+00 -.125E+04   0.147E+00 0.183E-02 0.500E-03
   -.522E+00 0.123E-03 0.781E+03   0.530E+00 -.134E-03 -.781E+03   -.662E-02 -.164E-05 -.130E+00
   0.216E+01 0.607E-04 0.125E+04   -.228E+01 -.633E-04 -.125E+04   0.135E+00 0.231E-05 -.154E-01
   -.452E+01 -.928E+00 0.775E+03   0.454E+01 0.919E+00 -.775E+03   -.194E-01 0.321E-03 -.122E+00
   -.601E+01 -.186E+00 -.813E+03   0.573E+01 0.178E+00 0.813E+03   0.281E+00 0.111E-02 0.118E+00
   -.446E+01 0.364E-03 -.123E+04   0.452E+01 -.369E-03 0.123E+04   -.444E-01 -.176E-06 -.239E+00
   -.227E+01 0.150E-03 -.802E+03   0.206E+01 -.147E-03 0.802E+03   0.254E+00 -.263E-05 0.141E+00
   0.274E+00 -.208E+01 -.124E+04   -.206E+00 0.203E+01 0.124E+04   -.815E-01 0.165E-01 -.254E+00
   0.234E+02 0.102E+01 -.283E+04   -.246E+02 -.105E+01 0.283E+04   0.997E+00 -.898E-02 -.137E+00
   -.675E+02 -.386E-04 -.323E+04   0.679E+02 0.462E-04 0.323E+04   -.549E-01 0.172E-05 0.682E+00
   0.158E+02 0.823E-03 -.282E+04   -.167E+02 -.872E-03 0.282E+04   0.893E+00 0.319E-05 -.738E-01
   -.693E+02 0.284E+01 -.323E+04   0.697E+02 -.304E+01 0.323E+04   -.244E-01 0.453E-01 0.698E+00
   0.611E+01 0.136E-04 0.338E+04   -.131E+01 -.396E-05 -.338E+04   -.102E+01 0.160E-05 -.311E+01
   0.448E+01 0.633E-01 0.278E+04   -.593E+01 -.671E-01 -.278E+04   -.140E+00 0.120E-02 -.827E-01
   0.615E+01 -.239E+00 0.338E+04   -.140E+01 0.242E+00 -.338E+04   -.102E+01 -.836E-03 -.311E+01
   0.214E+01 -.304E-04 0.278E+04   -.359E+01 0.169E-04 -.278E+04   -.148E+00 0.170E-06 -.826E-01
   0.732E+00 -.143E-03 0.125E+04   -.874E+00 0.155E-03 -.125E+04   0.139E+00 0.344E-05 0.400E-01
   0.232E+01 0.127E+01 0.785E+03   -.227E+01 -.125E+01 -.785E+03   -.401E-01 -.239E-01 -.127E+00
   0.206E+01 -.445E+00 0.125E+04   -.218E+01 0.443E+00 -.125E+04   0.134E+00 -.568E-02 -.191E-01
   -.703E+01 -.329E-03 0.757E+03   0.707E+01 0.319E-03 -.757E+03   -.418E-01 0.182E-05 -.242E-01
   -.333E+01 -.375E-03 -.820E+03   0.301E+01 0.391E-03 0.819E+03   0.228E+00 0.173E-06 0.138E+00
   -.549E+01 -.130E+01 -.121E+04   0.560E+01 0.125E+01 0.121E+04   -.686E-01 0.423E-01 -.227E+00
   0.168E+01 -.200E+01 -.787E+03   -.182E+01 0.196E+01 0.787E+03   0.215E+00 0.211E-02 0.800E-01
   -.354E+01 -.332E-03 -.129E+04   0.357E+01 0.321E-03 0.129E+04   -.941E-01 0.407E-05 0.184E-01
   0.258E+02 -.126E-03 -.284E+04   -.273E+02 0.107E-03 0.284E+04   0.910E+00 0.415E-05 -.555E-01
   -.622E+02 0.952E+01 -.323E+04   0.621E+02 -.934E+01 0.323E+04   0.388E-02 -.175E+00 0.677E+00
   0.115E+02 0.726E+01 -.279E+04   -.119E+02 -.741E+01 0.279E+04   0.791E+00 0.323E-01 -.341E-01
   -.798E+02 -.342E-03 -.333E+04   0.790E+02 0.395E-03 0.333E+04   0.541E+00 -.106E-04 0.218E+01
   -.336E+02 0.289E-01 0.229E+04   0.384E+02 -.280E-01 -.230E+04   -.652E+01 -.105E-02 0.168E+02
   -.338E+02 0.291E-01 0.229E+04   0.387E+02 -.298E-01 -.231E+04   -.651E+01 0.102E-02 0.168E+02
   0.836E+02 0.160E+00 0.138E+04   -.885E+02 -.164E+00 -.138E+04   0.373E+01 0.731E-03 -.434E+01
   0.761E+02 0.102E-01 0.169E+04   -.831E+02 -.682E-02 -.169E+04   0.716E+01 -.707E-02 -.255E+01
   -.876E+02 -.273E-01 0.195E+04   0.949E+02 0.270E-01 -.195E+04   -.683E+01 -.679E-03 -.876E-01
   -.725E+02 -.691E+00 0.105E+04   0.784E+02 0.736E+00 -.106E+04   -.574E+01 -.384E-01 0.400E+01
   0.842E+02 0.212E+00 0.138E+04   -.891E+02 -.195E+00 -.138E+04   0.369E+01 -.199E-01 -.416E+01
   0.752E+02 0.189E+00 0.169E+04   -.822E+02 -.196E+00 -.169E+04   0.718E+01 0.161E-01 -.257E+01
   -.878E+02 0.932E-01 0.195E+04   0.951E+02 -.910E-01 -.195E+04   -.680E+01 -.728E-02 -.924E-01
   -.771E+02 0.397E+00 0.105E+04   0.832E+02 -.400E+00 -.106E+04   -.593E+01 -.274E-03 0.411E+01
   0.807E+02 -.266E+00 0.148E+03   -.873E+02 0.306E+00 -.144E+03   0.645E+01 -.411E-01 -.467E+01
   0.817E+02 0.328E+00 0.476E+03   -.884E+02 -.378E+00 -.473E+03   0.648E+01 0.468E-01 -.287E+01
[...]
   0.878E+02 -.194E-03 -.110E+04   -.950E+02 0.185E-03 0.111E+04   0.713E+01 0.877E-05 -.664E+01
   0.741E+02 0.490E-04 -.742E+03   -.802E+02 -.679E-04 0.745E+03   0.593E+01 -.100E-04 -.304E+01
   -.843E+02 -.856E+00 -.482E+03   0.908E+02 0.801E+00 0.479E+03   -.631E+01 0.770E-01 0.261E+01
   -.637E+02 0.687E+01 -.132E+04   0.663E+02 -.754E+01 0.131E+04   -.247E+01 0.667E+00 0.895E+01
   0.842E+02 0.936E+01 -.107E+04   -.906E+02 -.102E+02 0.108E+04   0.614E+01 0.826E+00 -.529E+01
   0.804E+02 -.179E+01 -.754E+03   -.870E+02 0.168E+01 0.757E+03   0.633E+01 0.166E+00 -.292E+01
   -.761E+02 -.267E-03 -.492E+03   0.824E+02 0.284E-03 0.490E+03   -.612E+01 0.519E-05 0.216E+01
   -.741E+02 -.206E-03 -.136E+04   0.791E+02 0.185E-03 0.135E+04   -.442E+01 0.262E-04 0.762E+01
   0.607E+02 -.286E-03 -.231E+04   -.674E+02 0.331E-03 0.233E+04   0.699E+01 -.507E-04 -.197E+02
   0.572E+02 -.116E-03 -.203E+04   -.614E+02 0.108E-03 0.204E+04   0.415E+01 -.116E-04 -.726E+01
   -.583E+02 0.720E+00 -.169E+04   0.631E+02 -.662E+00 0.169E+04   -.452E+01 0.333E-01 0.251E+01
   0.518E+02 -.565E+01 -.230E+04   -.580E+02 0.684E+01 0.232E+04   0.629E+01 -.130E+01 -.203E+02
   0.584E+02 0.124E+01 -.203E+04   -.631E+02 -.154E+01 0.204E+04   0.440E+01 0.864E+00 -.614E+01
   -.452E+02 0.374E-03 -.162E+04   0.490E+02 -.423E-03 0.161E+04   -.399E+01 0.101E-04 0.589E+01
   -.128E+02 0.157E-04 0.632E+02   0.995E-13 -.195E-11 -.682E-12   0.128E+02 -.433E-04 -.632E+02

 POSITION                                       TOTAL-FORCE (eV/Angst)
      8.27721      9.46382      8.23277         3.786552      0.002576      1.184025
      6.06281      7.57105      9.11232        -1.591909      0.002612     -1.975584
      3.14972      7.57105      8.23277         3.752294     -0.001555      1.161896
      0.93532      9.46382      9.11232        -1.633158     -0.003727     -1.976782
      9.68880      9.46486     11.78508         0.012150      0.003741      0.026253
      7.45463      7.56688     12.59103        -0.006996      0.003979     -0.015882
      4.55328      7.56885     11.78048         0.018905      0.005965      0.014897
      2.31720      9.46347     12.60505        -0.018506      0.008508     -0.022305
      0.88467      9.46635     15.33981        -0.000567      0.009460      0.056214
      8.88150      7.56737     16.05093        -0.004125     -0.001161      0.046259
      5.99342      7.56942     15.31050         0.067312      0.031137      0.027914
      3.74106      9.46403     16.08911        -0.052942      0.037340     -0.043007
      2.37094      9.45623     18.96724        -0.163509      0.033697      0.063654
      0.00842      7.55935     19.52237        -0.226767     -0.003693      0.535279
      7.47583      7.56019     18.86549         0.421457      0.098976      0.541321
      5.16726      9.47379     19.52644         0.192855      0.155328      0.323208
      8.27721      1.89276      8.23277         3.786566     -0.002579      1.184014
      6.06281      0.00000      9.11232        -1.614260     -0.000019     -1.971177
      3.14972      0.00000      8.23277         3.777116     -0.000006      1.176491
      0.93532      1.89276      9.11232        -1.633162      0.003722     -1.976771
      9.68880      1.89172     11.78508         0.012148     -0.003743      0.026259
      7.44858      0.00000     12.59615        -0.014978     -0.000012     -0.016015
      4.55607      0.00000     11.78411         0.017970      0.000000      0.025545
      2.31720      1.89311     12.60505        -0.018492     -0.008519     -0.022298
      0.88467      1.89023     15.33981        -0.000580     -0.009471      0.056218
      8.86814      0.00000     16.06742        -0.025776     -0.000004      0.006707
      5.99960      0.00000     15.32593         0.040427      0.000001      0.060381
      3.74106      1.89255     16.08911        -0.052930     -0.037335     -0.043006
      2.37094      1.90035     18.96724        -0.163547     -0.033674      0.063646
      0.03269     11.35658     19.52079         0.154096      0.000009      0.347453
      7.50799     11.35658     18.93605        -0.015824     -0.000045      0.094536
      5.16726      1.88279     19.52644         0.192775     -0.155371      0.323175
      8.27721      5.67829      8.23277         3.794520      0.000011      1.177487
      6.06281      3.78553      9.11232        -1.591903     -0.002591     -1.975583
      3.14972      3.78553      8.23277         3.752303      0.001569      1.161844
      0.93532      5.67829      9.11232        -1.603330     -0.000013     -1.911234
      9.70238      5.67829     11.78038         0.007917      0.000016      0.022948
      7.45463      3.78970     12.59104        -0.006983     -0.003979     -0.015888
      4.55328      3.78773     11.78047         0.018895     -0.005956      0.014915
      2.32119      5.67829     12.63432        -0.020750     -0.000008     -0.053177
      0.91249      5.67829     15.34690        -0.070332      0.000016      0.012529
      8.88150      3.78921     16.05093        -0.004124      0.001159      0.046257
      5.99342      3.78716     15.31050         0.067290     -0.031136      0.027919
      3.76271      5.67829     16.17439        -0.099459     -0.000007     -0.316145
      2.40549      5.67829     18.98177        -0.550358     -0.000015     -0.051902
      0.00842      3.79723     19.52238        -0.226639      0.003676      0.535316
      7.47583      3.79638     18.86549         0.421443     -0.098921      0.541271
      5.19205      5.67829     19.70006        -0.427626      0.000041     -1.415576
      4.99460      7.57105      7.50000        -1.679689     -0.000126      0.457362
     10.12209      9.46382      7.50000        -1.673421      0.000259      0.451210
      9.34542      9.46382      9.84509        -1.213272     -0.002630     -0.097140
      6.43232      9.46382      8.96555         0.138832     -0.003711      0.018592
      7.90770      7.57105      8.37954         0.477903     -0.000968     -1.211205
      6.39199      7.57105     11.01817         0.120360      0.006311      0.267113
      4.21792      7.57105      9.84509        -1.221971     -0.002563     -0.090326
      1.30483      7.57105      8.96555         0.151833      0.009635      0.010650
      2.78021      9.46382      8.37954         0.490363     -0.005154     -1.213938
      1.26450      9.46382     11.01817         0.217797     -0.003241      0.338290
      0.50837      9.46640     13.38270        -0.225635     -0.001177      0.110162
      7.83594      9.46312     12.47941        -0.218101     -0.002431      0.088730
[...]
      2.71520      5.67829     14.55661         0.299458      0.000006     -0.045413
      1.98325      5.67829     16.94663        -0.125843      0.000000      0.256607
      9.27670      5.67829     15.98882        -0.186962     -0.000029      0.074753
      0.52184      3.78736     15.42860         0.239661      0.021695     -0.098543
      9.35631      3.77004     17.98543         0.117949     -0.003471     -0.300371
      7.11712      3.75253     16.88311        -0.260927     -0.000748      0.082930
      4.15087      3.78726     16.02060        -0.230340      0.061608      0.122998
      5.64291      5.67829     15.45384         0.174693      0.000023     -0.061956
      4.23057      5.67829     18.08941         0.563011      0.000005      0.577804
      3.53977      5.67829     20.45395         0.238090     -0.000005      0.996867
      0.52811      5.67829     19.73658         0.041092     -0.000019      0.199804
      1.98554      3.79013     18.99935         0.351111      0.091928     -0.118435
      8.62932      3.85843     20.36096         0.030255     -0.108102      0.253114
      5.68519      3.76622     19.73148        -0.285151      0.564101      0.558113
      7.08845      5.67829     18.82704        -0.197162     -0.000039      0.300824
    total drift:                                0.002395     -0.000028      0.012568

  FREE ENERGIE OF THE ION-ELECTRON SYSTEM (eV)
  free  energy   TOTEN  =      -939.35696523 eV

  energy  without entropy=     -939.35696523  energy(sigma->0) =     -939.35696523