 vasp.6.3.0 20Jan22 (build Apr  1 2022 16:44:48) complex
 executed on        HPECrayEX_GCC date 2023.02.23  08:40:24

 INCAR:
   SYSTEM = MgO-rocksalt
   ISMEAR = 0
   SIGMA = 0.05
   EDIFF = 1E-6
   ALGO = ALL
   ISTART = 0
   IBRION = -1
   NSW = 0
   ISYM = 0
   DIPOL = 0.5 0.5 0.5
   IDIPOL = 3
   LDIPOL = .TRUE.
   LHFCALC = .TRUE.
   GGA = B5
   AEXX = 0.2
   AGGAX = 0.72
   AGGAC = 0.81
   ALDAC = 0.19
   IVDW = 1
   VDW_S6 = 1.05
   VDW_C6 = 0.63 0.70
   VDW_R0 = 1.243 1.342
   ENCUT = 600
   PREC = Accurate
   LASPH = .TRUE.
   LREAL = .FALSE.
   ISPIN = 1
   NELM = 200
   NELMIN = 8
   NCORE = 8
   KPAR = 1
   LWAVE = .FALSE.
   LCHARG = .FALSE.

 POTCAR:    PAW_PBE Mg_pv 13Apr2007
 POTCAR:    PAW_PBE O 08Apr2002
 POTCAR:    PAW_PBE Mg_pv 13Apr2007
   VRHFIN =Mg: p6s2

   TITEL  = PAW_PBE Mg_pv 13Apr2007
   POMASS =   24.305; ZVAL   =    8.000    mass and valenz
   ENMAX  =  403.929; ENMIN  =  302.947 eV

   TITEL  = PAW_PBE O 08Apr2002
   POMASS =   16.000; ZVAL   =    6.000    mass and valenz
   ENMAX  =  400.000; ENMIN  =  300.000 eV

  PAW_PBE Mg_pv 13Apr2007               :
  PAW_PBE O 08Apr2002                   :

 POSCAR: Mg  O
  positions in direct lattice
 exchange correlation table for  LEXCH =       12
   RHO(1)=    0.500       N(1)  =     2000
   RHO(2)=  100.500       N(2)  =     4000

 ion  position               nearest neighbor table
   1  0.250  0.000  0.351-  33 2.12  35 2.12  36 2.12  43 2.12  52 2.12
   2  0.500  0.250  0.351-  34 2.12  35 2.12  36 2.12  44 2.12  51 2.12
   3  0.250  0.250  0.450-  35 2.12  34 2.12  33 2.12  41 2.12  50 2.12  39 2.12
   4  0.500  0.000  0.450-  36 2.12  34 2.12  33 2.12  42 2.12  49 2.12  40 2.12
   5  0.250  0.000  0.550-  40 2.11  39 2.12  47 2.12  56 2.12  33 2.12  37 2.16
   6  0.500  0.251  0.551-  48 2.11  55 2.12  39 2.12  40 2.13  34 2.14  38 2.14
   7  0.250  0.250  0.648-  39 2.09  37 2.12  54 2.12  38 2.12  45 2.12
   8  0.500  0.000  0.648-  38 2.09  46 2.09  40 2.10  53 2.12  37 2.12
   9  0.250  0.500  0.351-  41 2.12  35 2.12  43 2.12  44 2.12  60 2.12
  10  0.500  0.750  0.351-  42 2.12  36 2.12  43 2.12  44 2.12  59 2.12
  11  0.250  0.750  0.450-  43 2.12  41 2.12  42 2.12  33 2.12  58 2.12  47 2.12
  12  0.500  0.500  0.450-  44 2.12  41 2.12  42 2.12  34 2.12  57 2.12  48 2.14
  13  0.251  0.500  0.551-  48 2.11  39 2.12  47 2.12  64 2.13  41 2.14  45 2.14
  14  0.500  0.749  0.551-  48 2.10  63 2.12  47 2.12  40 2.13  42 2.14  46 2.15
  15  0.249  0.750  0.648-  47 2.09  62 2.11  37 2.12  45 2.12  46 2.12
  16  0.500  0.498  0.655-  38 2.13  45 2.14  61 2.14  46 2.17  48 2.23
  17  0.750  0.000  0.351-  49 2.12  36 2.12  51 2.12  52 2.12  59 2.12
  18  0.000  0.250  0.351-  50 2.12  35 2.12  51 2.12  52 2.12  60 2.12
  19  0.750  0.250  0.450-  51 2.12  49 2.12  50 2.12  34 2.12  57 2.12  55 2.12
  20  0.000  0.000  0.450-  52 2.12  49 2.12  50 2.12  33 2.12  58 2.12  56 2.12
  21  0.750  0.000  0.550-  40 2.11  55 2.12  63 2.12  56 2.12  49 2.12  53 2.16
  22  0.000  0.250  0.550-  64 2.11  55 2.12  39 2.12  56 2.12  50 2.12  54 2.16
  23  0.750  0.250  0.648-  55 2.09  53 2.12  54 2.12  38 2.12  61 2.12
  24  0.000  0.000  0.648-  56 2.10  37 2.11  53 2.11  54 2.11  62 2.11
  25  0.750  0.500  0.351-  57 2.12  51 2.12  44 2.12  59 2.12  60 2.12
  26  0.000  0.750  0.351-  58 2.12  52 2.12  43 2.12  59 2.12  60 2.12
  27  0.750  0.750  0.450-  59 2.12  49 2.12  57 2.12  58 2.12  42 2.12  63 2.12
  28  0.000  0.500  0.450-  60 2.12  50 2.12  57 2.12  58 2.12  41 2.12  64 2.12
  29  0.749  0.500  0.551-  48 2.11  55 2.12  63 2.12  64 2.13  57 2.14  61 2.14
  30  0.000  0.750  0.550-  64 2.11  63 2.12  47 2.12  56 2.12  58 2.12  62 2.16
  31  0.751  0.750  0.648-  63 2.09  62 2.11  53 2.12  61 2.12  46 2.12
  32  0.000  0.500  0.648-  45 2.09  61 2.09  64 2.10  54 2.12  62 2.12
  33  0.250  0.000  0.450-   1 2.12   3 2.12   4 2.12  11 2.12  20 2.12   5 2.12
  34  0.500  0.250  0.450-   2 2.12   3 2.12   4 2.12  12 2.12  19 2.12   6 2.14
  35  0.250  0.250  0.351-   3 2.12   2 2.12   1 2.12   9 2.12  18 2.12
  36  0.500  0.000  0.351-   4 2.12   2 2.12   1 2.12  10 2.12  17 2.12
  37  0.249  1.000  0.651-  24 2.11   7 2.12  15 2.12   8 2.12   5 2.16
  38  0.500  0.247  0.651-   8 2.09   7 2.12  23 2.12  16 2.13   6 2.14
  39  0.250  0.250  0.550-   7 2.09   5 2.12  22 2.12  13 2.12   6 2.12   3 2.12
  40  0.500  1.000  0.550-   8 2.10  21 2.11   5 2.11   4 2.12  14 2.13   6 2.13
  41  0.250  0.500  0.450-   9 2.12   3 2.12  11 2.12  12 2.12  28 2.12  13 2.14
  42  0.500  0.750  0.450-  10 2.12   4 2.12  11 2.12  12 2.12  27 2.12  14 2.14
  43  0.250  0.750  0.351-  11 2.12   9 2.12  10 2.12   1 2.12  26 2.12
  44  0.500  0.500  0.351-  12 2.12   9 2.12  10 2.12   2 2.12  25 2.12
  45  0.247  0.500  0.651-  32 2.09  15 2.12   7 2.12  13 2.14  16 2.14
  46  0.500  0.753  0.652-   8 2.09  31 2.12  15 2.12  14 2.15  16 2.17
  47  0.250  0.750  0.550-  15 2.09   5 2.12  14 2.12  30 2.12  13 2.12  11 2.12
  48  0.500  0.500  0.551-  14 2.10  13 2.11  29 2.11   6 2.11  12 2.14  16 2.23
  49  0.750  0.000  0.450-  17 2.12   4 2.12  19 2.12  20 2.12  27 2.12  21 2.12
  50  0.000  0.250  0.450-  18 2.12   3 2.12  19 2.12  20 2.12  28 2.12  22 2.12
  51  0.750  0.250  0.351-  19 2.12  17 2.12  18 2.12   2 2.12  25 2.12
  52  0.000  0.000  0.351-  20 2.12  17 2.12  18 2.12   1 2.12  26 2.12
  53  0.751  1.000  0.651-  24 2.11  23 2.12  31 2.12   8 2.12  21 2.16
  54  0.000  0.249  0.651-  24 2.11  23 2.12   7 2.12  32 2.12  22 2.16
  55  0.750  0.250  0.550-  23 2.09  21 2.12  22 2.12  29 2.12   6 2.12  19 2.12
  56  0.000  1.000  0.550-  24 2.10  30 2.12  20 2.12  21 2.12   5 2.12  22 2.12
  57  0.750  0.500  0.450-  25 2.12  19 2.12  12 2.12  27 2.12  28 2.12  29 2.14
  58  0.000  0.750  0.450-  26 2.12  20 2.12  11 2.12  27 2.12  28 2.12  30 2.12
  59  0.750  0.750  0.351-  27 2.12  17 2.12  25 2.12  26 2.12  10 2.12
  60  0.000  0.500  0.351-  28 2.12  18 2.12  25 2.12  26 2.12   9 2.12
  61  0.753  0.500  0.651-  32 2.09  31 2.12  23 2.12  29 2.14  16 2.14
  62  0.000  0.751  0.651-  24 2.11  15 2.11  31 2.11  32 2.12  30 2.16
  63  0.750  0.750  0.550-  31 2.09  21 2.12  14 2.12  30 2.12  29 2.12  27 2.12
  64  0.000  0.500  0.550-  32 2.10  30 2.11  22 2.11  28 2.12  13 2.13  29 2.13

IMPORTANT INFORMATION: All symmetrisations will be switched off!
NOSYMM: (Re-)initialisation of all symmetry stuff for point group C_1.

                                     Primitive cell

  volume of cell :    1530.6606

  direct lattice vectors                    reciprocal lattice vectors
     8.467142631  0.000000000  0.000000000     0.118103597  0.000000000  0.000000000
     0.000000000  8.467142631  0.000000000     0.000000000  0.118103597  0.000000000
     0.000000000  0.000000000 21.350356973     0.000000000  0.000000000  0.046837624

  length of vectors
     8.467142631  8.467142631 21.350356973     0.118103597  0.118103597  0.046837624

  position of ions in fractional coordinates (direct lattice)
     0.250000000  0.000000000  0.351282183
     0.500000000  0.250000000  0.351282183
     0.250000000  0.250000000  0.450427394
     0.500000000  0.000000000  0.450427394
     0.250268217  0.000041151  0.549894757
     0.500000260  0.251202403  0.550507467
     0.249728290  0.249620539  0.647823269
     0.500000335  0.000423602  0.647863994
     0.250000000  0.500000000  0.351282183
     0.500000000  0.750000000  0.351282183
     0.250000000  0.750000000  0.450427394
     0.500000000  0.500000000  0.450427394
     0.251309792  0.499895591  0.550580922
     0.500000253  0.748649587  0.550631205
     0.249426297  0.750199092  0.647640585
     0.500000093  0.497808846  0.654967657
     0.750000000  0.000000000  0.351282183
     0.000000000  0.250000000  0.351282183
     0.750000000  0.250000000  0.450427394
     0.000000000  0.000000000  0.450427394
     0.749732268  0.000041185  0.549894780
     0.000000154  0.250245864  0.549893189
     0.750272478  0.249620509  0.647823235
     0.000000368  0.000020197  0.648085502
     0.750000000  0.500000000  0.351282183
     0.000000000  0.750000000  0.351282183
     0.750000000  0.750000000  0.450427394
     0.000000000  0.500000000  0.450427394
     0.748690697  0.499895573  0.550580955
     0.000000189  0.749678922  0.549868733
     0.750574450  0.750199078  0.647640546
     0.000000440  0.499867018  0.647860306
     0.250000000  0.000000000  0.450427394
     0.500000000  0.250000000  0.450427394
     0.250000000  0.250000000  0.351282183
     0.500000000  0.000000000  0.351282183
     0.249275292  0.999941342  0.650861636
     0.500000367  0.247056483  0.650592119
     0.249822450  0.249838212  0.549751138
     0.500000279  0.999791552  0.549624400
     0.250000000  0.500000000  0.450427394
     0.500000000  0.750000000  0.450427394
     0.250000000  0.750000000  0.351282183
     0.500000000  0.500000000  0.351282183
     0.247155942  0.499955757  0.650910805
     0.500000388  0.753373945  0.651544723
     0.250008885  0.750103074  0.549805649
     0.500000145  0.500092976  0.550664529
     0.750000000  0.000000000  0.450427394
     0.000000000  0.250000000  0.450427394
     0.750000000  0.250000000  0.351282183
     0.000000000  0.000000000  0.351282183
     0.750725349  0.999941393  0.650861754
     0.000000382  0.249320848  0.650888441
     0.750177990  0.249838083  0.549751195
     0.000000149  0.999914128  0.549669166
     0.750000000  0.500000000  0.450427394
     0.000000000  0.750000000  0.450427394
     0.750000000  0.750000000  0.351282183
     0.000000000  0.500000000  0.351282183
     0.752844602  0.499955710  0.650911020
     0.000000437  0.750604221  0.650833045
     0.749991545  0.750103197  0.549805674
     0.000000289  0.500019120  0.549609315

  ion indices of the primitive-cell ions
   primitive index   ion index
                 1           1
                 2           2
                 3           3
                 4           4
                 5           5
                 6           6
                 7           7
                 8           8
                 9           9
                10          10
                11          11
                12          12
                13          13
                14          14
                15          15
                16          16
                17          17
                18          18
                19          19
                20          20
                21          21
                22          22
                23          23
                24          24
                25          25
                26          26
                27          27
                28          28
                29          29
                30          30
                31          31
                32          32
                33          33
                34          34
                35          35
                36          36
                37          37
                38          38
                39          39
                40          40
                41          41
                42          42
                43          43
                44          44
[...]
   0.50000000  0.75000000  0.45042739
   0.25000000  0.75000000  0.35128218
   0.50000000  0.50000000  0.35128218
   0.24715594  0.49995576  0.65091080
   0.50000039  0.75337394  0.65154472
   0.25000889  0.75010307  0.54980565
   0.50000015  0.50009298  0.55066453
   0.75000000  0.00000000  0.45042739
   0.00000000  0.25000000  0.45042739
   0.75000000  0.25000000  0.35128218
   0.00000000  0.00000000  0.35128218
   0.75072535  0.99994139  0.65086175
   0.00000038  0.24932085  0.65088844
   0.75017799  0.24983808  0.54975119
   0.00000015  0.99991413  0.54966917
   0.75000000  0.50000000  0.45042739
   0.00000000  0.75000000  0.45042739
   0.75000000  0.75000000  0.35128218
   0.00000000  0.50000000  0.35128218
   0.75284460  0.49995571  0.65091102
   0.00000044  0.75060422  0.65083305
   0.74999154  0.75010320  0.54980567
   0.00000029  0.50001912  0.54960932

 position of ions in cartesian coordinates  (Angst):
   2.11678566  0.00000000  7.50000000
   4.23357132  2.11678566  7.50000000
   2.11678566  2.11678566  9.61678566
   4.23357132  0.00000000  9.61678566
   2.11905669  0.00034843 11.74044935
   4.23357352  2.12696657 11.75353093
   2.11448505  2.11357271 13.83125804
   4.23357416  0.00358670 13.83212753
   2.11678566  4.23357132  7.50000000
   4.23357132  6.35035697  7.50000000
   2.11678566  6.35035697  9.61678566
   4.23357132  4.23357132  9.61678566
   2.12787586  4.23268727 11.75509924
   4.23357345  6.33892283 11.75617278
   2.11192803  6.35204271 13.82735769
   4.23357210  4.21501850 13.98379328
   6.35035697  0.00000000  7.50000000
   0.00000000  2.11678566  7.50000000
   6.35035697  2.11678566  9.61678566
   0.00000000  0.00000000  9.61678566
   6.34809005  0.00034872 11.74044985
   0.00000130  2.11886743 11.74041589
   6.35266408  2.11357245 13.83125732
   0.00000311  0.00017101 13.83685681
   6.35035697  4.23357132  7.50000000
   0.00000000  6.35035697  7.50000000
   6.35035697  6.35035697  9.61678566
   0.00000000  4.23357132  9.61678566
   6.33927092  4.23268712 11.75509994
   0.00000160  6.34763836 11.73989373
   6.35522092  6.35204260 13.82735685
   0.00000372  4.23244534 13.83204879
   2.11678566  0.00000000  9.61678566
   4.23357132  2.11678566  9.61678566
   2.11678566  2.11678566  7.50000000
   4.23357132  0.00000000  7.50000000
   2.11064945  8.46664597 13.89612827
   4.23357442  2.09186248 13.89037399
   2.11528232  2.11541578 11.73738305
   4.23357368  8.46537767 11.73467715
   2.11678566  4.23357132  9.61678566
   4.23357132  6.35035697  9.61678566
   2.11678566  6.35035697  7.50000000
   4.23357132  4.23357132  7.50000000
   2.09270461  4.23319670 13.89717804
   4.23357460  6.37892464 13.91071242
   2.11686089  6.35122972 11.73854687
   4.23357254  4.23435855 11.75688426
   6.35035697  0.00000000  9.61678566
   0.00000000  2.11678566  9.61678566
   6.35035697  2.11678566  7.50000000
   0.00000000  0.00000000  7.50000000
   6.35649860  8.46664639 13.89613078
   0.00000324  2.11103518 13.89670056
   6.35186404  2.11541468 11.73738425
   0.00000126  8.46641554 11.73563290
   6.35035697  4.23357132  9.61678566
   0.00000000  6.35035697  9.61678566
   6.35035697  6.35035697  7.50000000
   0.00000000  4.23357132  7.50000000
   6.37444262  4.23319630 13.89718265
   0.00000370  6.35547300 13.89551784
   6.35028538  6.35123076 11.73854741
   0.00000245  4.23373320 11.73435508

--------------------------------------- Iteration      FINAL  ---------------------------------------

--------------------OUTCAR has been truncated-------------------------

[...]

--------------------OUTCAR has been truncated-------------------------

  DFT-D2 method for vdW energy calculation

  Parameters of vdW forcefield:
         C6(Jnm^6/mol)     R0(A)
   Mg       0.630          1.243
   O        0.700          1.342

  vdW correction parametrized for the method °Pü      

  IVDW =   1
  VDW_RADIUS =    50.000 A
  VDW_S6 =     1.050
  VDW_SR =     1.000
  VDW_D =    20.000
  LVDW_EWALD = F

  Number of pair interactions contributing to vdW energy:  719126
  Edisp (eV):   -5.01280

 VOLUME and BASIS-vectors are now :
  energy-cutoff  :      600.00
  volume of cell :     1530.66
      direct lattice vectors                 reciprocal lattice vectors
     8.467142631  0.000000000  0.000000000     0.118103597  0.000000000  0.000000000
     0.000000000  8.467142631  0.000000000     0.000000000  0.118103597  0.000000000
     0.000000000  0.000000000 21.350356973     0.000000000  0.000000000  0.046837624

  length of vectors
     8.467142631  8.467142631 21.350356973     0.118103597  0.118103597  0.046837624

 FORCES acting on ions:
    Electron-Ion                     Ewald-Force                    Non-Local-Force
   -.278E+00 0.477E-01 0.205E+04   0.284E+00 -.489E-01 -.205E+04   -.383E-02 0.742E-03 -.637E+01
   -.197E-04 -.350E+00 0.205E+04   0.138E-04 0.359E+00 -.204E+04   0.103E-06 -.612E-02 -.638E+01
   -.144E+01 -.151E+01 0.680E+03   0.148E+01 0.156E+01 -.680E+03   -.218E-01 -.297E-01 0.447E+00
   0.250E-04 0.258E+00 0.680E+03   -.157E-04 -.288E+00 -.680E+03   -.894E-05 0.191E-01 0.339E+00
   -.994E+00 0.564E+00 -.681E+03   0.983E+00 -.571E+00 0.681E+03   -.134E-01 -.209E-02 -.134E+00
   -.644E-05 -.456E+01 -.688E+03   -.127E-04 0.491E+01 0.688E+03   0.108E-04 -.322E+00 -.260E+00
   -.217E+01 -.283E+01 -.203E+04   0.155E+01 0.230E+01 0.202E+04   0.435E+00 0.378E+00 0.538E+01
   0.121E-03 0.159E+01 -.203E+04   -.923E-04 -.187E+01 0.202E+04   -.978E-05 0.169E+00 0.510E+01
   -.352E+00 -.480E-01 0.205E+04   0.362E+00 0.491E-01 -.204E+04   -.652E-02 -.673E-03 -.639E+01
   -.170E-04 0.350E+00 0.205E+04   0.143E-04 -.359E+00 -.204E+04   0.526E-06 0.637E-02 -.640E+01
   -.157E+01 0.151E+01 0.679E+03   0.164E+01 -.156E+01 -.680E+03   -.437E-01 0.311E-01 0.457E+00
   -.155E-03 -.281E+00 0.675E+03   0.150E-03 0.305E+00 -.675E+03   0.319E-05 -.153E-01 0.599E+00
   -.476E+01 -.725E+00 -.690E+03   0.514E+01 0.730E+00 0.690E+03   -.343E+00 0.333E-02 -.264E+00
   -.728E-04 0.515E+01 -.693E+03   0.575E-04 -.550E+01 0.694E+03   0.437E-05 0.326E+00 -.189E+00
   -.470E+01 0.351E+01 -.203E+04   0.436E+01 -.303E+01 0.202E+04   0.286E+00 -.355E+00 0.529E+01
   -.595E-03 -.712E+01 -.209E+04   0.587E-03 0.701E+01 0.208E+04   0.225E-04 0.283E+00 0.628E+01
   0.278E+00 0.477E-01 0.205E+04   -.284E+00 -.489E-01 -.205E+04   0.384E-02 0.751E-03 -.637E+01
   0.191E-04 -.276E+00 0.205E+04   -.131E-04 0.281E+00 -.205E+04   -.838E-05 -.353E-02 -.637E+01
   0.144E+01 -.151E+01 0.680E+03   -.148E+01 0.156E+01 -.680E+03   0.218E-01 -.297E-01 0.447E+00
   -.138E-04 0.113E+00 0.681E+03   0.199E-04 -.111E+00 -.682E+03   -.524E-05 -.140E-02 0.357E+00
   0.994E+00 0.564E+00 -.681E+03   -.983E+00 -.571E+00 0.681E+03   0.134E-01 -.208E-02 -.134E+00
   -.130E-03 -.922E+00 -.681E+03   0.153E-03 0.907E+00 0.682E+03   -.961E-05 -.112E-01 -.106E+00
   0.217E+01 -.283E+01 -.203E+04   -.155E+01 0.230E+01 0.202E+04   -.435E+00 0.378E+00 0.538E+01
   0.646E-04 0.305E+00 -.203E+04   -.523E-04 -.300E+00 0.203E+04   0.161E-05 -.929E-02 0.521E+01
   0.352E+00 -.480E-01 0.205E+04   -.362E+00 0.491E-01 -.204E+04   0.652E-02 -.678E-03 -.639E+01
   0.120E-05 0.276E+00 0.205E+04   -.140E-04 -.281E+00 -.205E+04   -.722E-06 0.363E-02 -.636E+01
   0.157E+01 0.151E+01 0.679E+03   -.164E+01 -.156E+01 -.680E+03   0.437E-01 0.311E-01 0.457E+00
   0.168E-03 -.118E+00 0.680E+03   -.148E-03 0.113E+00 -.680E+03   -.496E-05 0.322E-02 0.339E+00
   0.476E+01 -.725E+00 -.690E+03   -.514E+01 0.731E+00 0.690E+03   0.343E+00 0.332E-02 -.264E+00
   0.649E-04 0.927E+00 -.681E+03   -.483E-04 -.910E+00 0.681E+03   0.807E-06 0.111E-01 -.125E+00
   0.470E+01 0.351E+01 -.203E+04   -.436E+01 -.303E+01 0.202E+04   -.286E+00 -.355E+00 0.529E+01
   0.667E-03 -.400E+00 -.203E+04   -.639E-03 0.382E+00 0.202E+04   -.345E-04 0.207E-01 0.514E+01
   -.704E+00 0.174E+00 0.510E+03   0.712E+00 -.176E+00 -.510E+03   -.107E-01 0.261E-02 -.399E-01
   -.353E-04 -.111E+01 0.507E+03   0.120E-04 0.106E+01 -.507E+03   0.186E-04 0.632E-01 -.136E+00
   -.235E+00 -.240E+00 0.154E+04   0.241E+00 0.247E+00 -.155E+04   -.741E-02 -.894E-02 0.313E+01
   0.165E-05 0.418E-01 0.154E+04   0.488E-05 -.448E-01 -.155E+04   -.461E-05 0.372E-02 0.313E+01
   -.122E+01 0.605E+00 -.155E+04   0.130E+01 -.714E+00 0.156E+04   -.252E-01 0.126E+00 -.509E+01
   -.691E-04 -.570E+01 -.154E+04   0.125E-03 0.530E+01 0.155E+04   -.383E-04 0.658E+00 -.408E+01
   -.189E+01 -.213E+01 -.504E+03   0.184E+01 0.208E+01 0.504E+03   0.726E-01 0.633E-01 0.559E+00
   0.924E-04 0.770E+00 -.503E+03   -.995E-04 -.813E+00 0.502E+03   -.497E-05 0.581E-01 0.517E+00
   -.111E+01 -.183E+00 0.507E+03   0.105E+01 0.188E+00 -.507E+03   0.672E-01 -.575E-02 -.162E+00
   -.318E-04 0.111E+01 0.507E+03   0.147E-04 -.105E+01 -.507E+03   0.201E-04 -.725E-01 -.186E+00
   -.248E+00 0.240E+00 0.154E+04   0.258E+00 -.247E+00 -.155E+04   -.116E-01 0.886E-02 0.313E+01
   -.225E-04 -.418E-01 0.154E+04   0.172E-04 0.450E-01 -.154E+04   0.713E-05 -.403E-02 0.312E+01
   -.756E+01 -.115E+01 -.155E+04   0.735E+01 0.127E+01 0.155E+04   0.488E+00 -.148E+00 -.425E+01
   -.975E-04 0.102E+02 -.155E+04   0.127E-03 -.102E+02 0.156E+04   -.288E-04 -.374E+00 -.449E+01
   -.253E+01 0.223E+01 -.505E+03   0.249E+01 -.218E+01 0.504E+03   0.416E-01 -.695E-01 0.594E+00
   -.522E-03 -.122E+01 -.530E+03   0.514E-03 0.127E+01 0.531E+03   0.123E-04 -.626E-01 -.824E+00
   0.704E+00 0.174E+00 0.510E+03   -.712E+00 -.176E+00 -.510E+03   0.108E-01 0.261E-02 -.399E-01
   0.431E-04 -.696E+00 0.510E+03   -.500E-04 0.705E+00 -.510E+03   0.599E-05 -.112E-01 -.394E-01
   0.235E+00 -.240E+00 0.154E+04   -.241E+00 0.247E+00 -.155E+04   0.740E-02 -.893E-02 0.313E+01
   -.172E-04 0.280E-01 0.154E+04   -.391E-05 -.278E-01 -.155E+04   0.738E-05 -.274E-03 0.314E+01
   0.122E+01 0.606E+00 -.155E+04   -.130E+01 -.714E+00 0.156E+04   0.251E-01 0.126E+00 -.509E+01
   -.181E-05 -.108E+01 -.155E+04   0.119E-04 0.110E+01 0.156E+04   -.162E-04 0.286E-01 -.506E+01
   0.189E+01 -.213E+01 -.504E+03   -.184E+01 0.208E+01 0.504E+03   -.726E-01 0.634E-01 0.559E+00
   -.227E-03 0.109E+00 -.505E+03   0.250E-03 -.114E+00 0.505E+03   -.122E-04 0.911E-02 0.227E+00
   0.111E+01 -.183E+00 0.507E+03   -.105E+01 0.188E+00 -.507E+03   -.672E-01 -.575E-02 -.162E+00
   0.720E-04 0.689E+00 0.510E+03   -.665E-04 -.693E+00 -.510E+03   0.544E-05 0.677E-02 -.270E-01
   0.248E+00 0.240E+00 0.154E+04   -.258E+00 -.247E+00 -.155E+04   0.116E-01 0.885E-02 0.313E+01
   0.411E-05 -.279E-01 0.154E+04   -.163E-04 0.278E-01 -.155E+04   -.490E-05 0.172E-03 0.313E+01
   0.756E+01 -.115E+01 -.155E+04   -.735E+01 0.127E+01 0.155E+04   -.488E+00 -.148E+00 -.425E+01
   0.226E-03 0.115E+01 -.155E+04   -.230E-03 -.117E+01 0.156E+04   -.530E-05 -.337E-01 -.509E+01
   0.253E+01 0.223E+01 -.505E+03   -.249E+01 -.218E+01 0.504E+03   -.416E-01 -.696E-01 0.594E+00
   0.346E-03 -.102E+00 -.503E+03   -.311E-03 0.102E+00 0.502E+03   -.423E-04 -.363E-02 0.531E+00
   -.204E-04 -.796E+00 0.186E+02   0.702E-13 -.141E-12 0.364E-11   -.571E-05 0.729E+00 -.164E+02

 POSITION                                       TOTAL-FORCE (eV/Angst)
      2.11679      0.00000      7.50000         0.001584     -0.000300      0.507825
      4.23357      2.11679      7.50000        -0.000006      0.002238      0.511492
      2.11679      2.11679      9.61679         0.010484      0.013759      0.017708
      4.23357      0.00000      9.61679        -0.000000     -0.008310      0.041818
      2.11906      0.00035     11.74045        -0.023510     -0.008486      0.021443
      4.23357      2.12697     11.75353        -0.000008     -0.000863     -0.078940
      2.11449      2.11357     13.83126        -0.130558     -0.102770      0.013260
      4.23357      0.00359     13.83213         0.000017     -0.086381      0.082256
      2.11679      4.23357      7.50000         0.002325      0.000355      0.513400
      4.23357      6.35036      7.50000        -0.000002     -0.002220      0.515597
      2.11679      6.35036      9.61679         0.019340     -0.014279      0.023743
      4.23357      4.23357      9.61679        -0.000002      0.006092      0.046133
      2.12788      4.23269     11.75510         0.003119      0.008122     -0.057702
      4.23357      6.33892     11.75617        -0.000010     -0.000413     -0.018136
      2.11193      6.35204     13.82736        -0.026836      0.093066      0.084370
      4.23357      4.21502     13.98379         0.000014      0.182619     -0.909480
      6.35036      0.00000      7.50000        -0.001570     -0.000303      0.507817
      0.00000      2.11679      7.50000        -0.000001      0.001515      0.507903
      6.35036      2.11679      9.61679        -0.010476      0.013751      0.017710
      0.00000      0.00000      9.61679         0.000000      0.000493      0.023494
      6.34809      0.00035     11.74045         0.023501     -0.008481      0.021425
      0.00000      2.11887     11.74042         0.000013     -0.025846      0.017177
      6.35266      2.11357     13.83126         0.130542     -0.102776      0.013392
      0.00000      0.00017     13.83686         0.000014     -0.004699      0.023650
      6.35036      4.23357      7.50000        -0.002314      0.000364      0.513374
      0.00000      6.35036      7.50000        -0.000014     -0.001492      0.506942
      6.35036      6.35036      9.61679        -0.019336     -0.014272      0.023753
      0.00000      4.23357      9.61679         0.000014     -0.001382      0.040089
      6.33927      4.23269     11.75510        -0.003134      0.008128     -0.057690
      0.00000      6.34764     11.73989         0.000017      0.027503      0.019292
      6.35522      6.35204     13.82736         0.026813      0.093061      0.084297
      0.00000      4.23245     13.83205        -0.000007      0.003595      0.070784
      2.11679      0.00000      9.61679        -0.004338      0.000429      0.041280
      4.23357      2.11679      9.61679        -0.000002      0.017799      0.071269
      2.11679      2.11679      7.50000        -0.002486     -0.002925     -0.392236
      4.23357      0.00000      7.50000         0.000002      0.001303     -0.393106
      2.11065      8.46665     13.89613         0.044489      0.035087     -0.256227
      4.23357      2.09186     13.89037         0.000012      0.359746      0.045282
      2.11528      2.11542     11.73738         0.032244      0.027321      0.026290
      4.23357      8.46538     11.73468        -0.000012      0.022913      0.035975
      2.11679      4.23357      9.61679         0.018795     -0.001276      0.069075
      4.23357      6.35036      9.61679         0.000007     -0.020520      0.065472
      2.11679      6.35036      7.50000        -0.003880      0.002959     -0.392796
      4.23357      4.23357      7.50000         0.000003     -0.001335     -0.397518
      2.09270      4.23320     13.89718         0.359469     -0.039764     -0.010800
      4.23357      6.37892     13.91071        -0.000003     -0.409847     -0.108054
      2.11686      6.35123     11.73855         0.013368     -0.029067      0.008436
      4.23357      4.23436     11.75688         0.000005     -0.023571      0.037254
      6.35036      0.00000      9.61679         0.004348      0.000431      0.041280
      0.00000      2.11679      9.61679        -0.000000     -0.004421      0.041088
      6.35036      2.11679      7.50000         0.002483     -0.002928     -0.392225
      0.00000      0.00000      7.50000        -0.000013     -0.000044     -0.389845
      6.35650      8.46665     13.89613        -0.044534      0.035095     -0.256177
      0.00000      2.11104     13.89670        -0.000007      0.054363     -0.250443
      6.35186      2.11541     11.73738        -0.032252      0.027339      0.026276
      0.00000      8.46642     11.73563         0.000009      0.005122     -0.028571
      6.35036      4.23357      9.61679        -0.018794     -0.001281      0.069075
      0.00000      6.35036      9.61679         0.000012      0.003220      0.043383
      6.35036      6.35036      7.50000         0.003906      0.002962     -0.392861
      0.00000      4.23357      7.50000        -0.000017      0.000092     -0.392962
      6.37444      4.23320     13.89718        -0.359439     -0.039776     -0.010818
      0.00000      6.35547     13.89552        -0.000011     -0.057728     -0.256012
      6.35029      6.35123     11.73855        -0.013365     -0.029092      0.008436
      0.00000      4.23373     11.73436        -0.000013     -0.003994      0.042581
    total drift:                               -0.000029     -0.002390      0.025992

  FREE ENERGIE OF THE ION-ELECTRON SYSTEM (eV)
  free  energy   TOTEN  =      -438.09656996 eV

  energy  without entropy=     -438.09656996  energy(sigma->0) =     -438.09656996