 vasp.6.3.0 20Jan22 (build Apr  1 2022 16:44:48) complex
 executed on        HPECrayEX_GCC date 2022.11.06  23:56:34

 INCAR:
   SYSTEM = MgO-rocksalt
   ISMEAR = 0
   SIGMA = 0.05
   EDIFF = 1E-6
   ALGO = ALL
   ISTART = 0
   IBRION = -1
   NSW = 0
   ISYM = 0
   DIPOL = 0.5 0.5 0.5
   IDIPOL = 3
   LDIPOL = .TRUE.
   LHFCALC = .TRUE.
   GGA = B5
   AEXX = 0.2
   AGGAX = 0.72
   AGGAC = 0.81
   ALDAC = 0.19
   IVDW = 1
   VDW_S6 = 1.05
   VDW_C6 = 0.63 0.70
   VDW_R0 = 1.243 1.342
   ENCUT = 600
   PREC = Accurate
   LASPH = .TRUE.
   LREAL = .FALSE.
   ISPIN = 1
   NELM = 200
   NELMIN = 8
   NCORE = 8
   KPAR = 1
   LWAVE = .FALSE.
   LCHARG = .FALSE.

 POTCAR:    PAW_PBE Mg_pv 13Apr2007
 POTCAR:    PAW_PBE O 08Apr2002
 POTCAR:    PAW_PBE Mg_pv 13Apr2007
   VRHFIN =Mg: p6s2

   TITEL  = PAW_PBE Mg_pv 13Apr2007
   POMASS =   24.305; ZVAL   =    8.000    mass and valenz
   ENMAX  =  403.929; ENMIN  =  302.947 eV

   TITEL  = PAW_PBE O 08Apr2002
   POMASS =   16.000; ZVAL   =    6.000    mass and valenz
   ENMAX  =  400.000; ENMIN  =  300.000 eV

  PAW_PBE Mg_pv 13Apr2007               :
  PAW_PBE O 08Apr2002                   :

 POSCAR: Mg  O
  positions in direct lattice
 exchange correlation table for  LEXCH =       12
   RHO(1)=    0.500       N(1)  =     2000
   RHO(2)=  100.500       N(2)  =     4000

 ion  position               nearest neighbor table
   1  0.000  0.750  0.352-  33 2.11  35 2.11  36 2.11  43 2.11  52 2.11
   2  0.250  0.000  0.352-  34 2.11  35 2.11  36 2.11  44 2.11  51 2.11
   3  0.000  0.000  0.451-  35 2.11  34 2.11  33 2.11  41 2.11  50 2.11  39 2.12
   4  0.250  0.750  0.451-  36 2.11  34 2.11  33 2.11  42 2.11  49 2.11  40 2.12
   5  0.000  0.750  0.550-  40 2.11  56 2.11  39 2.11  47 2.11  33 2.13  37 2.15
   6  0.250  1.000  0.550-  55 2.11  39 2.11  40 2.11  48 2.11  34 2.13  38 2.15
   7  0.000  1.000  0.649-  37 2.11  45 2.11  38 2.11  54 2.11  39 2.11
   8  0.250  0.750  0.649-  40 2.10  37 2.11  38 2.11  46 2.11  53 2.11
   9  0.000  0.250  0.352-  41 2.11  35 2.11  43 2.11  44 2.11  60 2.11
  10  0.250  0.500  0.352-  42 2.11  36 2.11  43 2.11  44 2.11  59 2.11
  11  0.000  0.500  0.451-  43 2.11  41 2.11  42 2.11  33 2.11  58 2.11  47 2.12
  12  0.250  0.250  0.451-  44 2.11  41 2.11  42 2.11  34 2.11  57 2.11  48 2.12
  13  1.000  0.250  0.550-  64 2.11  48 2.11  39 2.11  47 2.11  41 2.13  45 2.15
  14  0.250  0.500  0.550-  63 2.11  48 2.11  40 2.11  47 2.11  42 2.13  46 2.15
  15  0.000  0.500  0.649-  46 2.11  62 2.11  37 2.11  45 2.11  47 2.11
  16  0.250  0.250  0.649-  48 2.10  45 2.11  38 2.11  46 2.11  61 2.11
  17  0.500  0.750  0.352-  49 2.11  36 2.11  51 2.11  52 2.11  59 2.11
  18  0.750  0.000  0.352-  50 2.11  35 2.11  51 2.11  52 2.11  60 2.11
  19  0.500  0.000  0.451-  51 2.11  49 2.11  50 2.11  34 2.11  57 2.11  55 2.12
  20  0.750  0.750  0.451-  52 2.11  49 2.11  50 2.11  33 2.11  58 2.11  56 2.12
  21  0.500  0.750  0.550-  63 2.11  40 2.11  56 2.11  55 2.11  49 2.13  53 2.15
  22  0.750  1.000  0.550-  55 2.11  39 2.11  56 2.11  64 2.11  50 2.13  54 2.15
  23  0.500  1.000  0.649-  54 2.11  38 2.11  61 2.11  53 2.11  55 2.11
  24  0.750  0.750  0.649-  56 2.10  37 2.11  54 2.11  62 2.11  53 2.11
  25  0.500  0.250  0.352-  57 2.11  51 2.11  44 2.11  59 2.11  60 2.11
  26  0.750  0.500  0.352-  58 2.11  52 2.11  43 2.11  59 2.11  60 2.11
  27  0.500  0.500  0.451-  59 2.11  49 2.11  57 2.11  58 2.11  42 2.11  63 2.12
  28  0.750  0.250  0.451-  60 2.11  50 2.11  57 2.11  58 2.11  41 2.11  64 2.12
  29  0.500  0.250  0.550-  63 2.11  64 2.11  48 2.11  55 2.11  57 2.13  61 2.15
  30  0.750  0.500  0.550-  63 2.11  56 2.11  64 2.11  47 2.11  58 2.13  62 2.15
  31  0.500  0.500  0.649-  61 2.11  53 2.11  62 2.11  46 2.11  63 2.12
  32  0.750  0.250  0.649-  64 2.10  45 2.11  54 2.11  62 2.11  61 2.11
  33  0.000  0.750  0.451-   1 2.11   3 2.11   4 2.11  11 2.11  20 2.11   5 2.13
  34  0.250  0.000  0.451-   2 2.11   3 2.11   4 2.11  12 2.11  19 2.11   6 2.13
  35  0.000  0.000  0.352-   3 2.11   2 2.11   1 2.11   9 2.11  18 2.11
  36  0.250  0.750  0.352-   4 2.11   2 2.11   1 2.11  10 2.11  17 2.11
  37  0.000  0.750  0.651-   7 2.11   8 2.11  24 2.11  15 2.11   5 2.15
  38  0.250  1.000  0.651-  23 2.11   8 2.11  16 2.11   7 2.11   6 2.15
  39  0.000  1.000  0.550-  13 2.11   5 2.11  22 2.11   6 2.11   7 2.11   3 2.12
  40  0.250  0.750  0.550-   8 2.10   5 2.11  14 2.11   6 2.11  21 2.11   4 2.12
  41  0.000  0.250  0.451-   9 2.11   3 2.11  11 2.11  12 2.11  28 2.11  13 2.13
  42  0.250  0.500  0.451-  10 2.11   4 2.11  11 2.11  12 2.11  27 2.11  14 2.13
  43  0.000  0.500  0.352-  11 2.11   9 2.11  10 2.11   1 2.11  26 2.11
  44  0.250  0.250  0.352-  12 2.11   9 2.11  10 2.11   2 2.11  25 2.11
  45  0.000  0.250  0.651-   7 2.11  32 2.11  16 2.11  15 2.11  13 2.15
  46  0.250  0.500  0.651-  31 2.11  15 2.11   8 2.11  16 2.11  14 2.15
  47  0.000  0.500  0.550-  13 2.11   5 2.11  30 2.11  14 2.11  15 2.11  11 2.12
  48  0.250  0.250  0.550-  16 2.10  13 2.11  14 2.11   6 2.11  29 2.11  12 2.12
  49  0.500  0.750  0.451-  17 2.11   4 2.11  19 2.11  20 2.11  27 2.11  21 2.13
  50  0.750  0.000  0.451-  18 2.11   3 2.11  19 2.11  20 2.11  28 2.11  22 2.13
  51  0.500  0.000  0.352-  19 2.11  17 2.11  18 2.11   2 2.11  25 2.11
  52  0.750  0.750  0.352-  20 2.11  17 2.11  18 2.11   1 2.11  26 2.11
  53  0.500  0.750  0.651-  31 2.11  23 2.11  24 2.11   8 2.11  21 2.15
  54  0.750  1.000  0.651-  23 2.11  32 2.11  24 2.11   7 2.11  22 2.15
  55  0.500  1.000  0.550-  22 2.11   6 2.11  29 2.11  21 2.11  23 2.11  19 2.12
  56  0.750  0.750  0.550-  24 2.10   5 2.11  30 2.11  22 2.11  21 2.11  20 2.12
  57  0.500  0.250  0.451-  25 2.11  19 2.11  12 2.11  27 2.11  28 2.11  29 2.13
  58  0.750  0.500  0.451-  26 2.11  20 2.11  11 2.11  27 2.11  28 2.11  30 2.13
  59  0.500  0.500  0.352-  27 2.11  17 2.11  25 2.11  26 2.11  10 2.11
  60  0.750  0.250  0.352-  28 2.11  18 2.11  25 2.11  26 2.11   9 2.11
  61  0.500  0.250  0.651-  31 2.11  23 2.11  32 2.11  16 2.11  29 2.15
  62  0.750  0.500  0.651-  31 2.11  15 2.11  32 2.11  24 2.11  30 2.15
  63  0.500  0.500  0.550-  14 2.11  30 2.11  29 2.11  21 2.11  31 2.12  27 2.12
  64  0.750  0.250  0.550-  32 2.10  13 2.11  30 2.11  22 2.11  29 2.11  28 2.12

IMPORTANT INFORMATION: All symmetrisations will be switched off!
NOSYMM: (Re-)initialisation of all symmetry stuff for point group C_1.

                                     Primitive cell

  volume of cell :    1519.8199

  direct lattice vectors                    reciprocal lattice vectors
     8.440984654  0.000000000  0.000000000     0.118469591  0.000000000  0.000000000
     0.000000000  8.440984654  0.000000000     0.000000000  0.118469591  0.000000000
     0.000000000  0.000000000 21.330738491     0.000000000  0.000000000  0.046880702

  length of vectors
     8.440984654  8.440984654 21.330738491     0.118469591  0.118469591  0.046880702

  position of ions in fractional coordinates (direct lattice)
     0.000000000  0.750000000  0.351605267
     0.250000000  0.000000000  0.351605267
     0.000000000  0.000000000  0.450535089
     0.250000000  0.750000000  0.450535089
     0.000000032  0.750000308  0.550157654
     0.250001804  0.999999985  0.550156830
     0.000000025  0.999999965  0.649044687
     0.249949639  0.750019913  0.648553984
     0.000000000  0.250000000  0.351605267
     0.250000000  0.500000000  0.351605267
     0.000000000  0.500000000  0.450535089
     0.250000000  0.250000000  0.450535089
     0.999999999  0.249999656  0.550157653
     0.250064324  0.499999978  0.550190700
     0.000000039  0.499999976  0.649021210
     0.249949646  0.249980067  0.648553964
     0.500000000  0.750000000  0.351605267
     0.750000000  0.000000000  0.351605267
     0.500000000  0.000000000  0.450535089
     0.750000000  0.750000000  0.450535089
     0.500000024  0.749952785  0.550165678
     0.749998232  0.999999984  0.550156825
     0.500000028  0.999999995  0.648979984
     0.750050384  0.750019928  0.648553979
     0.500000000  0.250000000  0.351605267
     0.750000000  0.500000000  0.351605267
     0.500000000  0.500000000  0.450535089
     0.750000000  0.250000000  0.450535089
     0.500000019  0.250047199  0.550165663
     0.749935743  0.499999993  0.550190720
     0.500000026  0.499999955  0.649075882
     0.750050382  0.249980033  0.648553973
     0.000000000  0.750000000  0.450535089
     0.250000000  0.000000000  0.450535089
     0.000000000  0.000000000  0.351605267
     0.250000000  0.750000000  0.351605267
     0.000000028  0.750053908  0.650888780
     0.250061307  0.999999979  0.650913268
     0.000000014  0.999999991  0.549896427
     0.249990992  0.749996648  0.549890507
     0.000000000  0.250000000  0.450535089
     0.250000000  0.500000000  0.450535089
     0.000000000  0.500000000  0.351605267
     0.250000000  0.250000000  0.351605267
     0.000000011  0.249946034  0.650888759
     0.250016454  0.499999995  0.650957230
     0.000000016  0.499999976  0.549906709
     0.249990989  0.250003322  0.549890505
     0.500000000  0.750000000  0.450535089
     0.750000000  0.000000000  0.450535089
     0.500000000  0.000000000  0.351605267
     0.750000000  0.750000000  0.351605267
     0.500000019  0.749946102  0.650910523
     0.749938711  0.999999990  0.650913287
     0.500000024  0.999999994  0.549886279
     0.750009067  0.749996662  0.549890515
     0.500000000  0.250000000  0.450535089
     0.750000000  0.500000000  0.450535089
     0.500000000  0.500000000  0.351605267
     0.750000000  0.250000000  0.351605267
     0.500000030  0.250053852  0.650910528
     0.749983571  0.499999967  0.650957227
     0.500000021  0.499999991  0.549922592
     0.750009042  0.250003314  0.549890512

  ion indices of the primitive-cell ions
   primitive index   ion index
                 1           1
                 2           2
                 3           3
                 4           4
                 5           5
                 6           6
                 7           7
                 8           8
                 9           9
                10          10
                11          11
                12          12
                13          13
                14          14
                15          15
                16          16
                17          17
                18          18
                19          19
                20          20
                21          21
                22          22
                23          23
                24          24
                25          25
                26          26
                27          27
                28          28
                29          29
                30          30
                31          31
                32          32
                33          33
                34          34
                35          35
                36          36
                37          37
                38          38
                39          39
                40          40
                41          41
                42          42
                43          43
                44          44
[...]
   0.25000000  0.50000000  0.45053509
   0.00000000  0.50000000  0.35160527
   0.25000000  0.25000000  0.35160527
   0.00000001  0.24994603  0.65088876
   0.25001645  0.49999999  0.65095723
   0.00000002  0.49999998  0.54990671
   0.24999099  0.25000332  0.54989051
   0.50000000  0.75000000  0.45053509
   0.75000000  0.00000000  0.45053509
   0.50000000  0.00000000  0.35160527
   0.75000000  0.75000000  0.35160527
   0.50000002  0.74994610  0.65091052
   0.74993871  0.99999999  0.65091329
   0.50000002  0.99999999  0.54988628
   0.75000907  0.74999666  0.54989052
   0.50000000  0.25000000  0.45053509
   0.75000000  0.50000000  0.45053509
   0.50000000  0.50000000  0.35160527
   0.75000000  0.25000000  0.35160527
   0.50000003  0.25005385  0.65091053
   0.74998357  0.49999997  0.65095723
   0.50000002  0.49999999  0.54992259
   0.75000904  0.25000331  0.54989051

 position of ions in cartesian coordinates  (Angst):
   0.00000000  6.33073849  7.50000000
   2.11024616  0.00000000  7.50000000
   0.00000000  0.00000000  9.61024616
   2.11024616  6.33073849  9.61024616
   0.00000027  6.33074109 11.73526904
   2.11026139  8.44098453 11.73525146
   0.00000021  8.44098436 13.84460249
   2.10982106  6.33090657 13.83413543
   0.00000000  2.11024616  7.50000000
   2.11024616  4.22049233  7.50000000
   0.00000000  4.22049233  9.61024616
   2.11024616  2.11024616  9.61024616
   8.44098465  2.11024326 11.73526903
   2.11078912  4.22049214 11.73597394
   0.00000033  4.22049212 13.84410170
   2.10982113  2.11007791 13.83413500
   4.22049233  6.33073849  7.50000000
   6.33073849  0.00000000  7.50000000
   4.22049233  0.00000000  9.61024616
   6.33073849  6.33073849  9.61024616
   4.22049253  6.33033995 11.73544020
   6.33072357  8.44098452 11.73525136
   4.22049256  8.44098461 13.84322233
   6.33116378  6.33090670 13.83413532
   4.22049233  2.11024616  7.50000000
   6.33073849  4.22049233  7.50000000
   4.22049233  4.22049233  9.61024616
   6.33073849  2.11024616  9.61024616
   4.22049248  2.11064457 11.73543989
   6.33019609  4.22049226 11.73597437
   4.22049255  4.22049195 13.84526790
   6.33116377  2.11007762 13.83413519
   0.00000000  6.33073849  9.61024616
   2.11024616  0.00000000  9.61024616
   0.00000000  0.00000000  7.50000000
   2.11024616  6.33073849  7.50000000
   0.00000023  6.33119353 13.88393835
   2.11076366  8.44098447 13.88446070
   0.00000011  8.44098458 11.72969688
   2.11017013  6.33071020 11.72957061
   0.00000000  2.11024616  9.61024616
   2.11024616  4.22049233  9.61024616
   0.00000000  4.22049233  7.50000000
   2.11024616  2.11024616  7.50000000
   0.00000010  2.10979064 13.88393791
   2.11038505  4.22049228 13.88539843
   0.00000013  4.22049213 11.72991621
   2.11017010  2.11027420 11.72957056
   4.22049233  6.33073849  9.61024616
   6.33073849  0.00000000  9.61024616
   4.22049233  0.00000000  7.50000000
   6.33073849  6.33073849  7.50000000
   4.22049249  6.33028353 13.88440214
   6.33022115  8.44098457 13.88446110
   4.22049253  8.44098461 11.72948042
   6.33081503  6.33071032 11.72957078
   4.22049233  2.11024616  9.61024616
   6.33073849  4.22049233  9.61024616
   4.22049233  4.22049233  7.50000000
   6.33073849  2.11024616  7.50000000
   4.22049258  2.11070073 13.88440225
   6.33059982  4.22049205 13.88539837
   4.22049251  4.22049226 11.73025500
   6.33081481  2.11027413 11.72957072

--------------------------------------- Iteration      FINAL  ---------------------------------------

--------------------OUTCAR has been truncated-------------------------

[...]

--------------------OUTCAR has been truncated-------------------------

  DFT-D2 method for vdW energy calculation

  Parameters of vdW forcefield:
         C6(Jnm^6/mol)     R0(A)
   Mg       0.630          1.243
   O        0.700          1.342

  vdW correction parametrized for the method ¿þÿ      

  IVDW =   1
  VDW_RADIUS =    50.000 A
  VDW_S6 =     1.050
  VDW_SR =     1.000
  VDW_D =    20.000
  LVDW_EWALD = F

  Number of pair interactions contributing to vdW energy:  723296
  Edisp (eV):   -5.06851

 VOLUME and BASIS-vectors are now :
  energy-cutoff  :      600.00
  volume of cell :     1519.82
      direct lattice vectors                 reciprocal lattice vectors
     8.440984654  0.000000000  0.000000000     0.118469591  0.000000000  0.000000000
     0.000000000  8.440984654  0.000000000     0.000000000  0.118469591  0.000000000
     0.000000000  0.000000000 21.330738491     0.000000000  0.000000000  0.046880702

  length of vectors
     8.440984654  8.440984654 21.330738491     0.118469591  0.118469591  0.046880702

 FORCES acting on ions:
    Electron-Ion                     Ewald-Force                    Non-Local-Force
   0.752E-07 0.121E-01 0.207E+04   -.243E-05 -.123E-01 -.206E+04   0.327E-05 0.133E-03 -.639E+01
   -.832E-03 0.399E-05 0.207E+04   0.670E-03 -.341E-05 -.206E+04   0.106E-03 0.262E-05 -.639E+01
   -.734E-05 0.786E-05 0.683E+03   0.528E-05 -.113E-04 -.684E+03   0.617E-05 0.759E-05 0.444E+00
   -.588E-03 0.465E-01 0.683E+03   -.413E-03 -.491E-01 -.684E+03   0.650E-03 0.161E-02 0.462E+00
   0.265E-05 0.842E-01 -.690E+03   -.309E-05 -.836E-01 0.690E+03   -.285E-05 -.630E-03 -.177E+00
   0.431E-02 0.215E-04 -.690E+03   -.512E-02 -.214E-04 0.690E+03   0.281E-03 0.593E-05 -.172E+00
   0.249E-04 -.113E-04 -.205E+04   -.172E-04 0.158E-04 0.205E+04   -.878E-05 -.217E-06 0.535E+01
   -.948E-01 0.867E-02 -.205E+04   0.100E+00 -.524E-02 0.204E+04   0.951E-03 -.397E-02 0.533E+01
   0.171E-05 -.121E-01 0.207E+04   -.183E-05 0.123E-01 -.206E+04   -.654E-05 -.140E-03 -.639E+01
   0.323E-02 -.669E-05 0.207E+04   -.319E-02 0.353E-05 -.206E+04   -.415E-04 0.548E-05 -.639E+01
   0.132E-04 -.124E-04 0.683E+03   -.185E-04 0.122E-04 -.683E+03   0.691E-05 -.109E-05 0.446E+00
   -.567E-03 -.465E-01 0.683E+03   -.433E-03 0.491E-01 -.684E+03   0.647E-03 -.161E-02 0.462E+00
   -.520E-04 -.842E-01 -.690E+03   0.454E-04 0.836E-01 0.690E+03   0.995E-05 0.624E-03 -.177E+00
   0.185E+00 -.422E-04 -.691E+03   -.183E+00 0.405E-04 0.691E+03   -.674E-02 0.649E-05 -.173E+00
   0.551E-04 0.113E-04 -.205E+04   -.621E-04 -.106E-04 0.205E+04   0.803E-05 0.168E-05 0.535E+01
   -.948E-01 -.864E-02 -.205E+04   0.100E+00 0.522E-02 0.204E+04   0.956E-03 0.395E-02 0.533E+01
   0.907E-06 0.807E-02 0.207E+04   0.255E-05 -.846E-02 -.206E+04   -.813E-05 0.264E-03 -.639E+01
   0.829E-03 0.635E-05 0.207E+04   -.670E-03 -.392E-05 -.206E+04   -.968E-04 -.241E-05 -.639E+01
   0.725E-05 0.217E-04 0.683E+03   -.677E-05 -.255E-04 -.684E+03   0.203E-05 0.924E-05 0.441E+00
   0.596E-03 0.466E-01 0.683E+03   0.407E-03 -.491E-01 -.684E+03   -.644E-03 0.161E-02 0.462E+00
   -.125E-04 -.108E+00 -.690E+03   0.927E-05 0.103E+00 0.690E+03   -.559E-07 0.732E-02 -.182E+00
   -.433E-02 0.306E-04 -.690E+03   0.514E-02 -.341E-04 0.690E+03   -.278E-03 0.795E-05 -.172E+00
   0.987E-04 0.552E-04 -.205E+04   -.910E-04 -.547E-04 0.205E+04   -.142E-04 0.343E-05 0.534E+01
   0.947E-01 0.873E-02 -.205E+04   -.100E+00 -.531E-02 0.204E+04   -.943E-03 -.396E-02 0.533E+01
   -.336E-06 -.806E-02 0.207E+04   0.217E-05 0.846E-02 -.206E+04   0.517E-06 -.265E-03 -.639E+01
   -.323E-02 -.683E-05 0.207E+04   0.318E-02 0.392E-05 -.206E+04   0.412E-04 -.280E-05 -.639E+01
   -.239E-04 -.262E-04 0.683E+03   0.296E-04 0.271E-04 -.683E+03   -.734E-05 -.504E-05 0.456E+00
   0.579E-03 -.466E-01 0.683E+03   0.423E-03 0.491E-01 -.684E+03   -.653E-03 -.161E-02 0.462E+00
   0.197E-04 0.108E+00 -.690E+03   -.113E-04 -.103E+00 0.690E+03   -.154E-04 -.733E-02 -.182E+00
   -.185E+00 -.308E-04 -.691E+03   0.183E+00 0.321E-04 0.691E+03   0.673E-02 0.390E-05 -.173E+00
   0.377E-04 -.717E-04 -.205E+04   -.436E-04 0.657E-04 0.205E+04   0.804E-05 0.971E-05 0.534E+01
   0.947E-01 -.872E-02 -.205E+04   -.100E+00 0.530E-02 0.204E+04   -.954E-03 0.396E-02 0.533E+01
   0.708E-05 0.418E-01 0.512E+03   -.118E-04 -.422E-01 -.512E+03   0.331E-05 0.462E-03 -.104E+00
   -.393E-02 0.619E-05 0.512E+03   0.409E-02 -.776E-05 -.512E+03   -.199E-03 0.239E-05 -.103E+00
   0.641E-06 -.611E-05 0.155E+04   -.286E-06 -.213E-05 -.156E+04   -.928E-06 0.278E-05 0.313E+01
   0.513E-03 0.778E-02 0.155E+04   -.644E-03 -.809E-02 -.156E+04   0.160E-03 0.382E-03 0.313E+01
   0.481E-04 0.118E+00 -.156E+04   -.550E-04 -.126E+00 0.156E+04   0.444E-05 0.454E-02 -.457E+01
   0.291E-01 -.302E-04 -.156E+04   -.268E-01 0.364E-04 0.156E+04   -.687E-02 -.106E-05 -.458E+01
   -.109E-04 0.356E-04 -.513E+03   0.147E-04 -.323E-04 0.513E+03   -.410E-05 -.170E-05 0.190E+00
   -.126E-01 0.238E-01 -.511E+03   0.117E-01 -.212E-01 0.511E+03   0.186E-02 -.304E-02 0.307E+00
   -.376E-05 -.418E-01 0.512E+03   -.167E-05 0.422E-01 -.512E+03   0.509E-05 -.466E-03 -.104E+00
   0.277E-01 -.123E-04 0.512E+03   -.316E-01 0.144E-04 -.512E+03   0.442E-02 -.110E-05 -.109E+00
   0.814E-05 0.156E-05 0.155E+04   -.290E-05 0.211E-05 -.156E+04   -.251E-06 -.381E-08 0.313E+01
   0.526E-03 -.778E-02 0.155E+04   -.645E-03 0.809E-02 -.156E+04   0.154E-03 -.384E-03 0.313E+01
   -.332E-04 -.118E+00 -.156E+04   0.211E-04 0.126E+00 0.156E+04   0.684E-05 -.454E-02 -.457E+01
   0.103E+00 0.421E-05 -.156E+04   -.935E-01 -.677E-05 0.156E+04   -.130E-01 -.914E-06 -.459E+01
   -.332E-04 -.285E-04 -.513E+03   0.330E-04 0.263E-04 0.513E+03   -.233E-05 0.243E-05 0.208E+00
   -.126E-01 -.238E-01 -.511E+03   0.116E-01 0.212E-01 0.511E+03   0.187E-02 0.305E-02 0.307E+00
   -.539E-05 0.128E-01 0.512E+03   0.640E-05 -.975E-02 -.512E+03   0.304E-06 -.361E-02 -.103E+00
   0.393E-02 0.958E-05 0.512E+03   -.409E-02 -.109E-04 -.512E+03   0.199E-03 0.129E-05 -.103E+00
   -.269E-05 0.282E-05 0.155E+04   0.368E-06 -.358E-05 -.156E+04   -.129E-05 0.125E-05 0.313E+01
   -.513E-03 0.779E-02 0.155E+04   0.644E-03 -.810E-02 -.156E+04   -.160E-03 0.381E-03 0.313E+01
   0.354E-04 -.175E+00 -.156E+04   -.309E-04 0.180E+00 0.156E+04   0.347E-06 -.647E-03 -.458E+01
   -.292E-01 0.390E-04 -.156E+04   0.269E-01 -.356E-04 0.156E+04   0.687E-02 -.409E-05 -.458E+01
   0.244E-04 0.246E-04 -.513E+03   -.225E-04 -.271E-04 0.512E+03   -.650E-07 0.951E-06 0.207E+00
   0.126E-01 0.239E-01 -.511E+03   -.117E-01 -.212E-01 0.511E+03   -.186E-02 -.304E-02 0.307E+00
   0.387E-06 -.128E-01 0.512E+03   0.475E-05 0.975E-02 -.512E+03   -.113E-05 0.361E-02 -.103E+00
   -.277E-01 -.153E-04 0.512E+03   0.316E-01 0.135E-04 -.512E+03   -.442E-02 -.700E-06 -.109E+00
   -.782E-05 -.354E-05 0.155E+04   0.328E-05 0.361E-05 -.156E+04   0.190E-05 0.215E-06 0.313E+01
   -.522E-03 -.779E-02 0.155E+04   0.645E-03 0.810E-02 -.156E+04   -.153E-03 -.381E-03 0.313E+01
   0.727E-04 0.175E+00 -.156E+04   -.719E-04 -.180E+00 0.156E+04   -.174E-05 0.647E-03 -.458E+01
   -.103E+00 -.521E-04 -.156E+04   0.936E-01 0.482E-04 0.156E+04   0.130E-01 0.438E-05 -.459E+01
   -.289E-04 -.307E-04 -.513E+03   0.370E-04 0.343E-04 0.513E+03   -.641E-05 -.458E-05 0.183E+00
   0.126E-01 -.239E-01 -.511E+03   -.117E-01 0.212E-01 0.511E+03   -.186E-02 0.304E-02 0.307E+00
   0.226E-04 -.141E-04 0.190E+02   -.432E-12 0.167E-12 0.364E-11   -.149E-05 0.792E-06 -.167E+02

 POSITION                                       TOTAL-FORCE (eV/Angst)
      0.00000      6.33074      7.50000         0.000001     -0.000057      0.467883
      2.11025      0.00000      7.50000        -0.000043      0.000003      0.467781
      0.00000      0.00000      9.61025         0.000003      0.000004      0.047842
      2.11025      6.33074      9.61025        -0.000272     -0.000714      0.044240
      0.00000      6.33074     11.73527        -0.000003     -0.000041      0.022679
      2.11026      8.44098     11.73525        -0.000466      0.000006      0.023947
      0.00000      8.44098     13.84460        -0.000002      0.000005     -0.113552
      2.10982      6.33091     13.83414         0.006022     -0.000845     -0.043895
      0.00000      2.11025      7.50000        -0.000007      0.000055      0.467868
      2.11025      4.22049      7.50000        -0.000006      0.000003      0.468028
      0.00000      4.22049      9.61025         0.000002     -0.000001      0.049773
      2.11025      2.11025      9.61025        -0.000275      0.000710      0.044242
      8.44098      2.11024     11.73527         0.000004      0.000036      0.022677
      2.11079      4.22049     11.73597        -0.005239      0.000005      0.020342
      0.00000      4.22049     13.84410         0.000000      0.000004     -0.107181
      2.10982      2.11008     13.83413         0.006027      0.000831     -0.043895
      4.22049      6.33074      7.50000        -0.000006     -0.000095      0.467743
      6.33074      0.00000      7.50000         0.000049      0.000000      0.467794
      4.22049      0.00000      9.61025         0.000002      0.000006      0.048172
      6.33074      6.33074      9.61025         0.000279     -0.000711      0.044248
      4.22049      6.33034     11.73544        -0.000004      0.003020      0.025108
      6.33072      8.44098     11.73525         0.000468      0.000005      0.023950
      4.22049      8.44098     13.84322        -0.000007      0.000004     -0.100933
      6.33116      6.33091     13.83414        -0.006020     -0.000842     -0.043887
      4.22049      2.11025      7.50000         0.000001      0.000096      0.467750
      6.33074      4.22049      7.50000         0.000001     -0.000005      0.468019
      4.22049      4.22049      9.61025        -0.000003     -0.000004      0.046960
      6.33074      2.11025      9.61025         0.000270      0.000710      0.044239
      4.22049      2.11064     11.73544        -0.000007     -0.003028      0.025111
      6.33020      4.22049     11.73597         0.005235      0.000006      0.020329
      4.22049      4.22049     13.84527         0.000002      0.000005     -0.109006
      6.33116      2.11008     13.83414        -0.006021      0.000838     -0.043878
      0.00000      6.33074      9.61025        -0.000002      0.000081      0.061745
      2.11025      0.00000      9.61025        -0.000078      0.000001      0.061896
      0.00000      0.00000      7.50000        -0.000001     -0.000006     -0.434852
      2.11025      6.33074      7.50000         0.000051      0.000119     -0.434520
      0.00000      6.33119     13.88394        -0.000002     -0.002858     -0.102280
      2.11076      8.44098     13.88446        -0.005784      0.000005     -0.106925
      0.00000      8.44098     11.72970        -0.000001      0.000002      0.023880
      2.11017      6.33071     11.72957         0.001232     -0.000784      0.012266
      0.00000      2.11025      9.61025        -0.000000     -0.000084      0.061742
      2.11025      4.22049      9.61025         0.001204      0.000001      0.063480
      0.00000      4.22049      7.50000         0.000005      0.000004     -0.434933
      2.11025      2.11025      7.50000         0.000056     -0.000124     -0.434522
      0.00000      2.10979     13.88394        -0.000005      0.002854     -0.102277
      2.11039      4.22049     13.88540        -0.005763     -0.000004     -0.110546
      0.00000      4.22049     11.72992        -0.000003      0.000001      0.025031
      2.11017      2.11027     11.72957         0.001230      0.000785      0.012270
      4.22049      6.33074      9.61025         0.000001     -0.001077      0.062799
      6.33074      0.00000      9.61025         0.000077      0.000000      0.061897
      4.22049      0.00000      7.50000        -0.000004      0.000001     -0.434756
      6.33074      6.33074      7.50000        -0.000052      0.000125     -0.434507
      4.22049      6.33028     13.88440         0.000005      0.004346     -0.107529
      6.33022      8.44098     13.88446         0.005779     -0.000001     -0.106898
      4.22049      8.44098     11.72948         0.000002     -0.000001      0.024464
      6.33082      6.33071     11.72957        -0.001234     -0.000786      0.012267
      4.22049      2.11025      9.61025         0.000004      0.001077      0.062803
      6.33074      4.22049      9.61025        -0.001199     -0.000002      0.063485
      4.22049      4.22049      7.50000        -0.000003      0.000001     -0.434878
      6.33074      2.11025      7.50000        -0.000052     -0.000129     -0.434498
      4.22049      2.11070     13.88440        -0.000002     -0.004341     -0.107496
      6.33060      4.22049     13.88540         0.005786      0.000001     -0.110559
      4.22049      4.22049     11.73026         0.000001     -0.000001      0.019187
      6.33081      2.11027     11.72957        -0.001230      0.000788      0.012263
    total drift:                                0.000019     -0.000012      0.001244

  FREE ENERGIE OF THE ION-ELECTRON SYSTEM (eV)
  free  energy   TOTEN  =      -438.43667261 eV

  energy  without entropy=     -438.43667261  energy(sigma->0) =     -438.43667261