 vasp.6.4.2 20Jul23 (build Feb 22 2024 13:53:45) complex
 executed on              LinuxNV date 2024.08.28  21:01:36
 OpenACC runtime initialized ...    4 GPUs detected

 INCAR:
   SYSTEM = Oxide-Surface
   ISMEAR = 0
   SIGMA = 0.05
   EDIFF = 1E-5
   ALGO = Normal
   IBRION = -1
   NSW = 0
   ISYM = 0
   DIPOL = 0.5 0.5 0.5
   IDIPOL = 3
   LDIPOL = .TRUE.
   ISTART = 1
   METAGGA = R2SCAN
   ENCUT = 1000
   PREC = Normal
   PRECFOCK = Normal
   LASPH = .TRUE.
   LREAL = Auto
   ISPIN = 1
   NELM = 200
   NELMIN = 8
   NCORE = 1
   KPAR = 1
   LWAVE = .FALSE.
   LCHARG = .FALSE.

 POTCAR:    PAW_PBE H_h 06Feb2004
 POTCAR:    PAW_PBE O_h 06Feb2004
 POTCAR:    PAW_PBE Ti_sv 26Sep2005
 POTCAR:    PAW_PBE O_h 06Feb2004
 POTCAR:    PAW_PBE H_h 06Feb2004
   VRHFIN =H: ultrasoft test

   TITEL  = PAW_PBE H_h 06Feb2004
   POMASS =    1.000; ZVAL   =    1.000    mass and valenz
   ENMAX  =  700.000; ENMIN  =  350.000 eV

[...]

   TITEL  = PAW_PBE Ti_sv 26Sep2005
   POMASS =   47.880; ZVAL   =   12.000    mass and valenz
   ENMAX  =  274.610; ENMIN  =  205.957 eV

   TITEL  = PAW_PBE O_h 06Feb2004
   POMASS =   16.000; ZVAL   =    6.000    mass and valenz
   ENMAX  =  700.000; ENMIN  =  500.000 eV

 Optimization of the real space projectors (new method)

 maximal supplied QI-value         = 47.24
 optimisation between [QCUT,QGAM] = [ 16.06, 32.13] = [ 72.25,289.00] Ry
 Optimized for a Real-space Cutoff    0.82 Angstroem

   l    n(q)    QCUT    max X(q) W(low)/X(q) W(high)/X(q)  e(spline)
   0      8    16.063    34.671    0.37E-03    0.85E-03    0.24E-06
   0      8    16.063    17.046    0.36E-03    0.82E-03    0.23E-06
   1      7    16.063     1.978    0.22E-03    0.92E-04    0.15E-06
 Optimization of the real space projectors (new method)

[...]

   l    n(q)    QCUT    max X(q) W(low)/X(q) W(high)/X(q)  e(spline)
   0     12    16.089    12.277    0.23E-04    0.54E-05    0.15E-06
   0     12    16.089    11.419    0.26E-04    0.82E-06    0.19E-06
   1     12    16.089     4.010    0.40E-04    0.12E-04    0.58E-06
   1     12    16.089     6.182    0.55E-05    0.28E-04    0.27E-06
   2     11    16.089    47.177    0.17E-03    0.26E-03    0.90E-06
   2     11    16.089    42.437    0.17E-03    0.25E-03    0.88E-06
 Optimization of the real space projectors (new method)

 maximal supplied QI-value         = 34.20
 optimisation between [QCUT,QGAM] = [ 16.08, 32.15] = [ 72.37,289.48] Ry
 Optimized for a Real-space Cutoff    0.71 Angstroem

   l    n(q)    QCUT    max X(q) W(low)/X(q) W(high)/X(q)  e(spline)
   0      7    16.076   280.207    0.42E-03    0.69E-03    0.60E-07
   0      7    16.076   228.978    0.42E-03    0.69E-03    0.61E-07
   1      6    16.076    86.127    0.11E-03    0.66E-03    0.10E-06
   1      6    16.076    65.368    0.11E-03    0.65E-03    0.10E-06
  PAW_PBE H_h 06Feb2004                 :
  PAW_PBE O_h 06Feb2004                 :
  PAW_PBE Ti_sv 26Sep2005               :
  PAW_PBE O_h 06Feb2004                 :

 POSCAR:  H  O Ti  O
  positions in direct lattice

 METAGGA = R2SCAN                                      LMAXTAU =  6    LMIXTAU =  F

 ion  position               nearest neighbor table
   1  0.694  0.516  0.780-   3 0.98
   2  0.689  0.651  0.782-   3 0.98
   3  0.632  0.582  0.782-   2 0.98   1 0.98  51 2.30
   4  0.808  0.916  0.247-  56 1.94  54 1.94  88 1.94  55 1.99  53 1.99
   5  0.592  0.749  0.282-  52 1.94  55 1.94  57 1.94 119 1.94  56 1.99  58 1.99
   6  0.308  0.749  0.247-  60 1.94  58 1.94 124 1.94  59 1.99  52 1.99
   7  0.092  0.916  0.282-  53 1.94  59 1.94  61 1.94  91 1.94  60 1.99  54 1.99
   8  0.945  0.916  0.390-  62 1.92  96 1.93  64 1.94  54 1.98  63 1.98  61 2.00
   9  0.727  0.749  0.421-  57 1.89 127 1.93  63 1.94  65 1.96  66 1.99  64 2.00
  10  0.444  0.749  0.390-  66 1.93 132 1.93  68 1.93  58 1.97  67 1.99  57 2.00
  11  0.226  0.916  0.422-  61 1.90  99 1.94  67 1.94  62 1.97  69 1.97  68 2.01
  12  0.086  0.916  0.532-  70 1.92 104 1.93  72 1.94  71 1.97  69 2.01  62 2.01
  13  0.865  0.749  0.560-  65 1.86 135 1.93  71 1.94  74 1.95  72 2.01  73 2.01
  14  0.584  0.749  0.531- 140 1.93  74 1.93  76 1.93  66 1.97  75 1.98  65 2.02
  15  0.364  0.916  0.562-  69 1.86 107 1.94  75 1.94  70 1.95  77 2.00  76 2.02
  16  0.231  0.915  0.678-  78 1.86  80 1.93 112 1.94  79 2.00  77 2.10  70 2.10  19 2.85
  17  0.000  0.749  0.700-  73 1.78  81 1.84 143 1.97  79 1.98  80 2.07  18 2.86
  18  0.729  0.748  0.674-  81 1.89 147 1.92  83 1.94  82 1.99  74 2.03  73 2.10  17 2.86
  19  0.503  0.917  0.700-  77 1.78  78 1.84  82 1.97 114 1.97  83 2.06  16 2.85
  20  0.808  0.249  0.247-  88 1.94 120 1.94  86 1.94  87 1.99  85 1.99
  21  0.592  0.083  0.282-  84 1.94  87 1.94  89 1.94  55 1.94  88 1.99  90 1.99
  22  0.308  0.083  0.247-  92 1.94  90 1.94  60 1.94  91 1.99  84 1.99
  23  0.092  0.249  0.282-  85 1.94  91 1.94 123 1.94  93 1.94  92 1.99  86 1.99
  24  0.945  0.249  0.390-  94 1.92  96 1.93 128 1.94  86 1.98  95 1.98  93 2.00
  25  0.726  0.083  0.422-  89 1.89  95 1.94  63 1.94  97 1.97  98 1.98  96 2.00
  26  0.444  0.083  0.390-  98 1.92  68 1.93 100 1.93  90 1.98  99 1.99  89 2.00
  27  0.226  0.249  0.422-  93 1.90  99 1.94 131 1.94  94 1.97 101 1.97 100 2.01
  28  0.086  0.249  0.532- 102 1.92 104 1.93 136 1.94 103 1.97 101 2.01  94 2.01
  29  0.864  0.083  0.561-  97 1.86 103 1.94  71 1.94 106 1.94 105 2.01 104 2.03
  30  0.585  0.083  0.532- 106 1.92  76 1.93 108 1.93 107 1.98  98 2.00  97 2.01
  31  0.364  0.249  0.562- 101 1.86 107 1.94 139 1.94 102 1.95 109 2.00 108 2.02
  32  0.231  0.250  0.678- 110 1.86 144 1.93 112 1.94 111 2.00 109 2.10 102 2.10  35 2.85
  33  0.003  0.083  0.700- 105 1.78 113 1.83 111 1.98  79 1.98 112 2.05  34 2.84
  34  0.732  0.083  0.677- 113 1.86  83 1.93 115 1.93 114 2.00 105 2.09 106 2.09  33 2.84
  35  0.503  0.249  0.700- 109 1.78 110 1.84 146 1.97 114 1.97 115 2.06  32 2.85
  36  0.808  0.583  0.247- 120 1.94 118 1.94  56 1.94 119 1.99 117 1.99
  37  0.592  0.416  0.282- 116 1.94  87 1.94 119 1.94 121 1.94 120 1.99 122 1.99
  38  0.308  0.416  0.247-  92 1.94 124 1.94 122 1.94 123 1.99 116 1.99
  39  0.092  0.583  0.282- 117 1.94 123 1.94 125 1.94  59 1.94 124 1.99 118 1.99
  40  0.946  0.583  0.389- 126 1.93  64 1.93 128 1.94 118 1.97 125 1.98 127 2.00
  41  0.727  0.417  0.421- 121 1.89 127 1.93  95 1.94 129 1.96 130 1.99 128 2.00
  42  0.444  0.416  0.389- 130 1.93 132 1.93 100 1.93 122 1.97 131 1.99 121 2.01
  43  0.226  0.583  0.423- 125 1.92 131 1.94  67 1.94 126 1.96 133 1.97 132 2.01
  44  0.089  0.583  0.533- 134 1.92  72 1.93 136 1.93 133 1.98 135 2.00 126 2.01
  45  0.865  0.417  0.560- 129 1.86 135 1.93 103 1.94 138 1.95 136 2.01 137 2.01
  46  0.584  0.416  0.531- 140 1.93 138 1.93 108 1.93 130 1.97 139 1.98 129 2.02
  47  0.366  0.583  0.565- 133 1.92  75 1.94 139 1.94 134 1.94 141 2.00 140 2.03
  48  0.234  0.583  0.678- 142 1.86 144 1.93  80 1.93 143 2.03 141 2.05 134 2.10  51 2.87
  49  1.000  0.417  0.700- 137 1.78 145 1.84 143 1.97 111 1.98 144 2.07  50 2.86
  50  0.729  0.417  0.673- 145 1.90 147 1.92 115 1.94 146 1.99 138 2.03 137 2.10  49 2.86
  51  0.505  0.583  0.707- 142 1.82 141 1.86 146 1.98  82 1.98 147 2.11   3 2.30  48 2.87
  52  0.488  0.749  0.218-   5 1.94   6 1.99
  53  0.988  0.916  0.218-   7 1.94   4 1.99
  54  0.911  0.916  0.312-   4 1.94   8 1.98   7 1.99
  55  0.627  0.916  0.277-   5 1.94  21 1.94   4 1.99
  56  0.772  0.749  0.253-   4 1.94  36 1.94   5 1.99
  57  0.624  0.749  0.359-   9 1.89   5 1.94  10 2.00
  58  0.411  0.749  0.312-   6 1.94  10 1.97   5 1.99
  59  0.127  0.749  0.277-   7 1.94  39 1.94   6 1.99
  60  0.272  0.916  0.253-   6 1.94  22 1.94   7 1.99
[...]
 133  0.266  0.583  0.501-  47 1.92  43 1.97  44 1.98
 134  0.193  0.583  0.596-  44 1.92  47 1.94  48 2.10
 135  0.904  0.583  0.558-  45 1.93  13 1.93  44 2.00
 136  0.052  0.416  0.535-  44 1.93  28 1.94  45 2.01
 137  0.914  0.415  0.638-  49 1.78  45 2.01  50 2.10
 138  0.694  0.414  0.594-  46 1.93  45 1.95  50 2.03
 139  0.405  0.416  0.560-  47 1.94  31 1.94  46 1.98
 140  0.551  0.583  0.536-  46 1.93  14 1.93  47 2.03
 141  0.413  0.583  0.642-  51 1.86  47 2.00  48 2.05
 142  0.345  0.583  0.738-  51 1.82  48 1.86
 143  0.052  0.583  0.709-  49 1.97  17 1.97  48 2.03
 144  0.195  0.417  0.678-  32 1.93  48 1.93  49 2.07
 145  0.841  0.422  0.734-  49 1.84  50 1.90
 146  0.554  0.415  0.708-  35 1.97  51 1.98  50 1.99
 147  0.693  0.583  0.672-  18 1.92  50 1.92  51 2.11

IMPORTANT INFORMATION: All symmetrisations will be switched off!
NOSYMM: (Re-)initialisation of all symmetry stuff for point group C_1.

                                     Primitive cell

  volume of cell :    2920.0096

  direct lattice vectors                    reciprocal lattice vectors
    10.273755933  0.000000000  0.000000000     0.097335386 -0.000000000  0.000000000
     0.000000000 11.368810418  0.000000000     0.000000000  0.087959950  0.000000000
     0.000000000  0.000000000 25.000000000     0.000000000  0.000000000  0.040000000

  length of vectors
    10.273755933 11.368810418 25.000000000     0.097335386  0.087959950  0.040000000

  position of ions in fractional coordinates (direct lattice)
     0.693630997  0.516077859  0.779894165
     0.688973259  0.651193176  0.781612367
     0.632197141  0.581955411  0.782275116
     0.807824645  0.915977663  0.247143925
     0.591839534  0.749310996  0.282367682
     0.307824645  0.749310996  0.247143925
     0.091839534  0.915977663  0.282367682
     0.944954220  0.916237323  0.389700498
     0.726802437  0.749004988  0.421475092
     0.444172613  0.749180500  0.389505817
     0.225535096  0.915999740  0.422103230
     0.086239035  0.916480641  0.532342036
     0.865389355  0.749086479  0.560081940
     0.584381983  0.749391056  0.531007772
     0.364022870  0.916207900  0.561736432
     0.231111939  0.915490957  0.677904271
     0.000077673  0.748570951  0.699690556
     0.728786461  0.748487298  0.673604429
     0.503369768  0.917020402  0.699919933
     0.807824645  0.249310996  0.247143925
     0.591839534  0.082644329  0.282367682
     0.307824645  0.082644329  0.247143925
     0.091839534  0.249310996  0.282367682
     0.944925394  0.249278629  0.389698373
     0.725984638  0.082750601  0.421695174
     0.444360078  0.082706518  0.389680038
     0.225546304  0.249416631  0.422089671
     0.086213114  0.249263187  0.532326041
     0.863922473  0.082863653  0.560827382
     0.585055510  0.082809817  0.531711629
     0.363997622  0.249399877  0.561731149
     0.231092860  0.250321606  0.677896287
     0.002739359  0.082926030  0.699693602
     0.732066551  0.082822047  0.676640387
     0.503333687  0.248570229  0.699899075
     0.807824645  0.582644329  0.247143925
     0.591839534  0.415977663  0.282367682
     0.307824645  0.415977663  0.247143925
     0.091839534  0.582644329  0.282367682
     0.946443895  0.582772630  0.389463535
     0.726838877  0.416508891  0.421465408
     0.444150116  0.416244666  0.389496715
     0.225945842  0.582709498  0.423263521
     0.089188107  0.582907753  0.532563183
     0.865477084  0.416661179  0.560046594
     0.584313763  0.416223785  0.530970212
[...]
   -.504E+02 -.677E+02 -.337E+03   0.550E+02 0.742E+02 0.337E+03   -.483E+01 -.677E+01 0.806E-01   0.620E-04 0.504E-04 0.128E-02
   0.168E+01 0.229E+01 -.204E+04   -.446E+02 -.410E+01 0.205E+04   0.428E+02 0.182E+01 -.107E+02   0.118E-02 0.604E-04 0.738E-02
   0.183E+01 -.324E+00 0.388E+04   0.472E+01 0.328E+00 -.388E+04   -.247E+01 0.163E-01 -.533E+01   -.188E-02 -.475E-04 -.819E-02
   0.907E+01 -.423E+00 0.319E+04   -.110E+02 0.428E+00 -.319E+04   0.125E+00 -.542E-03 0.366E+00   0.119E-02 -.609E-04 -.338E-02
   0.200E+01 -.228E-01 0.388E+04   0.450E+01 0.213E-01 -.388E+04   -.246E+01 0.184E-01 -.532E+01   -.173E-02 -.507E-04 -.832E-02
   0.678E+01 -.926E-02 0.319E+04   -.874E+01 0.294E-02 -.319E+04   0.143E+00 0.324E-02 0.362E+00   0.880E-03 0.386E-04 -.303E-02
   0.254E+00 -.324E+00 0.145E+04   -.395E+00 0.344E+00 -.145E+04   0.128E+00 -.686E-02 -.223E+00   0.463E-03 0.137E-04 0.102E-02
   0.223E+01 -.270E+01 0.922E+03   -.234E+01 0.263E+01 -.922E+03   0.119E+00 0.553E-01 0.187E+00   -.443E-03 0.774E-04 0.281E-02
   0.297E+01 -.423E+00 0.145E+04   -.312E+01 0.394E+00 -.145E+04   0.131E+00 0.532E-01 -.232E+00   0.234E-03 0.934E-04 0.120E-02
   -.832E+01 0.390E+00 0.907E+03   0.807E+01 -.390E+00 -.907E+03   0.287E+00 -.104E-01 0.143E+00   -.502E-03 0.769E-04 0.280E-02
   -.662E+01 -.293E+01 -.906E+03   0.631E+01 0.296E+01 0.907E+03   0.320E+00 -.475E-01 -.259E+00   -.397E-03 0.149E-04 0.532E-03
   -.171E+02 -.610E+01 -.135E+04   0.166E+02 0.609E+01 0.135E+04   0.545E+00 0.248E-01 0.375E+00   0.438E-03 0.712E-04 0.119E-02
   0.444E+01 -.268E+01 -.864E+03   -.480E+01 0.266E+01 0.864E+03   0.346E+00 0.815E-02 -.136E+00   -.182E-04 0.108E-03 0.751E-03
   -.170E+01 -.240E+01 -.139E+04   0.126E+01 0.244E+01 0.139E+04   0.513E+00 -.448E-01 0.280E+00   0.357E-03 0.105E-03 0.466E-03
   0.367E+02 -.153E+02 -.321E+04   -.375E+02 0.152E+02 0.321E+04   0.836E+00 0.668E-01 -.115E+01   -.376E-02 0.458E-03 -.537E-03
   -.112E+03 -.342E+02 -.367E+04   0.109E+03 0.339E+02 0.366E+04   0.216E+01 0.246E+00 0.239E+01   0.298E-02 0.183E-03 0.336E-02
   -.117E+02 -.662E+02 -.309E+04   0.108E+02 0.661E+02 0.309E+04   0.946E+00 0.141E+00 -.777E+00   -.147E-02 0.378E-03 0.340E-04
   -.722E+02 -.421E+02 -.367E+04   0.698E+02 0.421E+02 0.366E+04   0.222E+01 0.244E-01 0.236E+01   0.466E-02 0.543E-03 0.215E-02
   0.182E+01 0.337E+00 0.388E+04   0.472E+01 -.342E+00 -.388E+04   -.247E+01 0.192E-01 -.533E+01   -.162E-02 0.114E-03 -.820E-02
   0.897E+01 0.301E-01 0.319E+04   -.109E+02 -.309E-01 -.319E+04   0.138E+00 0.141E-02 0.358E+00   0.978E-03 -.164E-03 -.306E-02
   0.179E+01 0.142E-01 0.388E+04   0.475E+01 -.149E-01 -.388E+04   -.247E+01 0.179E-01 -.533E+01   -.187E-02 0.631E-04 -.793E-02
   0.680E+01 0.633E-01 0.319E+04   -.875E+01 -.592E-01 -.319E+04   0.143E+00 -.588E-04 0.361E+00   0.911E-03 -.485E-04 -.314E-02
   0.938E-01 0.177E+00 0.145E+04   -.232E+00 -.203E+00 -.145E+04   0.132E+00 0.200E-01 -.230E+00   0.532E-03 -.241E-04 0.880E-03
   -.233E+01 0.154E-01 0.915E+03   0.211E+01 -.186E-01 -.915E+03   0.240E+00 -.296E-02 0.177E+00   -.413E-03 0.155E-05 0.286E-02
   0.299E+01 -.373E-01 0.145E+04   -.312E+01 0.342E-01 -.145E+04   0.117E+00 0.162E-01 -.261E+00   0.335E-03 0.157E-05 0.109E-02
   -.821E+01 -.190E+00 0.907E+03   0.797E+01 0.190E+00 -.908E+03   0.284E+00 -.122E-01 0.145E+00   -.553E-03 -.722E-04 0.276E-02
   -.688E+01 0.282E+01 -.906E+03   0.657E+01 -.286E+01 0.906E+03   0.314E+00 0.454E-01 -.266E+00   -.432E-03 -.180E-04 0.500E-03
   -.142E+02 0.392E-01 -.138E+04   0.136E+02 -.394E-01 0.138E+04   0.659E+00 -.556E-02 0.294E+00   0.499E-03 -.101E-04 0.108E-02
   -.402E+00 0.135E-01 -.891E+03   0.833E-01 -.154E-01 0.891E+03   0.306E+00 0.308E-02 -.192E+00   -.183E-03 -.183E-04 0.627E-03
   -.156E+01 0.236E+01 -.139E+04   0.112E+01 -.240E+01 0.139E+04   0.510E+00 0.329E-01 0.275E+00   0.360E-03 -.113E-03 0.443E-03
   0.372E+02 0.148E+02 -.321E+04   -.379E+02 -.147E+02 0.321E+04   0.839E+00 -.923E-01 -.115E+01   -.375E-02 -.475E-03 -.518E-03
   -.931E+02 -.208E+00 -.368E+04   0.908E+02 0.205E+00 0.368E+04   0.215E+01 0.223E-02 0.236E+01   0.313E-02 -.176E-04 0.285E-02
   0.143E+02 0.765E-01 -.320E+04   -.150E+02 -.729E-01 0.320E+04   0.772E+00 0.162E-01 -.110E+01   -.242E-02 -.393E-04 0.168E-03
   -.725E+02 0.425E+02 -.367E+04   0.702E+02 -.425E+02 0.366E+04   0.222E+01 -.116E-01 0.236E+01   0.465E-02 -.623E-03 0.202E-02
   0.181E+01 -.479E-02 0.388E+04   0.474E+01 0.527E-02 -.388E+04   -.247E+01 0.176E-01 -.532E+01   -.192E-02 -.683E-04 -.837E-02
   0.906E+01 0.441E+00 0.319E+04   -.110E+02 -.446E+00 -.319E+04   0.125E+00 0.308E-02 0.366E+00   0.112E-02 0.209E-03 -.339E-02
   0.201E+01 0.117E-01 0.388E+04   0.449E+01 -.992E-02 -.388E+04   -.246E+01 0.169E-01 -.532E+01   -.186E-02 0.151E-04 -.828E-02
   0.534E+01 0.180E-01 0.319E+04   -.724E+01 -.186E-01 -.319E+04   0.118E+00 0.147E-02 0.356E+00   0.978E-03 0.206E-04 -.302E-02
   0.131E+01 -.840E-01 0.145E+04   -.134E+01 0.861E-01 -.145E+04   -.871E-02 0.888E-02 -.828E-01   0.520E-03 -.210E-04 0.107E-02
   0.252E+01 0.266E+01 0.922E+03   -.263E+01 -.259E+01 -.922E+03   0.117E+00 -.613E-01 0.181E+00   -.384E-03 -.838E-04 0.285E-02
   0.282E+01 0.299E+00 0.145E+04   -.296E+01 -.271E+00 -.145E+04   0.139E+00 -.273E-01 -.214E+00   0.197E-03 -.922E-04 0.122E-02
   -.122E+02 0.957E-01 0.888E+03   0.120E+02 -.938E-01 -.888E+03   0.266E+00 -.103E-01 0.924E-01   -.588E-03 0.142E-05 0.263E-02
   -.307E+01 -.539E-01 -.909E+03   0.306E+01 0.570E-01 0.910E+03   -.107E-01 -.161E-03 -.170E+00   -.677E-03 -.414E-05 0.319E-03
   -.169E+02 0.589E+01 -.135E+04   0.164E+02 -.588E+01 0.135E+04   0.543E+00 -.210E-01 0.378E+00   0.425E-03 -.668E-04 0.121E-02
   0.437E+01 0.269E+01 -.864E+03   -.472E+01 -.267E+01 0.864E+03   0.354E+00 -.245E-01 -.132E+00   0.719E-05 -.912E-04 0.779E-03
   -.315E+01 0.221E+00 -.143E+04   0.279E+01 -.216E+00 0.143E+04   0.417E+00 0.824E-02 0.921E-01   0.326E-03 0.576E-05 0.681E-03
   0.561E+02 0.465E-01 -.321E+04   -.565E+02 -.457E-01 0.321E+04   0.408E+00 0.141E-01 -.936E+00   -.445E-02 0.238E-04 -.160E-02
   -.111E+03 0.346E+02 -.367E+04   0.109E+03 -.344E+02 0.367E+04   0.216E+01 -.248E+00 0.240E+01   0.296E-02 -.170E-03 0.333E-02
   -.126E+02 0.668E+02 -.309E+04   0.117E+02 -.667E+02 0.309E+04   0.973E+00 -.116E+00 -.736E+00   -.143E-02 -.340E-03 -.278E-04
   0.323E+02 -.692E+00 -.361E+04   -.338E+02 0.679E+00 0.361E+04   0.155E+01 0.299E-01 0.129E+01   0.570E-02 0.759E-04 0.108E-02
   -.395E+02 -.181E+00 0.221E+04   0.453E+02 0.183E+00 -.223E+04   -.769E+01 -.545E-03 0.173E+02   -.503E-03 -.104E-03 -.612E-02
   -.400E+02 -.167E+00 0.221E+04   0.458E+02 0.167E+00 -.223E+04   -.768E+01 0.202E-02 0.173E+02   -.629E-03 -.102E-03 -.593E-02
   0.949E+02 0.566E-01 0.132E+04   -.989E+02 -.815E-01 -.131E+04   0.311E+01 0.243E-01 -.481E+01   -.351E-04 -.772E-05 0.101E-02
   0.891E+02 -.168E+00 0.161E+04   -.963E+02 0.174E+00 -.161E+04   0.771E+01 -.158E-01 -.279E+01   0.107E-02 0.689E-04 -.213E-02
   -.101E+03 -.206E+00 0.187E+04   0.108E+03 0.208E+00 -.187E+04   -.716E+01 -.705E-02 -.104E+01   -.369E-03 -.173E-03 -.447E-02
   -.794E+02 -.975E+00 0.102E+04   0.852E+02 0.100E+01 -.103E+04   -.596E+01 -.187E-01 0.436E+01   -.222E-03 0.151E-04 0.279E-02
   0.958E+02 0.501E-01 0.132E+04   -.998E+02 -.407E-01 -.131E+04   0.306E+01 -.111E-01 -.464E+01   -.758E-04 -.111E-04 0.926E-03
   0.879E+02 0.825E-02 0.161E+04   -.951E+02 -.165E-01 -.161E+04   0.774E+01 0.110E-01 -.281E+01   0.102E-02 -.123E-03 -.216E-02
   -.101E+03 -.575E-01 0.187E+04   0.108E+03 0.624E-01 -.187E+04   -.713E+01 -.138E-01 -.105E+01   -.387E-03 -.287E-03 -.433E-02
[...]
   0.102E+03 -.562E-01 -.106E+04   -.109E+03 0.654E-01 0.106E+04   0.700E+01 -.114E-01 -.684E+01   0.727E-03 0.844E-05 -.206E-03
   0.808E+02 -.213E+00 -.696E+03   -.868E+02 0.224E+00 0.700E+03   0.612E+01 -.830E-02 -.322E+01   0.735E-03 -.355E-05 -.122E-03
   -.959E+02 0.137E+01 -.436E+03   0.102E+03 -.146E+01 0.433E+03   -.662E+01 0.836E-01 0.283E+01   -.972E-03 0.276E-05 0.838E-03
   -.770E+02 0.166E+02 -.121E+04   0.802E+02 -.173E+02 0.120E+04   -.330E+01 0.647E+00 0.917E+01   -.500E-03 0.237E-05 0.883E-03
   0.935E+02 0.173E+02 -.101E+04   -.998E+02 -.180E+02 0.101E+04   0.629E+01 0.719E+00 -.513E+01   0.111E-02 0.145E-04 -.375E-03
   0.937E+02 0.219E+01 -.714E+03   -.100E+03 -.228E+01 0.717E+03   0.643E+01 0.824E-01 -.344E+01   0.716E-03 -.133E-03 -.336E-03
   -.842E+02 -.757E-01 -.440E+03   0.905E+02 0.793E-01 0.437E+03   -.636E+01 -.624E-02 0.233E+01   -.630E-03 0.294E-04 0.645E-03
   -.641E+02 -.536E+00 -.124E+04   0.697E+02 0.572E+00 0.123E+04   -.572E+01 -.410E-01 0.683E+01   -.773E-03 0.147E-04 0.959E-03
   0.124E+03 0.693E-02 -.222E+04   -.129E+03 -.172E-01 0.224E+04   0.571E+01 0.110E-01 -.203E+02   0.168E-03 0.306E-04 -.926E-03
   0.498E+02 -.123E-01 -.194E+04   -.535E+02 0.200E-01 0.195E+04   0.376E+01 -.102E-01 -.736E+01   0.125E-02 0.626E-04 0.245E-02
   -.588E+02 0.798E+01 -.158E+04   0.638E+02 -.792E+01 0.158E+04   -.511E+01 -.674E-01 0.324E+01   -.161E-02 0.343E-03 0.153E-02
   0.156E+02 0.373E+02 -.220E+04   -.202E+02 -.371E+02 0.222E+04   0.465E+01 -.186E+00 -.183E+02   0.113E-02 -.370E-03 0.208E-02
   0.933E+02 0.563E+02 -.189E+04   -.980E+02 -.563E+02 0.190E+04   0.479E+01 -.283E-01 -.680E+01   0.178E-02 -.323E-03 0.142E-02
   -.637E+02 -.284E+00 -.144E+04   0.675E+02 0.283E+00 0.144E+04   -.388E+01 -.328E-02 0.542E+01   -.958E-03 0.402E-04 0.183E-02
   -.308E+02 -.160E+01 0.802E+02   -.853E-13 0.966E-12 -.182E-11   0.308E+02 0.167E+01 -.803E+02   0.886E-02 0.429E-04 0.327E-02

 POSITION                                       TOTAL-FORCE (eV/Angst)
      7.12620      5.86719     19.49735        -0.254123      0.329206      0.015954
      7.07834      7.40329     19.54031        -0.230721     -0.351954     -0.006410
      6.49504      6.61614     19.55688         0.355575      0.021120     -0.188548
      8.29939     10.41358      6.17860         4.073796      0.020399      1.834315
      6.08041      8.51877      7.05919        -1.771796      0.003584     -2.077114
      3.16252      8.51877      6.17860         4.039261      0.016347      1.810222
      0.94354     10.41358      7.05919        -1.813082     -0.003540     -2.079018
      9.70823     10.41653      9.74251        -0.012869      0.013064     -0.064589
      7.46699      8.51530     10.53688         0.011707     -0.009416      0.055365
      4.56332      8.51729      9.73765        -0.017430      0.023080     -0.065668
      2.31709     10.41383     10.55258         0.042955     -0.011422      0.011147
      0.88600     10.41929     13.30855         0.009461     -0.010760     -0.048656
      8.89080      8.51622     14.00205         0.057747      0.014127      0.101523
      6.00380      8.51968     13.27519        -0.010061     -0.005302     -0.012637
      3.73988     10.41619     14.04341         0.074335     -0.007319      0.096355
      2.37439     10.40804     16.94761         0.083275     -0.011039      0.101166
      0.00080      8.51036     17.49226        -0.044447     -0.007162      0.064681
      7.48737      8.50941     16.84011         0.074174      0.018424      0.086872
      5.17150     10.42543     17.49800        -0.088925      0.009835      0.056603
      8.29939      2.83437      6.17860         4.073163      0.013732      1.834179
      6.08041      0.93957      7.05919        -1.797279      0.000034     -2.073782
      3.16252      0.93957      6.17860         4.064804      0.016757      1.826775
      0.94354      2.83437      7.05919        -1.812501      0.003481     -2.078975
      9.70793      2.83400      9.74246        -0.005578     -0.006148     -0.070521
      7.45859      0.94078     10.54238         0.015009     -0.006714      0.044772
      4.56525      0.94027      9.74200        -0.014594      0.012629     -0.063773
      2.31721      2.83557     10.55224         0.038980     -0.012471      0.014911
      0.88573      2.83383     13.30815         0.004707      0.004879     -0.056319
      8.87573      0.94206     14.02068         0.069350     -0.006281      0.060393
      6.01072      0.94145     13.29279        -0.013131      0.000588     -0.053308
      3.73962      2.83538     14.04328         0.068564     -0.008546      0.091315
      2.37419      2.84586     16.94741         0.087484     -0.019629      0.096038
      0.02814      0.94277     17.49234        -0.073692     -0.001400      0.090546
      7.52107      0.94159     16.91601         0.066657      0.019260      0.108614
      5.17113      2.82595     17.49748        -0.093631      0.005731      0.051194
      8.29939      6.62397      6.17860         4.079996      0.017503      1.825278
      6.08041      4.72917      7.05919        -1.770284     -0.002763     -2.077108
      3.16252      4.72917      6.17860         4.038239      0.018259      1.808900
      0.94354      6.62397      7.05919        -1.779365      0.000374     -2.016894
      9.72353      6.62543      9.73659        -0.038598      0.010447     -0.051923
      7.46737      4.73521     10.53664         0.012213      0.005121      0.048489
      4.56309      4.73221      9.73742        -0.009348      0.000130     -0.049589
      2.32131      6.62471     10.58159         0.030508     -0.008980     -0.002925
      0.91630      6.62697     13.31408        -0.027680      0.002423     -0.048052
      8.89170      4.73694     14.00116         0.059569     -0.011306      0.094077
      6.00310      4.73197     13.27426         0.001622     -0.010824     -0.014542
      3.76120      6.62596     14.12670         0.049198      0.012699      0.050709
      2.40893      6.62656     16.96081         0.050710      0.014355      0.100960
     10.27296      4.74371     17.49310        -0.041360      0.015587      0.055680
      7.48577      4.74301     16.83609         0.085997     -0.000853      0.099826
      5.19016      6.62568     17.66659         0.000223      0.016466      0.139069
      5.01582      8.51877      5.44312        -1.959111      0.000908      1.290779
     10.15269     10.41358      5.44312        -1.952711      0.001301      1.283402
      9.36399     10.41358      7.79467        -0.881228     -0.000194     -0.220648
      6.44609     10.41358      6.91407         0.528732     -0.010307     -0.138663
      7.93372      8.51877      6.32372         0.131443     -0.005973     -1.118874
      6.41366      8.51877      8.96550        -0.192189      0.006461      0.462994
      4.22711      8.51877      7.79467        -0.891942     -0.001681     -0.210583
      1.30921      8.51877      6.91407         0.540919      0.002472     -0.146536
      2.79684     10.41358      6.32372         0.143097     -0.009448     -1.121577
[...]
      2.72817      6.62525     12.51382        -0.138369      0.002810      0.055379
      1.98527      6.62686     14.90732         0.122357     -0.002404     -0.044159
      9.29033      6.62630     13.95045         0.129219      0.001580     -0.031793
      0.52926      4.73423     13.38365        -0.137562     -0.004743      0.045212
      9.38611      4.71719     15.95241        -0.134728      0.001284      0.100584
      7.13042      4.70139     14.84234         0.099019      0.009651     -0.032572
      4.15814      4.73323     13.99082         0.114357     -0.006783     -0.063439
      5.65798      6.62575     13.40584        -0.137046     -0.002600      0.044162
      4.24724      6.62769     16.06170        -0.167034     -0.005068      0.096004
      3.54223      6.62603     18.44083         0.124366      0.000812     -0.335014
      0.52923      6.62674     17.72076         0.085004     -0.002614     -0.074326
      1.99958      4.73727     16.95421        -0.160612     -0.009626      0.103040
      8.63898      4.80105     18.34066         0.116539     -0.022081     -0.315263
      5.69352      4.71342     17.70097         0.085279     -0.017079     -0.055771
      7.11547      6.62677     16.79316        -0.135406     -0.004433      0.110092
    total drift:                               -0.026616      0.073342     -0.091460

  FREE ENERGIE OF THE ION-ELECTRON SYSTEM (eV)
  free  energy   TOTEN  =     -1678.86066875 eV

  energy  without entropy=    -1678.86066875  energy(sigma->0) =    -1678.86066875

     |            E. Caldeweyher, S. Ehlert & S. Grimme          |
     |          Mulliken Center for Theoretical Chemistry        |
     |                    University of Bonn                     |

Rational (Becke-Johnson) damping: r2scan-D4-ATM
  s6         1.0000
  s8         0.6019
  s9         1.0000
  a1         0.5156
  a2         5.7734
 alp        16.0000

Dispersion energy:      -3.3366383485893E-01 Eh