 vasp.6.3.0 20Jan22 (build Apr  1 2022 16:44:48) complex
 executed on        HPECrayEX_GCC date 2023.03.12  00:08:44

 INCAR:
   SYSTEM = MgO-rocksalt
   ISMEAR = 0
   SIGMA = 0.05
   EDIFF = 1E-6
   ALGO = ALL
   ISTART = 0
   IBRION = -1
   NSW = 0
   ISYM = 0
   DIPOL = 0.5 0.5 0.5
   IDIPOL = 3
   LDIPOL = .TRUE.
   LHFCALC = .TRUE.
   GGA = B5
   AEXX = 0.2
   AGGAX = 0.72
   AGGAC = 0.81
   ALDAC = 0.19
   IVDW = 1
   VDW_S6 = 1.05
   VDW_C6 = 0.63 0.70
   VDW_R0 = 1.243 1.342
   ENCUT = 600
   PREC = Accurate
   LASPH = .TRUE.
   LREAL = .FALSE.
   ISPIN = 1
   NELM = 200
   NELMIN = 8
   NCORE = 8
   KPAR = 1
   LWAVE = .FALSE.
   LCHARG = .FALSE.

 POTCAR:    PAW_PBE Mg_pv 13Apr2007
 POTCAR:    PAW_PBE O 08Apr2002
 POTCAR:    PAW_PBE Mg_pv 13Apr2007
   VRHFIN =Mg: p6s2

   TITEL  = PAW_PBE Mg_pv 13Apr2007
   POMASS =   24.305; ZVAL   =    8.000    mass and valenz
   ENMAX  =  403.929; ENMIN  =  302.947 eV

   TITEL  = PAW_PBE O 08Apr2002
   POMASS =   16.000; ZVAL   =    6.000    mass and valenz
   ENMAX  =  400.000; ENMIN  =  300.000 eV

  PAW_PBE Mg_pv 13Apr2007               :
  PAW_PBE O 08Apr2002                   :

 POSCAR: Mg  O
  positions in direct lattice
 exchange correlation table for  LEXCH =       12
   RHO(1)=    0.500       N(1)  =     2000
   RHO(2)=  100.500       N(2)  =     4000

 ion  position               nearest neighbor table
   1  0.000  0.750  0.352-  33 2.11  35 2.11  36 2.11  43 2.11  52 2.11
   2  0.250  0.000  0.352-  34 2.11  35 2.11  36 2.11  44 2.11  51 2.11
   3  0.000  0.000  0.451-  35 2.11  34 2.11  33 2.11  41 2.11  50 2.11  39 2.12
   4  0.250  0.750  0.451-  36 2.11  34 2.11  33 2.11  42 2.11  49 2.11  40 2.12
   5  1.000  0.750  0.550-  47 2.11  56 2.11  39 2.11  40 2.11  33 2.12  37 2.15
   6  0.250  0.000  0.550-  48 2.11  55 2.11  40 2.11  39 2.11  34 2.12  38 2.15
   7  1.000  0.000  0.649-  45 2.11  54 2.11  39 2.11  38 2.11  37 2.11
   8  0.250  0.750  0.648-  40 2.10  37 2.11  38 2.11  46 2.11  53 2.11
   9  0.000  0.250  0.352-  41 2.11  35 2.11  43 2.11  44 2.11  60 2.11
  10  0.250  0.500  0.352-  42 2.11  36 2.11  43 2.11  44 2.11  59 2.11
  11  0.000  0.500  0.451-  43 2.11  41 2.11  42 2.11  33 2.11  58 2.11  47 2.12
  12  0.250  0.250  0.451-  44 2.11  41 2.11  42 2.11  34 2.11  57 2.11  48 2.12
  13  1.000  0.250  0.550-  64 2.11  48 2.11  47 2.11  39 2.11  41 2.12  45 2.15
  14  0.250  0.500  0.550-  63 2.11  48 2.11  40 2.11  47 2.11  42 2.13  46 2.15
  15  1.000  0.500  0.649-  62 2.10  46 2.10  47 2.11  45 2.11  37 2.11
  16  0.250  0.250  0.649-  48 2.11  61 2.11  45 2.11  38 2.11  46 2.11
  17  0.500  0.750  0.352-  49 2.11  36 2.11  51 2.11  52 2.11  59 2.11
  18  0.750  0.000  0.352-  50 2.11  35 2.11  51 2.11  52 2.11  60 2.11
  19  0.500  0.000  0.451-  51 2.11  49 2.11  50 2.11  34 2.11  57 2.11  55 2.12
  20  0.750  0.750  0.451-  52 2.11  49 2.11  50 2.11  33 2.11  58 2.11  56 2.12
  21  0.500  0.750  0.550-  63 2.11  56 2.11  40 2.11  55 2.11  49 2.13  53 2.15
  22  0.750  0.000  0.550-  64 2.11  55 2.11  56 2.11  39 2.11  50 2.12  54 2.15
  23  0.500  0.000  0.649-  61 2.10  53 2.11  55 2.11  54 2.11  38 2.11
  24  0.750  0.750  0.649-  56 2.10  62 2.11  37 2.11  54 2.11  53 2.11
  25  0.500  0.250  0.352-  57 2.11  51 2.11  44 2.11  59 2.11  60 2.11
  26  0.750  0.500  0.352-  58 2.11  52 2.11  43 2.11  59 2.11  60 2.11
  27  0.500  0.500  0.451-  59 2.11  49 2.11  57 2.11  58 2.11  42 2.11  63 2.13
  28  0.750  0.250  0.451-  60 2.11  50 2.11  57 2.11  58 2.11  41 2.11  64 2.12
  29  0.500  0.250  0.550-  63 2.11  64 2.11  48 2.11  55 2.12  57 2.13  61 2.14
  30  0.750  0.500  0.550-  63 2.11  64 2.11  56 2.11  47 2.11  58 2.13  62 2.14
  31  0.500  0.499  0.651-  61 2.11  62 2.12  46 2.12  53 2.12  63 2.15
  32  0.750  0.250  0.649-  64 2.11  61 2.11  62 2.11  45 2.11  54 2.11
  33  0.000  0.750  0.451-   1 2.11   3 2.11   4 2.11  11 2.11  20 2.11   5 2.12
  34  0.250  0.000  0.451-   2 2.11   3 2.11   4 2.11  12 2.11  19 2.11   6 2.12
  35  0.000  0.000  0.352-   3 2.11   2 2.11   1 2.11   9 2.11  18 2.11
  36  0.250  0.750  0.352-   4 2.11   2 2.11   1 2.11  10 2.11  17 2.11
  37  0.000  0.750  0.651-   8 2.11  24 2.11   7 2.11  15 2.11   5 2.15
  38  0.250  1.000  0.651-   8 2.11   7 2.11  16 2.11  23 2.11   6 2.15
  39  0.000  1.000  0.550-   7 2.11   5 2.11   6 2.11  22 2.11  13 2.11   3 2.12
  40  0.250  0.750  0.550-   8 2.10  21 2.11   5 2.11   6 2.11  14 2.11   4 2.12
  41  0.000  0.250  0.451-   9 2.11   3 2.11  11 2.11  12 2.11  28 2.11  13 2.12
  42  0.250  0.500  0.451-  10 2.11   4 2.11  11 2.11  12 2.11  27 2.11  14 2.13
  43  0.000  0.500  0.352-  11 2.11   9 2.11  10 2.11   1 2.11  26 2.11
  44  0.250  0.250  0.352-  12 2.11   9 2.11  10 2.11   2 2.11  25 2.11
  45  0.000  0.250  0.651-   7 2.11  16 2.11  15 2.11  32 2.11  13 2.15
  46  0.249  0.500  0.651-  15 2.10   8 2.11  16 2.11  31 2.12  14 2.15
  47  0.000  0.500  0.550-  15 2.11   5 2.11  13 2.11  14 2.11  30 2.11  11 2.12
  48  0.250  0.250  0.550-  16 2.11   6 2.11  13 2.11  14 2.11  29 2.11  12 2.12
  49  0.500  0.750  0.451-  17 2.11   4 2.11  19 2.11  20 2.11  27 2.11  21 2.13
  50  0.750  0.000  0.451-  18 2.11   3 2.11  19 2.11  20 2.11  28 2.11  22 2.12
  51  0.500  0.000  0.352-  19 2.11  17 2.11  18 2.11   2 2.11  25 2.11
  52  0.750  0.750  0.352-  20 2.11  17 2.11  18 2.11   1 2.11  26 2.11
  53  0.500  0.751  0.651-  23 2.11   8 2.11  24 2.11  31 2.12  21 2.15
  54  0.750  1.000  0.651-   7 2.11  24 2.11  32 2.11  23 2.11  22 2.15
  55  0.500  1.000  0.550-  23 2.11   6 2.11  22 2.11  21 2.11  29 2.12  19 2.12
  56  0.750  0.750  0.550-  24 2.10   5 2.11  21 2.11  22 2.11  30 2.11  20 2.12
  57  0.500  0.250  0.451-  25 2.11  19 2.11  12 2.11  27 2.11  28 2.11  29 2.13
  58  0.750  0.500  0.451-  26 2.11  20 2.11  11 2.11  27 2.11  28 2.11  30 2.13
  59  0.500  0.500  0.352-  27 2.11  17 2.11  25 2.11  26 2.11  10 2.11
  60  0.750  0.250  0.352-  28 2.11  18 2.11  25 2.11  26 2.11   9 2.11
  61  0.500  0.249  0.651-  23 2.10  16 2.11  32 2.11  31 2.11  29 2.14
  62  0.751  0.500  0.651-  15 2.10  24 2.11  32 2.11  31 2.12  30 2.14
  63  0.500  0.500  0.550-  21 2.11  14 2.11  30 2.11  29 2.11  27 2.13  31 2.15
  64  0.750  0.250  0.550-  32 2.11  22 2.11  13 2.11  30 2.11  29 2.11  28 2.12

IMPORTANT INFORMATION: All symmetrisations will be switched off!
NOSYMM: (Re-)initialisation of all symmetry stuff for point group C_1.

                                     Primitive cell

  volume of cell :    1519.8199

  direct lattice vectors                    reciprocal lattice vectors
     8.440984654  0.000000000  0.000000000     0.118469591  0.000000000  0.000000000
     0.000000000  8.440984654  0.000000000     0.000000000  0.118469591  0.000000000
     0.000000000  0.000000000 21.330738491     0.000000000  0.000000000  0.046880702

  length of vectors
     8.440984654  8.440984654 21.330738491     0.118469591  0.118469591  0.046880702

  position of ions in fractional coordinates (direct lattice)
     0.000000000  0.750000000  0.351605267
     0.250000000  0.000000000  0.351605267
     0.000000000  0.000000000  0.450535089
     0.250000000  0.750000000  0.450535089
     0.999954346  0.749943911  0.550033337
     0.250059217  0.000083621  0.550049328
     0.999974613  0.000078779  0.648776369
     0.249800109  0.750104580  0.648369797
     0.000000000  0.250000000  0.351605267
     0.250000000  0.500000000  0.351605267
     0.000000000  0.500000000  0.450535089
     0.250000000  0.250000000  0.450535089
     0.999992643  0.250071267  0.550081376
     0.250466599  0.499936424  0.550285804
     0.999910591  0.499944107  0.648595353
     0.250071256  0.249972791  0.648663217
     0.500000000  0.750000000  0.351605267
     0.750000000  0.000000000  0.351605267
     0.500000000  0.000000000  0.450535089
     0.750000000  0.750000000  0.450535089
     0.500019170  0.749513781  0.550294524
     0.749931195  0.000045804  0.550067803
     0.500000635  0.000284138  0.648599469
     0.750105583  0.749980305  0.648513915
     0.500000000  0.250000000  0.351605267
     0.750000000  0.500000000  0.351605267
     0.500000000  0.500000000  0.450535089
     0.750000000  0.250000000  0.450535089
     0.500014918  0.250394168  0.550308765
     0.749553765  0.499942387  0.550295926
     0.500181848  0.499312364  0.650965447
     0.749943309  0.249994221  0.648681965
     0.000000000  0.750000000  0.450535089
     0.250000000  0.000000000  0.450535089
     0.000000000  0.000000000  0.351605267
     0.250000000  0.750000000  0.351605267
     0.000012200  0.750130927  0.651051999
     0.249850447  0.999920408  0.651044229
     0.000002071  0.999970731  0.549879102
     0.249988900  0.750048197  0.549864299
     0.000000000  0.250000000  0.450535089
     0.250000000  0.500000000  0.450535089
     0.000000000  0.500000000  0.351605267
     0.250000000  0.250000000  0.351605267
     0.000021798  0.249888812  0.651053889
     0.249183234  0.500152064  0.651003323
     0.000044966  0.500042088  0.549823568
     0.249901523  0.249969111  0.549858607
     0.500000000  0.750000000  0.450535089
     0.750000000  0.000000000  0.450535089
     0.500000000  0.000000000  0.351605267
     0.750000000  0.750000000  0.351605267
     0.499910216  0.750845655  0.651282283
     0.750127192  0.999910415  0.651062982
     0.499988513  0.999825680  0.549826079
     0.749987876  0.750064282  0.549877255
     0.500000000  0.250000000  0.450535089
     0.750000000  0.500000000  0.450535089
     0.500000000  0.500000000  0.351605267
     0.750000000  0.250000000  0.351605267
     0.499985243  0.249093791  0.650645830
     0.750813028  0.500082222  0.650835349
     0.499974736  0.500084682  0.550243536
     0.750104413  0.249925398  0.549847355

  ion indices of the primitive-cell ions
   primitive index   ion index
                 1           1
                 2           2
                 3           3
                 4           4
                 5           5
                 6           6
                 7           7
                 8           8
                 9           9
                10          10
                11          11
                12          12
                13          13
                14          14
                15          15
                16          16
                17          17
                18          18
                19          19
                20          20
                21          21
                22          22
                23          23
                24          24
                25          25
                26          26
                27          27
                28          28
                29          29
                30          30
                31          31
                32          32
                33          33
                34          34
                35          35
                36          36
                37          37
                38          38
                39          39
                40          40
                41          41
                42          42
                43          43
                44          44
[...]
   0.25000000  0.50000000  0.45053509
   0.00000000  0.50000000  0.35160527
   0.25000000  0.25000000  0.35160527
   0.00002180  0.24988881  0.65105389
   0.24918323  0.50015206  0.65100332
   0.00004497  0.50004209  0.54982357
   0.24990152  0.24996911  0.54985861
   0.50000000  0.75000000  0.45053509
   0.75000000  0.00000000  0.45053509
   0.50000000  0.00000000  0.35160527
   0.75000000  0.75000000  0.35160527
   0.49991022  0.75084566  0.65128228
   0.75012719  0.99991042  0.65106298
   0.49998851  0.99982568  0.54982608
   0.74998788  0.75006428  0.54987725
   0.50000000  0.25000000  0.45053509
   0.75000000  0.50000000  0.45053509
   0.50000000  0.50000000  0.35160527
   0.75000000  0.25000000  0.35160527
   0.49998524  0.24909379  0.65064583
   0.75081303  0.50008222  0.65083535
   0.49997474  0.50008468  0.55024354
   0.75010441  0.24992540  0.54984736

 position of ions in cartesian coordinates  (Angst):
   0.00000000  6.33073849  7.50000000
   2.11024616  0.00000000  7.50000000
   0.00000000  0.00000000  9.61024616
   2.11024616  6.33073849  9.61024616
   8.44059929  6.33026504 11.73261728
   2.11074601  0.00070585 11.73295836
   8.44077037  0.00066497 13.83887907
   2.10855889  6.33162125 13.83020658
   0.00000000  2.11024616  7.50000000
   2.11024616  4.22049233  7.50000000
   0.00000000  4.22049233  9.61024616
   2.11024616  2.11024616  9.61024616
   8.44092255  2.11084773 11.73364199
   2.11418471  4.21995568 11.73800259
   8.44022996  4.22002054 13.83501787
   2.11084764  2.11001649 13.83646546
   4.22049233  6.33073849  7.50000000
   6.33073849  0.00000000  7.50000000
   4.22049233  0.00000000  9.61024616
   6.33073849  6.33073849  9.61024616
   4.22065414  6.32663433 11.73818858
   6.33015771  0.00038663 11.73335245
   4.22049769  0.00239840 13.83510567
   6.33162971  6.33057225 13.83328073
   4.22049233  2.11024616  7.50000000
   6.33073849  4.22049233  7.50000000
   4.22049233  4.22049233  9.61024616
   6.33073849  2.11024616  9.61024616
   4.22061825  2.11357333 11.73849236
   6.32697183  4.22000602 11.73821849
   4.22202730  4.21468800 13.88557373
   6.33025996  2.11019738 13.83686536
   0.00000000  6.33073849  9.61024616
   2.11024616  0.00000000  9.61024616
   0.00000000  0.00000000  7.50000000
   2.11024616  6.33073849  7.50000000
   0.00010298  6.33184364 13.88741994
   2.10898379  8.44031282 13.88725419
   0.00001748  8.44073759 11.72932734
   2.11015247  6.33114532 11.72901158
   0.00000000  2.11024616  9.61024616
   2.11024616  4.22049233  9.61024616
   0.00000000  4.22049233  7.50000000
   2.11024616  2.11024616  7.50000000
   0.00018400  2.10930763 13.88746024
   2.10335185  4.22177590 13.88638164
   0.00037956  4.22084759 11.72814275
   2.10941492  2.10998543 11.72889016
   4.22049233  6.33073849  9.61024616
   6.33073849  0.00000000  9.61024616
   4.22049233  0.00000000  7.50000000
   6.33073849  6.33073849  7.50000000
   4.21973446  6.33787666 13.89233205
   6.33181212  8.44022847 13.88765421
   4.22039536  8.43951322 11.72819632
   6.33063615  6.33128109 11.72928792
   4.22049233  2.11024616  9.61024616
   6.33073849  4.22049233  9.61024616
   4.22049233  4.22049233  7.50000000
   6.33073849  2.11024616  7.50000000
   4.22036776  2.10259687 13.87875605
   6.33760125  4.22118636 13.88279863
   4.22027908  4.22120712 11.73710097
   6.33161984  2.10961645 11.72865014

--------------------------------------- Iteration      FINAL  ---------------------------------------

--------------------OUTCAR has been truncated-------------------------

[...]

--------------------OUTCAR has been truncated-------------------------

  DFT-D2 method for vdW energy calculation

  Parameters of vdW forcefield:
         C6(Jnm^6/mol)     R0(A)
   Mg       0.630          1.243
   O        0.700          1.342

  vdW correction parametrized for the method äéü      

  IVDW =   1
  VDW_RADIUS =    50.000 A
  VDW_S6 =     1.050
  VDW_SR =     1.000
  VDW_D =    20.000
  LVDW_EWALD = F

  Number of pair interactions contributing to vdW energy:  723312
  Edisp (eV):   -5.06679

 VOLUME and BASIS-vectors are now :
  energy-cutoff  :      600.00
  volume of cell :     1519.82
      direct lattice vectors                 reciprocal lattice vectors
     8.440984654  0.000000000  0.000000000     0.118469591  0.000000000  0.000000000
     0.000000000  8.440984654  0.000000000     0.000000000  0.118469591  0.000000000
     0.000000000  0.000000000 21.330738491     0.000000000  0.000000000  0.046880702

  length of vectors
     8.440984654  8.440984654 21.330738491     0.118469591  0.118469591  0.046880702

 FORCES acting on ions:
    Electron-Ion                     Ewald-Force                    Non-Local-Force
   0.190E-02 0.843E-01 0.207E+04   -.211E-02 -.862E-01 -.206E+04   0.144E-03 0.120E-02 -.639E+01
   -.868E-01 0.379E-02 0.207E+04   0.888E-01 -.345E-02 -.206E+04   -.130E-02 -.235E-03 -.639E+01
   0.151E-01 -.171E-01 0.683E+03   -.175E-01 0.236E-01 -.684E+03   0.156E-02 -.413E-02 0.448E+00
   -.492E+00 0.475E+00 0.683E+03   0.517E+00 -.493E+00 -.683E+03   -.159E-01 0.116E-01 0.459E+00
   0.217E-02 0.134E+00 -.689E+03   -.809E-02 -.133E+00 0.689E+03   0.646E-02 0.474E-02 -.109E+00
   -.140E+00 0.106E+00 -.689E+03   0.138E+00 -.980E-01 0.689E+03   -.357E-02 -.112E-01 -.112E+00
   0.490E-02 0.788E-01 -.205E+04   -.117E-02 -.939E-01 0.204E+04   -.133E-02 0.393E-02 0.526E+01
   -.116E+01 0.778E+00 -.205E+04   0.107E+01 -.651E+00 0.204E+04   0.769E-01 -.931E-01 0.524E+01
   0.871E-03 -.842E-01 0.207E+04   -.944E-03 0.861E-01 -.206E+04   0.441E-04 -.121E-02 -.639E+01
   -.116E+00 -.360E-02 0.207E+04   0.119E+00 0.333E-02 -.206E+04   -.244E-02 0.171E-03 -.640E+01
   0.131E-01 0.171E-01 0.683E+03   -.107E-01 -.229E-01 -.683E+03   -.156E-02 0.370E-02 0.423E+00
   -.480E+00 -.475E+00 0.683E+03   0.491E+00 0.495E+00 -.684E+03   -.672E-02 -.124E-01 0.456E+00
   -.419E-01 -.128E+00 -.690E+03   0.428E-01 0.126E+00 0.690E+03   0.324E-03 -.402E-02 -.110E+00
   -.127E+01 -.143E+00 -.692E+03   0.141E+01 0.133E+00 0.692E+03   -.125E+00 0.122E-01 -.188E+00
   -.338E+00 -.753E-01 -.205E+04   0.371E+00 0.904E-01 0.204E+04   -.141E-01 -.417E-02 0.524E+01
   0.712E-01 -.645E+00 -.205E+04   -.277E+00 0.498E+00 0.204E+04   0.130E+00 0.103E+00 0.534E+01
   -.209E-02 0.113E+00 0.207E+04   0.222E-02 -.117E+00 -.206E+04   -.807E-04 0.240E-02 -.640E+01
   0.867E-01 0.483E-02 0.207E+04   -.888E-01 -.462E-02 -.206E+04   0.130E-02 -.138E-03 -.639E+01
   -.160E-01 -.616E-02 0.683E+03   0.180E-01 -.436E-02 -.683E+03   -.129E-02 0.689E-02 0.424E+00
   0.491E+00 0.472E+00 0.683E+03   -.518E+00 -.487E+00 -.683E+03   0.167E-01 0.935E-02 0.462E+00
   0.110E-01 0.135E+01 -.693E+03   -.502E-02 -.148E+01 0.693E+03   -.637E-02 0.120E+00 -.139E+00
   0.139E+00 0.149E+00 -.689E+03   -.136E+00 -.148E+00 0.690E+03   0.349E-02 -.495E-02 -.110E+00
   -.499E-02 0.119E+01 -.205E+04   0.240E-03 -.130E+01 0.204E+04   0.207E-02 0.425E-01 0.523E+01
   0.109E+01 0.370E+00 -.205E+04   -.988E+00 -.207E+00 0.204E+04   -.798E-01 -.109E+00 0.528E+01
   -.825E-03 -.114E+00 0.207E+04   0.913E-03 0.117E+00 -.206E+04   -.580E-04 -.221E-02 -.640E+01
   0.116E+00 -.485E-02 0.207E+04   -.120E+00 0.463E-02 -.206E+04   0.239E-02 0.142E-03 -.640E+01
   -.116E-01 -.161E-02 0.681E+03   0.105E-01 0.701E-02 -.682E+03   0.876E-03 -.396E-02 0.529E+00
   0.479E+00 -.472E+00 0.683E+03   -.490E+00 0.487E+00 -.684E+03   0.653E-02 -.921E-02 0.452E+00
   0.505E-01 -.123E+01 -.690E+03   -.515E-01 0.137E+01 0.691E+03   -.306E-03 -.124E+00 -.250E+00
   0.123E+01 -.180E+00 -.691E+03   -.138E+01 0.178E+00 0.691E+03   0.127E+00 0.590E-02 -.217E+00
   0.583E+00 -.203E+01 -.207E+04   -.606E+00 0.211E+01 0.206E+04   -.186E-02 0.136E-01 0.565E+01
   -.918E-01 -.285E+00 -.205E+04   0.298E+00 0.109E+00 0.204E+04   -.132E+00 0.117E+00 0.535E+01
   0.434E-03 0.200E+00 0.512E+03   0.177E-02 -.207E+00 -.512E+03   -.253E-02 0.853E-02 -.753E-01
   -.206E+00 0.309E-01 0.512E+03   0.213E+00 -.336E-01 -.512E+03   -.841E-02 0.283E-02 -.810E-01
   0.162E-02 0.113E-02 0.155E+04   -.191E-02 -.269E-03 -.156E+04   0.360E-03 -.108E-02 0.313E+01
   -.787E-01 0.760E-01 0.155E+04   0.822E-01 -.788E-01 -.156E+04   -.437E-02 0.351E-02 0.313E+01
   0.499E-01 0.768E-01 -.156E+04   -.396E-01 -.747E-01 0.156E+04   -.166E-01 -.128E-01 -.474E+01
   -.798E-01 0.211E-01 -.156E+04   0.863E-01 -.716E-01 0.156E+04   0.385E-02 0.684E-01 -.472E+01
   0.265E-01 -.427E-01 -.512E+03   -.254E-01 0.417E-01 0.512E+03   -.166E-02 0.332E-02 0.199E+00
   -.692E+00 0.577E+00 -.511E+03   0.685E+00 -.569E+00 0.510E+03   0.820E-02 -.121E-01 0.363E+00
   -.359E-02 -.198E+00 0.512E+03   0.314E-02 0.204E+00 -.512E+03   0.622E-03 -.751E-02 -.911E-01
   -.368E+00 -.292E-01 0.511E+03   0.345E+00 0.301E-01 -.511E+03   0.267E-01 -.727E-03 -.128E+00
   0.107E-02 -.119E-02 0.155E+04   -.988E-03 0.303E-03 -.156E+04   -.115E-03 0.110E-02 0.313E+01
   -.768E-01 -.761E-01 0.155E+04   0.788E-01 0.789E-01 -.156E+04   -.249E-02 -.341E-02 0.313E+01
   -.533E-01 -.783E-01 -.156E+04   0.690E-01 0.769E-01 0.156E+04   -.197E-01 0.123E-01 -.468E+01
   -.190E+01 -.175E+00 -.156E+04   0.182E+01 0.254E+00 0.156E+04   0.166E+00 -.101E+00 -.443E+01
   -.692E-01 0.350E-01 -.511E+03   0.751E-01 -.319E-01 0.510E+03   -.895E-02 -.573E-02 0.315E+00
   -.387E+00 -.564E+00 -.511E+03   0.376E+00 0.560E+00 0.511E+03   0.193E-01 0.773E-02 0.310E+00
   -.324E-02 0.362E+00 0.511E+03   0.277E-02 -.337E+00 -.511E+03   0.466E-03 -.291E-01 -.134E+00
   0.206E+00 0.350E-01 0.512E+03   -.212E+00 -.351E-01 -.512E+03   0.781E-02 -.268E-03 -.863E-01
   -.161E-02 0.331E-02 0.155E+04   0.191E-02 -.382E-02 -.156E+04   -.372E-03 0.643E-03 0.313E+01
   0.788E-01 0.756E-01 0.155E+04   -.823E-01 -.779E-01 -.156E+04   0.430E-02 0.294E-02 0.313E+01
   0.382E-01 0.228E+01 -.156E+04   -.678E-01 -.223E+01 0.156E+04   0.375E-01 -.141E+00 -.454E+01
   0.784E-01 0.118E+00 -.156E+04   -.842E-01 -.173E+00 0.156E+04   -.479E-02 0.707E-01 -.471E+01
   -.261E-01 0.279E+00 -.511E+03   0.250E-01 -.296E+00 0.510E+03   0.170E-02 0.267E-01 0.317E+00
   0.687E+00 0.484E+00 -.511E+03   -.681E+00 -.474E+00 0.511E+03   -.687E-02 -.155E-01 0.335E+00
   0.478E-02 -.368E+00 0.511E+03   -.473E-02 0.349E+00 -.511E+03   -.160E-03 0.220E-01 -.124E+00
   0.369E+00 -.369E-01 0.511E+03   -.348E+00 0.372E-01 -.511E+03   -.251E-01 0.336E-05 -.126E+00
   -.117E-02 -.301E-02 0.155E+04   0.103E-02 0.369E-02 -.156E+04   0.187E-03 -.876E-03 0.312E+01
   0.767E-01 -.756E-01 0.155E+04   -.788E-01 0.779E-01 -.156E+04   0.250E-02 -.292E-02 0.313E+01
   0.676E-01 -.152E+01 -.156E+04   -.817E-01 0.139E+01 0.156E+04   0.180E-01 0.217E+00 -.428E+01
   0.168E+01 -.203E+00 -.156E+04   -.158E+01 0.267E+00 0.156E+04   -.188E+00 -.818E-01 -.436E+01
   0.878E-01 -.346E+00 -.520E+03   -.909E-01 0.355E+00 0.520E+03   0.546E-02 -.172E-01 -.177E+00
   0.380E+00 -.469E+00 -.511E+03   -.368E+00 0.462E+00 0.511E+03   -.197E-01 0.128E-01 0.313E+00
   0.260E-01 -.111E+00 0.187E+02   -.475E-13 0.617E-13 -.273E-11   -.240E-01 0.101E+00 -.164E+02

 POSITION                                       TOTAL-FORCE (eV/Angst)
      0.00000      6.33074      7.50000        -0.000049     -0.000495      0.465766
      2.11025      0.00000      7.50000         0.000551      0.000096      0.466243
      0.00000      0.00000      9.61025        -0.000674      0.001853      0.042619
      2.11025      6.33074      9.61025         0.006910     -0.005181      0.043848
      8.44060      6.33027     11.73262         0.001048      0.005191      0.044303
      2.11075      0.00071     11.73296        -0.005826     -0.003883      0.041656
      8.44077      0.00066     13.83888         0.002108     -0.010002     -0.054819
      2.10856      6.33162     13.83021        -0.005195      0.023065      0.002250
      0.00000      2.11025      7.50000        -0.000024      0.000532      0.466862
      2.11025      4.22049      7.50000         0.000844     -0.000074      0.468243
      0.00000      4.22049      9.61025         0.000620     -0.001574      0.051217
      2.11025      2.11025      9.61025         0.003525      0.005793      0.042384
      8.44092      2.11085     11.73364         0.001099     -0.005810      0.036283
      2.11418      4.21996     11.73800         0.002155      0.003216      0.017676
      8.44023      4.22002     13.83502         0.016384      0.009772     -0.033585
      2.11085      2.11002     13.83647        -0.058561     -0.031753     -0.069535
      4.22049      6.33074      7.50000         0.000037     -0.000809      0.468868
      6.33074      0.00000      7.50000        -0.000558      0.000069      0.466577
      4.22049      0.00000      9.61025         0.000549     -0.002773      0.051189
      6.33074      6.33074      9.61025        -0.007424     -0.004448      0.043441
      4.22065      6.32663     11.73819        -0.000917     -0.002241      0.030870
      6.33016      0.00039     11.73335         0.005844     -0.003926      0.039713
      4.22050      0.00240     13.83511        -0.002305     -0.055899     -0.030431
      6.33163      6.33057     13.83328         0.010691      0.041593     -0.026873
      4.22049      2.11025      7.50000         0.000023      0.000792      0.467751
      6.33074      4.22049      7.50000        -0.000835     -0.000049      0.467968
      4.22049      4.22049      9.61025        -0.000188      0.001008      0.055639
      6.33074      2.11025      9.61025        -0.003416      0.004462      0.042313
      4.22062      2.11357     11.73849        -0.001281      0.004119     -0.010453
      6.32697      4.22001     11.73822        -0.002855      0.003548      0.005077
      4.22203      4.21469     13.88557        -0.023574      0.080801     -0.392813
      6.33026      2.11020     13.83687         0.058328     -0.044842     -0.077972
      0.00000      6.33074      9.61025        -0.000683      0.003054      0.058681
      2.11025      0.00000      9.61025        -0.003009      0.000550      0.058301
      0.00000      0.00000      7.50000         0.000121     -0.000356     -0.433992
      2.11025      6.33074      7.50000        -0.001460      0.001188     -0.435017
      0.00010      6.33184     13.88742        -0.008822     -0.012764     -0.163206
      2.10898      8.44031     13.88725         0.011304      0.027844     -0.157319
      0.00002      8.44074     11.72933        -0.000796      0.002809      0.007942
      2.11015      6.33115     11.72901         0.002130     -0.005200      0.017836
      0.00000      2.11025      9.61025         0.000267     -0.002725      0.057953
      2.11025      4.22049      9.61025         0.007774      0.000109      0.066916
      0.00000      4.22049      7.50000        -0.000045      0.000375     -0.435130
      2.11025      2.11025      7.50000        -0.000810     -0.001133     -0.435273
      0.00018      2.10931     13.88746        -0.006739      0.012925     -0.145932
      2.10335      4.22178     13.88638         0.110270     -0.035738     -0.070697
      0.00038      4.22085     11.72814        -0.004309     -0.003367      0.030562
      2.10941      2.10999     11.72889         0.010758      0.004100      0.030631
      4.22049      6.33074      9.61025         0.000066     -0.008515      0.065482
      6.33074      0.00000      9.61025         0.002822     -0.000394      0.058274
      4.22049      0.00000      7.50000        -0.000124      0.000233     -0.435189
      6.33074      6.33074      7.50000         0.001432      0.000993     -0.435122
      4.21973      6.33788     13.89233         0.013288     -0.115091     -0.114613
      6.33181      8.44023     13.88765        -0.011684      0.025763     -0.153758
      4.22040      8.43951     11.72820         0.000838      0.013966      0.030876
      6.33064      6.33128     11.72929        -0.001856     -0.007828      0.021208
      4.22049      2.11025      9.61025        -0.000145      0.006414      0.070909
      6.33074      4.22049      9.61025        -0.007238      0.000339      0.068760
      4.22049      4.22049      7.50000         0.000071     -0.000315     -0.436851
      6.33074      2.11025      7.50000         0.000824     -0.000968     -0.435318
      4.22037      2.10260     13.87876         0.006459      0.114702     -0.007866
      6.33760      4.22119     13.88280        -0.110153     -0.029163     -0.040914
      4.22028      4.22121     11.73710         0.003217     -0.010974      0.024743
      6.33162      2.10962     11.72865        -0.010803      0.007015      0.034846
    total drift:                               -0.000010     -0.000645      0.001068

  FREE ENERGIE OF THE ION-ELECTRON SYSTEM (eV)
  free  energy   TOTEN  =      -438.42362299 eV

  energy  without entropy=     -438.42362299  energy(sigma->0) =     -438.42362299