 vasp.6.3.0 20Jan22 (build Apr  1 2022 16:44:48) complex
 executed on        HPECrayEX_GCC date 2023.04.06  22:13:26

 INCAR:
   SYSTEM = MgO-rocksalt
   ISMEAR = 0
   SIGMA = 0.05
   EDIFF = 1E-7
   ALGO = ALL
   ISTART = 0
   IBRION = 2
   NSW = 1000
   ISYM = 0
   ISIF = 2
   EDIFFG = -0.01
   DIPOL = 0.5 0.5 0.5
   IDIPOL = 3
   LDIPOL = .TRUE.
   GGA = RE
   IVDW = 13
   VDW_S8 = 1.7468
   VDW_A1 = 0.5363
   VDW_A2 = 3.0726
   ENCUT = 600
   PREC = Accurate
   LASPH = .TRUE.
   LREAL = .FALSE.
   ISPIN = 1
   NELM = 200
   NELMIN = 8
   NCORE = 8
   KPAR = 1
   LWAVE = .FALSE.
   LCHARG = .FALSE.

 POTCAR:    PAW_PBE Ti_pv 07Sep2000
 POTCAR:    PAW_PBE O 08Apr2002
 POTCAR:    PAW_PBE Ti_pv 07Sep2000
   VRHFIN =Ti: d3 s1

   TITEL  = PAW_PBE Ti_pv 07Sep2000
   POMASS =   47.880; ZVAL   =   10.000    mass and valenz
   ENMAX  =  222.335; ENMIN  =  166.751 eV

   TITEL  = PAW_PBE O 08Apr2002
   POMASS =   16.000; ZVAL   =    6.000    mass and valenz
   ENMAX  =  400.000; ENMIN  =  300.000 eV

  PAW_PBE Ti_pv 07Sep2000               :
  PAW_PBE O 08Apr2002                   :

 POSCAR: Ti  O
  positions in direct lattice
|           W    W    AA    RRRRR   N    N  II  N    N   GGGG   !!!           |
|           W    W   A  A   R    R  NN   N  II  NN   N  G    G  !!!           |
|           W    W  A    A  R    R  N N  N  II  N N  N  G       !!!           |
|           W WW W  AAAAAA  RRRRR   N  N N  II  N  N N  G  GGG   !            |
|           WW  WW  A    A  R   R   N   NN  II  N   NN  G    G                |
|           W    W  A    A  R    R  N    N  II  N    N   GGGG   !!!           |
|     Specifying the vdW parameters                                           |
|     VDW_S8 = 1.747                                                          |
|     VDW_A1 = 0.536                                                          |
|     VDW_A2 = 3.073                                                          |
|     in the INCAR file will overwrite the defaults for revpbe. Please        |
|     make sure that is what you intended.                                    |

 ion  position               nearest neighbor table
   1  0.808  0.833  0.295-  85 1.94  51 1.94  53 1.94  50 1.99  52 1.99  18 3.05   4 3.05   2 3.05

   2  0.592  0.667  0.327-  49 1.94 116 1.94  52 1.94  54 1.94  53 1.99  55 1.99  33 3.05   3 3.05
                             7 3.05   1 3.05
   3  0.308  0.667  0.295- 121 1.94  55 1.94  57 1.94  49 1.99  56 1.99  36 3.05   2 3.05   4 3.05

   4  0.092  0.833  0.327-  50 1.94  88 1.94  56 1.94  58 1.94  57 1.99  51 1.99  19 3.05   1 3.05
                             5 3.05   3 3.05
   5  0.944  0.833  0.421-  51 1.94  93 1.94  59 1.94  61 1.94  58 1.99  60 1.99   4 3.05  22 3.05
                             8 3.05   6 3.05
   6  0.728  0.667  0.453-  62 1.94 124 1.94  54 1.94  60 1.94  63 1.99  61 1.99  11 3.05  37 3.05
                             7 3.05   5 3.05
   7  0.444  0.667  0.421-  55 1.94 129 1.94  63 1.94  65 1.94  54 1.99  64 1.99   2 3.05  40 3.05
                             6 3.05   8 3.05
   8  0.228  0.833  0.453-  66 1.94  96 1.94  58 1.94  64 1.94  59 1.99  65 1.99   9 3.05  23 3.05
                             5 3.05   7 3.05
   9  0.080  0.833  0.547-  59 1.94 101 1.94  67 1.94  69 1.94  66 1.99  68 1.99   8 3.05  26 3.05
                            12 3.05  10 3.05
  10  0.864  0.667  0.579-  70 1.94 132 1.94  62 1.94  68 1.94  71 1.99  69 1.99  15 3.05  41 3.05
                            11 3.05   9 3.05
  11  0.580  0.667  0.547-  63 1.94 137 1.94  71 1.94  73 1.94  62 1.99  72 1.99   6 3.05  44 3.05
                            10 3.05  12 3.05
  12  0.364  0.833  0.579-  74 1.94 104 1.94  66 1.94  72 1.94  67 1.99  73 1.99  13 3.05  27 3.05
                             9 3.05  11 3.05
  13  0.216  0.833  0.673-  75 1.94 109 1.94  77 1.94  67 1.94  76 1.99  74 1.99  30 3.05  16 3.05
                            12 3.05  14 3.05
  14  0.000  0.667  0.705- 140 1.94  70 1.94  76 1.94  78 1.99  77 1.99  45 3.05  15 3.05  13 3.05

[...]

  17  0.808  0.167  0.295-  85 1.94  83 1.94 117 1.94  82 1.99  84 1.99  18 3.05  20 3.05  34 3.05

[...]

  36  0.092  0.500  0.327- 114 1.94  56 1.94 120 1.94 122 1.94 121 1.99 115 1.99  35 3.05   3 3.05
                            33 3.05  37 3.05
  37  0.944  0.500  0.421- 115 1.94  61 1.94 125 1.94 123 1.94 122 1.99 124 1.99  36 3.05   6 3.05
                            38 3.05  40 3.05
  38  0.728  0.333  0.453- 126 1.94 124 1.94 118 1.94  92 1.94 127 1.99 125 1.99  43 3.05  37 3.05
                            39 3.05  21 3.05
  39  0.444  0.333  0.421- 119 1.94 129 1.94 127 1.94  97 1.94 118 1.99 128 1.99  34 3.05  40 3.05
                            38 3.05  24 3.05
  40  0.228  0.500  0.453- 130 1.94 128 1.94  64 1.94 122 1.94 123 1.99 129 1.99  41 3.05  39 3.05
                             7 3.05  37 3.05
  41  0.080  0.500  0.547- 123 1.94  69 1.94 133 1.94 131 1.94 130 1.99 132 1.99  40 3.05  10 3.05
                            42 3.05  44 3.05
  42  0.864  0.333  0.579- 134 1.94 132 1.94 126 1.94 100 1.94 135 1.99 133 1.99  47 3.05  41 3.05
                            43 3.05  25 3.05
  43  0.580  0.333  0.547- 127 1.94 137 1.94 135 1.94 105 1.94 126 1.99 136 1.99  38 3.05  44 3.05
                            42 3.05  28 3.05
  44  0.364  0.500  0.579- 138 1.94 136 1.94  72 1.94 130 1.94 131 1.99 137 1.99  45 3.05  43 3.05
                            11 3.05  41 3.05
  45  0.216  0.500  0.673- 139 1.94  77 1.94 141 1.94 131 1.94 140 1.99 138 1.99  14 3.05  46 3.05
                            48 3.05  44 3.05
  46  0.000  0.333  0.705- 140 1.94 134 1.94 108 1.94 141 1.99 142 1.99  45 3.05  47 3.05  29 3.05

  47  0.716  0.333  0.673- 142 1.94 144 1.94 112 1.94 135 1.94 143 1.99 134 1.99  48 3.05  46 3.05
                            42 3.05  32 3.05
  48  0.500  0.500  0.705-  79 1.94 143 1.94 138 1.94 139 1.99 144 1.99  47 3.05  15 3.05  45 3.05

  49  0.488  0.667  0.269-   2 1.94   3 1.99
  50  0.988  0.833  0.269-   4 1.94   1 1.99
  51  0.911  0.833  0.353-   5 1.94   1 1.94   4 1.99
  52  0.627  0.833  0.321-  18 1.94   2 1.94   1 1.99
  53  0.772  0.667  0.300-  33 1.94   1 1.94   2 1.99
  54  0.624  0.667  0.395-   6 1.94   2 1.94   7 1.99
  55  0.411  0.667  0.353-   7 1.94   3 1.94   2 1.99
  56  0.127  0.667  0.321-  36 1.94   4 1.94   3 1.99
  57  0.272  0.833  0.300-  19 1.94   3 1.94   4 1.99
  58  0.124  0.833  0.395-   8 1.94   4 1.94   5 1.99
  59  0.047  0.833  0.479-   9 1.94   5 1.94   8 1.99
  60  0.763  0.833  0.447-  22 1.94   6 1.94   5 1.99
  61  0.908  0.667  0.426-  37 1.94   5 1.94   6 1.99
  62  0.760  0.667  0.521-   6 1.94  10 1.94  11 1.99
  63  0.547  0.667  0.479-  11 1.94   7 1.94   6 1.99
  64  0.263  0.667  0.447-  40 1.94   8 1.94   7 1.99
  65  0.408  0.833  0.426-  23 1.94   7 1.94   8 1.99
  66  0.260  0.833  0.521-   8 1.94  12 1.94   9 1.99
  67  0.184  0.833  0.605-   9 1.94  13 1.94  12 1.99
  68  0.900  0.833  0.574-  26 1.94  10 1.94   9 1.99
  69  0.044  0.667  0.553-  41 1.94   9 1.94  10 1.99
  70  0.896  0.667  0.647-  10 1.94  14 1.94  15 1.99
  71  0.684  0.667  0.605-  11 1.94  15 1.94  10 1.99
  72  0.400  0.667  0.574-  44 1.94  12 1.94  11 1.99
  73  0.544  0.833  0.553-  27 1.94  11 1.94  12 1.99
  74  0.396  0.833  0.647-  12 1.94  16 1.94  13 1.99
  75  0.320  0.833  0.731-  13 1.94  16 1.99
  76  0.036  0.833  0.700-  30 1.94  14 1.94  13 1.99
  77  0.180  0.667  0.679-  45 1.94  13 1.94  14 1.99
  78  0.820  0.667  0.731-  15 1.94  14 1.99
  79  0.536  0.667  0.700-  48 1.94  16 1.94  15 1.99
  80  0.680  0.833  0.679-  31 1.94  15 1.94  16 1.99
  81  0.488  0.000  0.269-  18 1.94  19 1.99
  82  0.988  0.167  0.269-  20 1.94  17 1.99
  83  0.911  0.167  0.353-  21 1.94  17 1.94  20 1.99
  84  0.627  0.167  0.321-  18 1.94  34 1.94  17 1.99
  85  0.772  0.000  0.300-   1 1.94  17 1.94  18 1.99
  86  0.624  0.000  0.395-  22 1.94  18 1.94  23 1.99
  87  0.411  0.000  0.353-  23 1.94  19 1.94  18 1.99
  88  0.127  0.000  0.321-   4 1.94  20 1.94  19 1.99
  89  0.272  0.167  0.300-  19 1.94  35 1.94  20 1.99
  90  0.124  0.167  0.395-  24 1.94  20 1.94  21 1.99
  91  0.047  0.167  0.479-  25 1.94  21 1.94  24 1.99
  92  0.763  0.167  0.447-  22 1.94  38 1.94  21 1.99
  93  0.908  0.000  0.426-   5 1.94  21 1.94  22 1.99
  94  0.760  0.000  0.521-  22 1.94  26 1.94  27 1.99
  95  0.547  0.000  0.479-  27 1.94  23 1.94  22 1.99
  96  0.263  0.000  0.447-   8 1.94  24 1.94  23 1.99
  97  0.408  0.167  0.426-  23 1.94  39 1.94  24 1.99
  98  0.260  0.167  0.521-  24 1.94  28 1.94  25 1.99
  99  0.184  0.167  0.605-  25 1.94  29 1.94  28 1.99
 100  0.900  0.167  0.574-  26 1.94  42 1.94  25 1.99
 101  0.044  0.000  0.553-   9 1.94  25 1.94  26 1.99
 102  0.896  0.000  0.647-  26 1.94  30 1.94  31 1.99
 103  0.684  0.000  0.605-  27 1.94  31 1.94  26 1.99
 104  0.400  0.000  0.574-  12 1.94  28 1.94  27 1.99
 105  0.544  0.167  0.553-  27 1.94  43 1.94  28 1.99
 106  0.396  0.167  0.647-  28 1.94  32 1.94  29 1.99
 107  0.320  0.167  0.731-  29 1.94  32 1.99
 108  0.036  0.167  0.700-  30 1.94  46 1.94  29 1.99
[...]
 130  0.260  0.500  0.521-  40 1.94  44 1.94  41 1.99
 131  0.184  0.500  0.605-  41 1.94  45 1.94  44 1.99
 132  0.900  0.500  0.574-  10 1.94  42 1.94  41 1.99
 133  0.044  0.333  0.553-  41 1.94  25 1.94  42 1.99
 134  0.896  0.333  0.647-  42 1.94  46 1.94  47 1.99
 135  0.684  0.333  0.605-  43 1.94  47 1.94  42 1.99
 136  0.400  0.333  0.574-  44 1.94  28 1.94  43 1.99
 137  0.544  0.500  0.553-  11 1.94  43 1.94  44 1.99
 138  0.396  0.500  0.647-  44 1.94  48 1.94  45 1.99
 139  0.320  0.500  0.731-  45 1.94  48 1.99
 140  0.036  0.500  0.700-  14 1.94  46 1.94  45 1.99
 141  0.180  0.333  0.679-  45 1.94  29 1.94  46 1.99
 142  0.820  0.333  0.731-  47 1.94  46 1.99
 143  0.536  0.333  0.700-  48 1.94  32 1.94  47 1.99
 144  0.680  0.500  0.679-  15 1.94  47 1.94  48 1.99

IMPORTANT INFORMATION: All symmetrisations will be switched off!
NOSYMM: (Re-)initialisation of all symmetry stuff for point group C_1.

                                     Primitive cell

  volume of cell :    3260.9117

  direct lattice vectors                    reciprocal lattice vectors
    10.273755933  0.000000000  0.000000000     0.097335386 -0.000000000  0.000000000
     0.000000000 11.368810418  0.000000000     0.000000000  0.087959950  0.000000000
     0.000000000  0.000000000 27.918672987     0.000000000  0.000000000  0.035818321

  length of vectors
    10.273755933 11.368810418 27.918672987     0.097335386  0.087959950  0.035818321

  position of ions in fractional coordinates (direct lattice)
     0.807806441  0.833333333  0.294980927
     0.591821331  0.666666667  0.326522323
     0.307806441  0.666666667  0.294980927
     0.091821331  0.833333333  0.326522323
     0.943865998  0.833333333  0.421146510
     0.727880887  0.666666667  0.452687906
     0.443865998  0.666666667  0.421146510
     0.227880887  0.833333333  0.452687906
     0.079925554  0.833333333  0.547312094
     0.863940444  0.666666667  0.578853490
     0.579925554  0.666666667  0.547312094
     0.363940444  0.833333333  0.578853490
     0.215985111  0.833333333  0.673477677
[...]
   1.85330076  3.78960347 18.94772092
   8.42045517  3.78960347 20.41867299
   5.50255552  3.78960347 19.53807907
   6.99017873  5.68440521 18.94772092

--------------------------------------- Iteration      FINAL  ---------------------------------------

--------------------OUTCAR has been truncated-------------------------

[...]

--------------------OUTCAR has been truncated-------------------------

  FORCE on cell =-STRESS in cart. coord.  units (eV):
  Direction    XX          YY          ZZ          XY          YZ          ZX
  Alpha Z  2415.09386  2415.09386  2415.09386
  Ewald  488963.15247482400.19439************     0.00006     0.00007 -1821.67785
  Hartree509901.61451505913.96069************     0.00003     0.00004 -1243.90394
  E(xc)   -5160.48066 -5166.23182 -5177.05209     0.00000     0.00000    -1.77387
  Local  ************************************    -0.00009    -0.00011  3075.55170
  n-local -3221.54998 -3191.21519 -3235.50954     0.00000     0.00000     1.23805
  augment  3130.20314  3125.52318  3115.81242     0.00000     0.00000    -0.97678
  Kinetic 17036.48073 17097.16244 17148.54184    -0.00000    -0.00000   -16.48336
  Fock        0.00000     0.00000     0.00000     0.00000     0.00000     0.00000
  vdW       -68.57903   -71.66129   -61.07866    -0.00000    -0.00000    -0.72922
  Total     -38.39966   -13.61040   -13.52251    -0.00000     0.00000    -8.75527
  in kB     -18.86683    -6.68717    -6.64399    -0.00000     0.00000    -4.30171

 VOLUME and BASIS-vectors are now :
  energy-cutoff  :      600.00
  volume of cell :     3260.91
      direct lattice vectors                 reciprocal lattice vectors
    10.273755933  0.000000000  0.000000000     0.097335386 -0.000000000  0.000000000
     0.000000000 11.368810418  0.000000000     0.000000000  0.087959950  0.000000000
     0.000000000  0.000000000 27.918672987     0.000000000  0.000000000  0.035818321

  length of vectors
    10.273755933 11.368810418 27.918672987     0.097335386  0.087959950  0.035818321

 FORCES acting on ions:
    Electron-Ion                     Ewald-Force                    Non-Local-Force
   0.645E+01 0.311E-05 0.337E+04   -.154E+01 -.342E-05 -.336E+04   -.112E+01 0.700E-07 -.348E+01
   0.417E+01 -.481E-06 0.277E+04   -.579E+01 0.368E-06 -.277E+04   -.625E-01 0.344E-07 -.280E-01
   0.645E+01 0.808E-05 0.337E+04   -.154E+01 -.883E-05 -.336E+04   -.112E+01 0.185E-06 -.348E+01
   0.417E+01 0.589E-05 0.277E+04   -.579E+01 -.623E-05 -.277E+04   -.625E-01 0.705E-07 -.280E-01
   0.301E+00 0.373E-06 0.125E+04   -.485E+00 -.912E-06 -.125E+04   0.185E+00 0.313E-06 0.138E-01
   -.388E+01 -.100E-03 0.773E+03   0.394E+01 0.106E-03 -.773E+03   -.211E-01 -.772E-06 -.142E+00
   0.301E+00 0.335E-04 0.125E+04   -.485E+00 -.393E-04 -.125E+04   0.185E+00 0.103E-05 0.137E-01
   -.388E+01 -.131E-04 0.773E+03   0.395E+01 0.111E-04 -.773E+03   -.212E-01 0.543E-06 -.142E+00
   -.244E+01 0.436E-04 -.807E+03   0.214E+01 -.485E-04 0.807E+03   0.305E+00 0.937E-06 0.131E+00
   -.704E+01 0.724E-04 -.123E+04   0.723E+01 -.802E-04 0.123E+04   -.104E+00 0.134E-05 -.256E+00
   -.243E+01 0.275E-04 -.807E+03   0.213E+01 -.289E-04 0.807E+03   0.305E+00 0.521E-06 0.131E+00
   -.703E+01 -.245E-04 -.123E+04   0.722E+01 0.279E-04 0.123E+04   -.104E+00 -.492E-06 -.256E+00
   0.183E+02 -.605E-04 -.281E+04   -.192E+02 0.662E-04 0.281E+04   0.930E+00 -.877E-06 -.164E+00
   -.723E+02 0.204E-04 -.321E+04   0.725E+02 -.202E-04 0.321E+04   0.613E-01 -.761E-07 0.812E+00
   0.183E+02 0.309E-04 -.281E+04   -.192E+02 -.293E-04 0.281E+04   0.930E+00 -.923E-06 -.164E+00
   -.723E+02 0.312E-04 -.321E+04   0.725E+02 -.316E-04 0.321E+04   0.619E-01 -.970E-07 0.812E+00
   0.645E+01 0.518E-06 0.337E+04   -.154E+01 -.315E-06 -.336E+04   -.112E+01 -.303E-07 -.348E+01
   0.417E+01 0.702E-05 0.277E+04   -.579E+01 -.742E-05 -.277E+04   -.625E-01 0.857E-07 -.280E-01
   0.645E+01 -.166E-05 0.337E+04   -.154E+01 0.203E-05 -.336E+04   -.112E+01 -.995E-07 -.348E+01
   0.417E+01 -.111E-04 0.277E+04   -.579E+01 0.121E-04 -.277E+04   -.625E-01 -.204E-06 -.280E-01
   0.300E+00 -.785E-04 0.125E+04   -.485E+00 0.800E-04 -.125E+04   0.185E+00 -.897E-07 0.138E-01
   -.388E+01 0.938E-04 0.773E+03   0.394E+01 -.100E-03 -.773E+03   -.211E-01 0.109E-05 -.142E+00
   0.301E+00 0.304E-04 0.125E+04   -.485E+00 -.313E-04 -.125E+04   0.185E+00 0.303E-06 0.137E-01
   -.388E+01 -.847E-04 0.773E+03   0.395E+01 0.940E-04 -.773E+03   -.212E-01 -.161E-05 -.142E+00
   -.244E+01 -.735E-04 -.807E+03   0.214E+01 0.783E-04 0.807E+03   0.305E+00 -.373E-06 0.131E+00
   -.704E+01 0.794E-05 -.123E+04   0.723E+01 -.916E-05 0.123E+04   -.104E+00 0.549E-06 -.256E+00
   -.243E+01 -.384E-04 -.807E+03   0.213E+01 0.423E-04 0.807E+03   0.305E+00 -.101E-05 0.131E+00
   -.703E+01 0.833E-06 -.123E+04   0.722E+01 -.263E-05 0.123E+04   -.104E+00 0.504E-07 -.256E+00
   0.183E+02 0.934E-07 -.281E+04   -.192E+02 -.401E-05 0.281E+04   0.930E+00 -.156E-06 -.164E+00
   -.723E+02 -.307E-04 -.321E+04   0.725E+02 0.335E-04 0.321E+04   0.613E-01 -.260E-06 0.812E+00
   0.183E+02 0.164E-04 -.281E+04   -.192E+02 -.211E-04 0.281E+04   0.930E+00 0.176E-05 -.164E+00
   -.723E+02 -.408E-05 -.321E+04   0.725E+02 0.459E-05 0.321E+04   0.619E-01 -.835E-06 0.812E+00
   0.645E+01 -.328E-05 0.337E+04   -.154E+01 0.340E-05 -.336E+04   -.112E+01 -.415E-07 -.348E+01
   0.417E+01 -.773E-05 0.277E+04   -.579E+01 0.831E-05 -.277E+04   -.625E-01 -.148E-06 -.280E-01
   0.645E+01 -.671E-05 0.337E+04   -.154E+01 0.709E-05 -.336E+04   -.112E+01 -.902E-07 -.348E+01
   0.417E+01 0.667E-05 0.277E+04   -.579E+01 -.744E-05 -.277E+04   -.625E-01 0.187E-06 -.280E-01
   0.300E+00 0.589E-04 0.125E+04   -.485E+00 -.605E-04 -.125E+04   0.185E+00 0.192E-06 0.138E-01
   -.388E+01 -.878E-05 0.773E+03   0.394E+01 0.880E-05 -.773E+03   -.211E-01 -.767E-07 -.142E+00
   0.301E+00 -.839E-04 0.125E+04   -.485E+00 0.911E-04 -.125E+04   0.185E+00 -.119E-05 0.137E-01
   -.388E+01 0.689E-04 0.773E+03   0.395E+01 -.755E-04 -.773E+03   -.212E-01 0.122E-05 -.142E+00
   -.244E+01 0.257E-04 -.807E+03   0.214E+01 -.261E-04 0.807E+03   0.305E+00 -.358E-06 0.131E+00
   -.704E+01 -.756E-04 -.123E+04   0.723E+01 0.842E-04 0.123E+04   -.104E+00 -.184E-05 -.256E+00
   -.243E+01 0.237E-05 -.807E+03   0.213E+01 -.364E-05 0.807E+03   0.305E+00 -.376E-07 0.131E+00
   -.704E+01 0.365E-04 -.123E+04   0.722E+01 -.378E-04 0.123E+04   -.104E+00 0.383E-06 -.256E+00
   0.183E+02 0.240E-04 -.281E+04   -.192E+02 -.248E-04 0.281E+04   0.930E+00 0.101E-05 -.164E+00
   -.723E+02 0.709E-05 -.321E+04   0.725E+02 -.105E-04 0.321E+04   0.613E-01 0.619E-06 0.812E+00
   0.183E+02 -.346E-04 -.281E+04   -.192E+02 0.368E-04 0.281E+04   0.930E+00 -.716E-06 -.164E+00
   -.723E+02 0.260E-04 -.321E+04   0.725E+02 -.253E-04 0.321E+04   0.619E-01 -.268E-06 0.812E+00
   -.323E+02 0.128E-05 0.228E+04   0.371E+02 -.138E-05 -.229E+04   -.656E+01 0.138E-06 0.171E+02
   -.323E+02 0.140E-05 0.228E+04   0.371E+02 -.152E-05 -.229E+04   -.656E+01 0.147E-06 0.171E+02
   0.814E+02 0.788E-05 0.138E+04   -.862E+02 -.903E-05 -.137E+04   0.384E+01 0.131E-05 -.444E+01
   0.745E+02 0.156E-05 0.168E+04   -.815E+02 -.191E-05 -.168E+04   0.742E+01 0.831E-06 -.270E+01
   -.862E+02 -.274E-05 0.194E+04   0.935E+02 0.259E-05 -.194E+04   -.697E+01 0.487E-06 -.166E+00
   -.710E+02 -.119E-04 0.105E+04   0.767E+02 0.127E-04 -.106E+04   -.581E+01 -.742E-06 0.442E+01
   0.814E+02 0.143E-04 0.138E+04   -.862E+02 -.156E-04 -.137E+04   0.384E+01 0.142E-05 -.444E+01
   0.745E+02 0.674E-05 0.168E+04   -.815E+02 -.751E-05 -.168E+04   0.742E+01 0.174E-05 -.270E+01
   -.862E+02 0.141E-05 0.194E+04   0.935E+02 -.159E-05 -.194E+04   -.697E+01 0.580E-06 -.166E+00
   -.710E+02 0.815E-05 0.105E+04   0.767E+02 -.914E-05 -.106E+04   -.581E+01 0.125E-05 0.442E+01
   0.789E+02 0.241E-04 0.145E+03   -.853E+02 -.272E-04 -.140E+03   0.640E+01 0.349E-05 -.495E+01
   0.781E+02 0.110E-04 0.469E+03   -.846E+02 -.105E-04 -.466E+03   0.652E+01 -.522E-06 -.306E+01
[...]
   0.822E+02 0.716E-05 -.109E+04   -.886E+02 -.497E-05 0.110E+04   0.635E+01 -.234E-05 -.731E+01
   0.774E+02 -.245E-04 -.745E+03   -.839E+02 0.256E-04 0.748E+03   0.650E+01 -.715E-06 -.330E+01
   -.781E+02 -.328E-04 -.477E+03   0.844E+02 0.337E-04 0.474E+03   -.623E+01 -.160E-06 0.277E+01
   -.544E+02 -.166E-04 -.131E+04   0.565E+02 0.172E-04 0.130E+04   -.212E+01 -.559E-06 0.983E+01
   0.822E+02 -.267E-04 -.109E+04   -.886E+02 0.301E-04 0.110E+04   0.635E+01 -.422E-05 -.731E+01
   0.774E+02 -.563E-04 -.745E+03   -.839E+02 0.594E-04 0.748E+03   0.650E+01 0.459E-06 -.330E+01
   -.781E+02 -.211E-05 -.477E+03   0.843E+02 0.167E-05 0.474E+03   -.623E+01 0.144E-05 0.277E+01
   -.544E+02 -.513E-05 -.131E+04   0.565E+02 0.771E-05 0.130E+04   -.212E+01 -.269E-05 0.983E+01
   0.469E+02 -.144E-04 -.230E+04   -.522E+02 0.184E-04 0.232E+04   0.533E+01 -.441E-05 -.212E+02
   0.604E+02 0.423E-04 -.203E+04   -.652E+02 -.432E-04 0.204E+04   0.479E+01 0.978E-06 -.795E+01
   -.588E+02 -.713E-05 -.166E+04   0.641E+02 0.748E-05 0.166E+04   -.536E+01 0.130E-05 0.349E+01
   0.469E+02 0.104E-04 -.230E+04   -.522E+02 -.132E-04 0.232E+04   0.533E+01 0.309E-05 -.212E+02
   0.604E+02 -.402E-04 -.203E+04   -.652E+02 0.424E-04 0.204E+04   0.479E+01 -.187E-05 -.795E+01
   -.588E+02 -.708E-04 -.166E+04   0.641E+02 0.741E-04 0.166E+04   -.536E+01 -.143E-06 0.349E+01
   -.165E+02 -.586E-05 0.729E+02   -.136E-11 0.324E-12 0.364E-11   0.165E+02 0.618E-05 -.729E+02

 POSITION                                       TOTAL-FORCE (eV/Angst)
      8.29921      9.47401      8.23548         3.828255     -0.000000      1.701166
      6.08023      7.57921      9.11607        -1.682192     -0.000000     -1.857875
      3.16233      7.57921      8.23548         3.828273     -0.000001      1.701166
      0.94335      9.47401      9.11607        -1.682198     -0.000000     -1.857909
      9.70265      9.47401     11.79908        -0.003068     -0.000000     -0.008480
      7.45339      7.57921     12.60547         0.003189      0.000005     -0.003901
      4.56577      7.57921     11.79908        -0.003032     -0.000005     -0.008398
      2.31650      9.47401     12.60546         0.003403     -0.000001     -0.003661
      0.87492      9.47401     15.35932        -0.001162     -0.000004      0.002829
      8.87218      7.57921     16.09021        -0.002705     -0.000006     -0.001682
      6.01181      7.57921     15.35932        -0.002018     -0.000001      0.002601
      3.73530      9.47401     16.09020        -0.002786      0.000003     -0.001406
      2.38510      9.47401     18.98753         0.005578      0.000004      0.004270
      0.03468      7.57921     19.55509         0.000431      0.000000      0.003101
      7.52198      7.57921     18.98753         0.005556      0.000001      0.004294
      5.17160      9.47401     19.55511        -0.002103     -0.000000      0.002034
      8.29921      1.89480      8.23548         3.828257      0.000000      1.701166
      6.08023      0.00000      9.11607        -1.682192     -0.000000     -1.857877
      3.16233      0.00000      8.23548         3.828272      0.000000      1.701165
      0.94335      1.89480      9.11607        -1.682197      0.000001     -1.857905
      9.70265      1.89480     11.79908        -0.003054      0.000001     -0.008478
      7.45339      0.00000     12.60547         0.003192     -0.000005     -0.003899
      4.56577     -0.00000     11.79908        -0.003032     -0.000001     -0.008397
      2.31650      1.89480     12.60546         0.003393      0.000007     -0.003664
      0.87492      1.89480     15.35932        -0.001164      0.000004      0.002820
      8.87218      0.00000     16.09021        -0.002711     -0.000001     -0.001679
      6.01181     -0.00000     15.35932        -0.002019      0.000003      0.002604
      3.73530      1.89480     16.09020        -0.002781     -0.000002     -0.001410
      2.38510      1.89480     18.98753         0.005580     -0.000004      0.004274
      0.03468     -0.00000     19.55509         0.000429      0.000002      0.003090
      7.52198      0.00000     18.98753         0.005561     -0.000003      0.004290
      5.17160      1.89480     19.55511        -0.002112     -0.000000      0.002030
      8.29921      5.68441      8.23548         3.828256      0.000000      1.701166
      6.08023      3.78960      9.11607        -1.682193      0.000000     -1.857879
      3.16233      3.78960      8.23548         3.828272      0.000000      1.701166
      0.94335      5.68441      9.11607        -1.682197     -0.000001     -1.857904
      9.70265      5.68441     11.79908        -0.003056     -0.000001     -0.008482
      7.45339      3.78960     12.60547         0.003197     -0.000000     -0.003898
      4.56577      3.78960     11.79908        -0.003044      0.000006     -0.008399
      2.31650      5.68441     12.60546         0.003400     -0.000005     -0.003674
      0.87492      5.68441     15.35932        -0.001178     -0.000001      0.002827
      8.87218      3.78960     16.09021        -0.002710      0.000007     -0.001682
      6.01181      3.78960     15.35932        -0.002016     -0.000001      0.002610
      3.73530      5.68441     16.09020        -0.002776     -0.000001     -0.001402
      2.38510      5.68441     18.98753         0.005581      0.000000      0.004272
      0.03468      3.78960     19.55509         0.000438     -0.000003      0.003113
      7.52198      3.78960     18.98753         0.005550      0.000001      0.004292
      5.17160      5.68441     19.55511        -0.002108      0.000000      0.002028
      5.01563      7.57921      7.50000        -1.748108      0.000000      0.955376
     10.15251      9.47401      7.50000        -1.748101      0.000000      0.955381
      9.36381      9.47401      9.85155        -1.002914      0.000000     -0.161885
      6.44591      9.47401      8.97095         0.353622      0.000000     -0.045508
      7.93353      7.57921      8.38059         0.272540      0.000000     -1.069858
      6.41347      7.57921     11.02238        -0.039272      0.000000      0.486115
      4.22693      7.57921      9.85155        -1.002926      0.000000     -0.161917
      1.30903      7.57921      8.97095         0.353615      0.000001     -0.045499
      2.79665      9.47401      8.38059         0.272533      0.000000     -1.069855
      1.27659      9.47401     11.02238        -0.039314      0.000000      0.486090
      0.50302      9.47401     13.39280        -0.004548      0.000000     -0.000799
      7.84488      9.47401     12.49913         0.000301     -0.000000      0.003048
[...]
      2.70753      5.68441     14.53679         0.002831      0.000001     -0.004023
      1.98048      5.68441     16.93295         0.000643     -0.000000      0.000106
      9.28145      5.68441     16.01805         0.004722      0.000000     -0.002084
      0.51169      3.78960     15.43990         0.005218      0.000001      0.004509
      9.38477      3.78960     18.03325         0.001077     -0.000000     -0.001999
      7.11736      3.78960     16.93294         0.001077     -0.000001      0.000613
      4.14456      3.78960     16.01805         0.005019      0.000004     -0.002247
      5.64856      5.68441     15.43990         0.005510      0.000001      0.004454
      4.24787      5.68441     18.03322         0.002188     -0.000000     -0.000269
      3.56085      5.68441     20.42831         0.001479     -0.000000     -0.003611
      0.55229      5.68441     19.78041         0.004030      0.000000     -0.001581
      2.01172      3.78960     18.98111        -0.000639      0.000002     -0.002833
      8.69775      3.78960     20.42831         0.000289      0.000000     -0.003290
      5.68916      3.78960     19.78041         0.004412      0.000000     -0.001501
      7.14860      5.68441     18.98111        -0.000457      0.000003     -0.002847
    total drift:                                0.010182      0.000000      0.001325

  FREE ENERGIE OF THE ION-ELECTRON SYSTEM (eV)
  free  energy   TOTEN  =     -1274.31864236 eV

  energy  without entropy=    -1274.31864236  energy(sigma->0) =    -1274.31864236

 d Force = 0.1528318E-03[ 0.684E-04, 0.237E-03]  d Energy = 0.1435627E-03 0.927E-05
 d Force =-0.3784732E+02[-0.378E+02,-0.378E+02]  d Ewald  =-0.3784732E+02 0.464E-05

 Conjugate gradient step on ions:
 trial-energy change:   -0.000144  1 .order   -0.000153   -0.000237   -0.000068
  (g-gl).g = 0.337E-03      g.g   = 0.329E-03  gl.gl    = 0.450E-03
 g(Force)  = 0.329E-03   g(Stress)= 0.000E+00 ortho     = 0.704E-05
 gamma     =   0.74953
 trial     =   0.71001
 opt step  =   0.99744  (harmonic =   0.99744) maximal distance =0.00139606
 next E    = -1274.318665   (d E  =  -0.00017)

 reached required accuracy - stopping structural energy minimisation