 vasp.6.4.2 20Jul23 (build Nov 17 2023 15:39:20) complex
 executed on              LinuxNV date 2024.02.27  20:18:48
 OpenACC runtime initialized ...    4 GPUs detected

 INCAR:
   SYSTEM = Oxide-Surface
   ISMEAR = 0
   SIGMA = 0.05
   EDIFF = 1E-4
   ALGO = Normal
   ISTART = 2
   IBRION = -1
   NSW = 0
   ISYM = 0
   DIPOL = 0.5 0.5 0.5
   IDIPOL = 3
   LDIPOL = .TRUE.
   LHFCALC = .TRUE.
   GGA = PE
   IVDW = 21
   VDW_SR = 0.96
   ENCUT = 450
   PREC = Normal
   LASPH = .TRUE.
   LREAL = Auto
   ISPIN = 1
   NELM = 200
   NELMIN = 8
   NCORE = 1
   KPAR = 1
   LWAVE = .FALSE.
   LCHARG = .FALSE.

 POTCAR:    PAW_PBE N 08Apr2002
 POTCAR:    PAW_PBE O 08Apr2002
 POTCAR:    PAW_PBE Mg_pv 13Apr2007
 POTCAR:    PAW_PBE O 08Apr2002
 POTCAR:    PAW_PBE N 08Apr2002
   VRHFIN =N: s2p3

   TITEL  = PAW_PBE N 08Apr2002
   POMASS =   14.001; ZVAL   =    5.000    mass and valenz
   ENMAX  =  400.000; ENMIN  =  300.000 eV

[...]

   TITEL  = PAW_PBE Mg_pv 13Apr2007
   POMASS =   24.305; ZVAL   =    8.000    mass and valenz
   ENMAX  =  403.929; ENMIN  =  302.947 eV

   TITEL  = PAW_PBE O 08Apr2002
   POMASS =   16.000; ZVAL   =    6.000    mass and valenz
   ENMAX  =  400.000; ENMIN  =  300.000 eV

 Optimization of the real space projectors (new method)

 maximal supplied QI-value         = 25.13
 optimisation between [QCUT,QGAM] = [ 10.81, 21.61] = [ 32.71,130.83] Ry
 Optimized for a Real-space Cutoff    1.23 Angstroem

   l    n(q)    QCUT    max X(q) W(low)/X(q) W(high)/X(q)  e(spline)
   0      8    10.807    79.467    0.34E-03    0.68E-03    0.21E-06
   0      8    10.807    66.151    0.34E-03    0.67E-03    0.21E-06
   1      7    10.807    14.030    0.45E-03    0.13E-02    0.11E-05
   1      7    10.807     9.831    0.48E-03    0.13E-02    0.11E-05
 Optimization of the real space projectors (new method)

[...]

   l    n(q)    QCUT    max X(q) W(low)/X(q) W(high)/X(q)  e(spline)
   1      7    10.771     2.974    0.18E-03    0.56E-05    0.13E-06
   1      7    10.771     4.279    0.39E-03    0.94E-04    0.28E-06
   0      8    10.771    16.381    0.27E-03    0.38E-03    0.44E-07
   0      8    10.771     5.611    0.18E-03    0.26E-03    0.32E-07
   2      7    10.771     4.652    0.12E-03    0.23E-03    0.45E-07
 Optimization of the real space projectors (new method)

 maximal supplied QI-value         = 24.76
 optimisation between [QCUT,QGAM] = [ 10.64, 21.54] = [ 31.73,129.89] Ry
 Optimized for a Real-space Cutoff    1.23 Angstroem

   l    n(q)    QCUT    max X(q) W(low)/X(q) W(high)/X(q)  e(spline)
   0      8    10.645    20.381    0.38E-03    0.60E-03    0.15E-06
   0      8    10.645    15.268    0.40E-03    0.65E-03    0.17E-06
   1      7    10.645     5.964    0.30E-03    0.63E-03    0.18E-06
   1      7    10.645     5.382    0.24E-03    0.53E-03    0.16E-06
  PAW_PBE N 08Apr2002                   :
  PAW_PBE O 08Apr2002                   :
  PAW_PBE Mg_pv 13Apr2007               :
  PAW_PBE O 08Apr2002                   :

 POSCAR:  N  O Mg  O
  positions in direct lattice
 exchange correlation table for  LEXCH =        8
   RHO(1)=    0.500       N(1)  =     2000
   RHO(2)=  100.500       N(2)  =     4000

 ion  position               nearest neighbor table
   1  0.525  0.547  0.791-   2 1.14
   2  0.624  0.638  0.783-   1 1.14   3 1.20
   3  0.727  0.733  0.774-   2 1.20
   4  0.000  0.750  0.352-  36 2.11  38 2.11  39 2.11  46 2.11  55 2.11
   5  0.250  0.000  0.352-  37 2.11  38 2.11  39 2.11  47 2.11  54 2.11
   6  0.000  0.000  0.451-  38 2.11  37 2.11  36 2.11  44 2.11  53 2.11  42 2.12
   7  0.250  0.750  0.451-  39 2.11  37 2.11  36 2.11  45 2.11  52 2.11  43 2.12
   8  1.000  0.750  0.550-  59 2.11  42 2.11  50 2.11  43 2.11  36 2.13  40 2.14
   9  0.250  1.000  0.550-  42 2.11  51 2.11  58 2.11  43 2.11  37 2.13  41 2.15
  10  0.000  0.000  0.649-  57 2.11  40 2.11  42 2.11  48 2.11  41 2.11
  11  0.250  0.750  0.649-  40 2.11  43 2.11  49 2.11  56 2.11  41 2.11
  12  0.000  0.250  0.352-  44 2.11  38 2.11  46 2.11  47 2.11  63 2.11
  13  0.250  0.500  0.352-  45 2.11  39 2.11  46 2.11  47 2.11  62 2.11
  14  0.000  0.500  0.451-  46 2.11  44 2.11  45 2.11  36 2.11  61 2.11  50 2.12
  15  0.250  0.250  0.451-  47 2.11  44 2.11  45 2.11  37 2.11  60 2.11  51 2.12
  16  0.000  0.250  0.550-  42 2.11  50 2.11  51 2.11  67 2.11  44 2.13  48 2.15
  17  0.250  0.500  0.550-  50 2.11  51 2.11  43 2.11  66 2.11  45 2.12  49 2.15
  18  0.000  0.500  0.649-  49 2.11  50 2.11  40 2.11  48 2.11  65 2.12
  19  0.250  0.250  0.649-  49 2.11  64 2.11  48 2.11  41 2.11  51 2.11
  20  0.500  0.750  0.352-  52 2.11  39 2.11  54 2.11  55 2.11  62 2.11
  21  0.750  0.000  0.352-  53 2.11  38 2.11  54 2.11  55 2.11  63 2.11
  22  0.500  0.000  0.451-  54 2.11  52 2.11  53 2.11  37 2.11  60 2.11  58 2.12
  23  0.750  0.750  0.451-  55 2.11  52 2.11  53 2.11  36 2.11  61 2.11  59 2.12
  24  0.500  0.750  0.550-  59 2.11  58 2.11  66 2.11  43 2.11  52 2.13  56 2.16
  25  0.750  1.000  0.550-  59 2.11  42 2.11  58 2.11  67 2.11  53 2.13  57 2.14
  26  0.500  0.000  0.649-  64 2.11  58 2.11  57 2.11  41 2.11  56 2.11
  27  0.751  0.751  0.650-  40 2.11  57 2.11  65 2.12  56 2.12  59 2.12
  28  0.500  0.250  0.352-  60 2.11  54 2.11  47 2.11  62 2.11  63 2.11
  29  0.750  0.500  0.352-  61 2.11  55 2.11  46 2.11  62 2.11  63 2.11
  30  0.500  0.500  0.451-  62 2.11  52 2.11  60 2.11  61 2.11  45 2.11  66 2.12
  31  0.750  0.250  0.451-  63 2.11  53 2.11  60 2.11  61 2.11  44 2.11  67 2.12
  32  0.500  0.250  0.550-  58 2.11  51 2.11  67 2.11  66 2.11  60 2.12  64 2.15
  33  0.750  0.500  0.550-  59 2.11  50 2.11  66 2.11  67 2.11  61 2.13  65 2.16
  34  0.499  0.499  0.648-  66 2.10  49 2.10  64 2.10  65 2.12  56 2.12
  35  0.750  0.250  0.649-  57 2.11  67 2.11  64 2.11  65 2.11  48 2.11
  36  0.000  0.750  0.451-   4 2.11   6 2.11   7 2.11  14 2.11  23 2.11   8 2.13
  37  0.250  0.000  0.451-   5 2.11   6 2.11   7 2.11  15 2.11  22 2.11   9 2.13
  38  0.000  0.000  0.352-   6 2.11   5 2.11   4 2.11  12 2.11  21 2.11
  39  0.250  0.750  0.352-   7 2.11   5 2.11   4 2.11  13 2.11  20 2.11
  40  0.000  0.750  0.651-  11 2.11  27 2.11  18 2.11  10 2.11   8 2.14
  41  0.250  1.000  0.651-  19 2.11  10 2.11  26 2.11  11 2.11   9 2.15
  42  0.000  0.000  0.550-   9 2.11  16 2.11  25 2.11  10 2.11   8 2.11   6 2.12
  43  0.250  0.750  0.550-  11 2.11   9 2.11  24 2.11  17 2.11   8 2.11   7 2.12
  44  0.000  0.250  0.451-  12 2.11   6 2.11  14 2.11  15 2.11  31 2.11  16 2.13
  45  0.250  0.500  0.451-  13 2.11   7 2.11  14 2.11  15 2.11  30 2.11  17 2.12
  46  0.000  0.500  0.352-  14 2.11  12 2.11  13 2.11   4 2.11  29 2.11
  47  0.250  0.250  0.352-  15 2.11  12 2.11  13 2.11   5 2.11  28 2.11
  48  1.000  0.250  0.651-  19 2.11  10 2.11  18 2.11  35 2.11  16 2.15
  49  0.250  0.500  0.651-  34 2.10  18 2.11  19 2.11  11 2.11  17 2.15
  50  1.000  0.500  0.550-  33 2.11  18 2.11  16 2.11  17 2.11   8 2.11  14 2.12
  51  0.250  0.250  0.550-   9 2.11  16 2.11  32 2.11  17 2.11  19 2.11  15 2.12
  52  0.500  0.750  0.451-  20 2.11   7 2.11  22 2.11  23 2.11  30 2.11  24 2.13
  53  0.750  0.000  0.451-  21 2.11   6 2.11  22 2.11  23 2.11  31 2.11  25 2.13
  54  0.500  0.000  0.352-  22 2.11  20 2.11  21 2.11   5 2.11  28 2.11
  55  0.750  0.750  0.352-  23 2.11  20 2.11  21 2.11   4 2.11  29 2.11
  56  0.500  0.750  0.651-  11 2.11  26 2.11  34 2.12  27 2.12  24 2.16
  57  0.750  0.001  0.651-  35 2.11  27 2.11  26 2.11  10 2.11  25 2.14
  58  0.500  1.000  0.550-  26 2.11  24 2.11  32 2.11   9 2.11  25 2.11  22 2.12
  59  0.750  0.750  0.550-  33 2.11  24 2.11   8 2.11  25 2.11  27 2.12  23 2.12
  60  0.500  0.250  0.451-  28 2.11  22 2.11  15 2.11  30 2.11  31 2.11  32 2.12
  61  0.750  0.500  0.451-  29 2.11  23 2.11  14 2.11  30 2.11  31 2.11  33 2.13
  62  0.500  0.500  0.352-  30 2.11  20 2.11  28 2.11  29 2.11  13 2.11
  63  0.750  0.250  0.352-  31 2.11  21 2.11  28 2.11  29 2.11  12 2.11
  64  0.500  0.250  0.651-  34 2.10  26 2.11  19 2.11  35 2.11  32 2.15
  65  0.750  0.500  0.651-  35 2.11  18 2.12  34 2.12  27 2.12  33 2.16
  66  0.500  0.500  0.550-  34 2.10  33 2.11  24 2.11  32 2.11  17 2.11  30 2.12
  67  0.750  0.250  0.550-  35 2.11  16 2.11  33 2.11  32 2.11  25 2.11  31 2.12

IMPORTANT INFORMATION: All symmetrisations will be switched off!
NOSYMM: (Re-)initialisation of all symmetry stuff for point group C_1.

                                     Primitive cell

  volume of cell :    1519.8199

  direct lattice vectors                    reciprocal lattice vectors
     8.440984654  0.000000000  0.000000000     0.118469591  0.000000000  0.000000000
     0.000000000  8.440984654  0.000000000     0.000000000  0.118469591  0.000000000
     0.000000000  0.000000000 21.330738491     0.000000000  0.000000000  0.046880702

  length of vectors
     8.440984654  8.440984654 21.330738491     0.118469591  0.118469591  0.046880702

  position of ions in fractional coordinates (direct lattice)
     0.524930995  0.547217210  0.790832042
     0.623755693  0.637956408  0.783228089
     0.727359511  0.733121747  0.774357699
     0.000000000  0.750000000  0.351605267
     0.250000000  0.000000000  0.351605267
     0.000000000  0.000000000  0.450535089
     0.250000000  0.750000000  0.450535089
     0.999952972  0.750069933  0.550182699
     0.249960180  0.999999612  0.550158547
     0.000071767  0.000081746  0.648822182
     0.249898085  0.749854229  0.648747211
     0.000000000  0.250000000  0.351605267
     0.250000000  0.500000000  0.351605267
     0.000000000  0.500000000  0.450535089
     0.250000000  0.250000000  0.450535089
     0.000003654  0.249979963  0.550161251
     0.249748591  0.499976608  0.550096481
     0.000002192  0.500168966  0.648801089
     0.249937473  0.249969046  0.648946383
     0.500000000  0.750000000  0.351605267
     0.750000000  0.000000000  0.351605267
     0.500000000  0.000000000  0.450535089
     0.750000000  0.750000000  0.450535089
     0.500260010  0.749982125  0.550295780
     0.750090200  0.999950935  0.550181221
     0.500174938  0.000063538  0.648739290
     0.751039523  0.750995909  0.649603103
     0.500000000  0.250000000  0.351605267
     0.750000000  0.500000000  0.351605267
     0.500000000  0.500000000  0.450535089
     0.750000000  0.250000000  0.450535089
     0.499969996  0.249784160  0.550090882
     0.749966853  0.500263841  0.550296262
     0.498939953  0.498985897  0.648486242
     0.749869906  0.249927386  0.648747568
     0.000000000  0.750000000  0.450535089
     0.250000000  0.000000000  0.450535089
     0.000000000  0.000000000  0.351605267
     0.250000000  0.750000000  0.351605267
     0.000499353  0.750094498  0.650694193
     0.250109797  0.999979088  0.651114683
     0.000136884  0.000132227  0.549867764
     0.250236395  0.750027713  0.549854657
     0.000000000  0.250000000  0.450535089
     0.250000000  0.500000000  0.450535089
     0.000000000  0.500000000  0.351605267
     0.250000000  0.250000000  0.351605267
     0.999972823  0.250117149  0.651102115
     0.249721265  0.499887596  0.650744450
     0.999777560  0.499924314  0.549903838
     0.249958822  0.249941630  0.549902197
     0.500000000  0.750000000  0.450535089
[...]
   O         195.532          4.867         19.118          3.54034128
   O         210.629          4.928         19.842          3.67447348
   O         196.759          4.873         19.178          3.55143382
   O         241.967          5.043         21.267          3.93835061
   O         240.369          5.038         21.197          3.92532718
   O         238.797          5.032         21.127          3.91246506
   O         238.654          5.032         21.121          3.91129979
   O         195.781          4.868         19.130          3.54259920
   O         195.777          4.868         19.130          3.54255683
   O         195.883          4.869         19.135          3.54352247
   O         208.807          4.921         19.756          3.65855249
   O         242.113          5.044         21.274          3.93953972
   O         241.824          5.043         21.261          3.93718325

  vdW correction parametrized for the method ÀÁ6    þ

  IVDW =  21
  VDW_RADIUS =    50.000 A
  VDW_IDAMPF =  0
  VDW_S6 =     1.000
  VDW_SR =     0.960
  VDW_D =    20.000
  LVDW_ONECELL = F F F
  LVDW_SAMETYPE T T T T
  LVDW_EWALD = F

  Number of pair interactions contributing to vdW energy:  791393
  Edisp (eV):   -3.97868

 VOLUME and BASIS-vectors are now :
  energy-cutoff  :      450.00
  volume of cell :     1519.82
      direct lattice vectors                 reciprocal lattice vectors
     8.440984654  0.000000000  0.000000000     0.118469591  0.000000000  0.000000000
     0.000000000  8.440984654  0.000000000     0.000000000  0.118469591  0.000000000
     0.000000000  0.000000000 21.330738491     0.000000000  0.000000000  0.046880702

  length of vectors
     8.440984654  8.440984654 21.330738491     0.118469591  0.118469591  0.046880702

 FORCES acting on ions
    electron-ion (+dipol)            ewald-force                    non-local-force                 convergence-correction
   0.214E+03 0.196E+03 -.124E+04   -.250E+03 -.230E+03 0.125E+04   0.346E+02 0.317E+02 -.681E+01   -.238E-02 -.223E-02 0.182E+00
   0.167E+02 0.154E+02 -.124E+04   -.165E+02 -.153E+02 0.124E+04   -.965E+00 -.897E+00 0.432E-01   -.472E-03 -.432E-03 0.182E+00
   -.218E+03 -.201E+03 -.150E+04   0.266E+03 0.244E+03 0.149E+04   -.415E+02 -.382E+02 0.759E+01   0.842E-03 0.745E-03 0.225E+00
   -.209E+00 -.164E+00 0.209E+04   0.207E+00 0.164E+00 -.208E+04   0.859E-03 0.743E-04 -.674E+01   0.356E-04 -.523E-04 -.245E+00
   0.185E+00 -.213E+00 0.209E+04   -.185E+00 0.213E+00 -.208E+04   -.172E-03 0.380E-03 -.675E+01   0.520E-04 0.173E-04 -.245E+00
   -.837E+00 -.927E+00 0.736E+03   0.851E+00 0.940E+00 -.737E+03   -.945E-02 -.872E-02 0.489E+00   -.243E-05 -.163E-04 -.110E+00
   0.871E+00 -.757E+00 0.738E+03   -.839E+00 0.774E+00 -.738E+03   -.198E-01 -.107E-01 0.480E+00   0.102E-03 -.108E-03 -.110E+00
   -.630E+01 -.288E+01 -.602E+03   0.626E+01 0.290E+01 0.602E+03   0.341E-01 -.121E-01 -.324E+00   -.879E-04 -.317E-03 0.634E-01
   0.312E+01 -.412E+01 -.612E+03   -.314E+01 0.412E+01 0.612E+03   0.150E-01 -.892E-03 -.124E+00   0.318E-03 -.615E-04 0.633E-01
   -.197E+02 -.204E+02 -.196E+04   0.197E+02 0.204E+02 0.196E+04   0.161E-01 0.124E-01 0.572E+01   0.479E-04 -.364E-04 0.214E+00
   0.224E+02 -.154E+02 -.195E+04   -.225E+02 0.154E+02 0.194E+04   0.124E+00 0.146E-02 0.572E+01   0.104E-02 -.767E-03 0.214E+00
   -.190E+00 0.163E+00 0.209E+04   0.189E+00 -.163E+00 -.208E+04   0.355E-03 -.180E-03 -.674E+01   0.283E-04 0.532E-04 -.245E+00
   0.208E+00 0.214E+00 0.209E+04   -.208E+00 -.214E+00 -.208E+04   0.285E-03 -.366E-03 -.673E+01   0.517E-04 -.189E-04 -.245E+00
   -.872E+00 0.946E+00 0.737E+03   0.832E+00 -.957E+00 -.738E+03   0.241E-01 0.725E-02 0.508E+00   0.209E-05 0.189E-04 -.110E+00
   0.824E+00 0.739E+00 0.736E+03   -.840E+00 -.757E+00 -.736E+03   0.102E-01 0.114E-01 0.501E+00   0.105E-03 0.107E-03 -.110E+00
   -.365E+01 0.277E+01 -.613E+03   0.365E+01 -.277E+01 0.613E+03   -.118E-02 0.982E-02 -.131E+00   -.167E-04 0.314E-03 0.633E-01
   0.508E+01 0.424E+01 -.603E+03   -.511E+01 -.424E+01 0.604E+03   0.267E-01 0.279E-02 -.222E+00   0.312E-03 0.621E-04 0.638E-01
   -.250E+02 0.218E+02 -.195E+04   0.252E+02 -.218E+02 0.194E+04   -.124E+00 -.166E-01 0.573E+01   -.194E-03 0.739E-04 0.214E+00
   0.141E+02 0.138E+02 -.197E+04   -.141E+02 -.139E+02 0.196E+04   0.116E-01 0.686E-02 0.573E+01   0.720E-03 0.746E-03 0.215E+00
   0.211E+00 -.189E+00 0.209E+04   -.209E+00 0.189E+00 -.208E+04   -.123E-02 0.190E-03 -.675E+01   -.305E-04 -.561E-04 -.245E+00
   -.185E+00 -.232E+00 0.209E+04   0.185E+00 0.231E+00 -.208E+04   0.623E-04 0.874E-03 -.674E+01   -.506E-04 0.239E-04 -.245E+00
   0.857E+00 -.974E+00 0.738E+03   -.869E+00 0.938E+00 -.738E+03   0.794E-02 0.221E-01 0.504E+00   0.360E-05 -.154E-04 -.110E+00
   -.894E+00 -.790E+00 0.739E+03   0.873E+00 0.769E+00 -.740E+03   0.136E-01 0.142E-01 0.542E+00   -.109E-03 -.108E-03 -.110E+00
   0.650E+01 -.491E+01 -.595E+03   -.645E+01 0.493E+01 0.595E+03   -.413E-01 -.202E-01 -.637E-01   0.975E-04 -.320E-03 0.644E-01
   -.325E+01 -.678E+01 -.601E+03   0.327E+01 0.674E+01 0.602E+03   -.164E-01 0.338E-01 -.334E+00   -.324E-03 -.132E-03 0.634E-01
   0.213E+02 -.287E+02 -.194E+04   -.212E+02 0.288E+02 0.194E+04   -.200E-01 -.115E+00 0.573E+01   0.554E-05 -.379E-03 0.214E+00
   -.309E+02 -.269E+02 -.185E+04   0.311E+02 0.271E+02 0.184E+04   -.240E+00 -.219E+00 0.526E+01   -.137E-02 -.124E-02 0.218E+00
   0.190E+00 0.187E+00 0.209E+04   -.190E+00 -.187E+00 -.208E+04   -.348E-03 0.227E-03 -.674E+01   -.299E-04 0.527E-04 -.245E+00
   -.211E+00 0.235E+00 0.209E+04   0.210E+00 -.233E+00 -.208E+04   0.247E-03 -.124E-02 -.675E+01   -.546E-04 -.205E-04 -.245E+00
   0.888E+00 0.996E+00 0.739E+03   -.864E+00 -.972E+00 -.740E+03   -.155E-01 -.152E-01 0.512E+00   0.313E-05 0.219E-04 -.110E+00
   -.844E+00 0.771E+00 0.737E+03   0.859E+00 -.738E+00 -.738E+03   -.957E-02 -.206E-01 0.481E+00   -.106E-03 0.100E-03 -.110E+00
   0.374E+01 0.467E+01 -.604E+03   -.375E+01 -.470E+01 0.604E+03   0.400E-02 0.259E-01 -.194E+00   0.189E-04 0.306E-03 0.637E-01
   -.530E+01 0.698E+01 -.596E+03   0.532E+01 -.694E+01 0.596E+03   -.211E-01 -.409E-01 -.508E-01   -.325E-03 0.143E-03 0.644E-01
   0.311E+02 0.359E+02 -.188E+04   -.314E+02 -.362E+02 0.187E+04   0.180E+00 0.204E+00 0.570E+01   0.369E-03 0.619E-03 0.216E+00
   -.152E+02 0.190E+02 -.195E+04   0.152E+02 -.192E+02 0.194E+04   -.466E-02 0.121E+00 0.572E+01   -.730E-03 0.957E-03 0.214E+00
   -.722E+00 -.474E+00 0.553E+03   0.726E+00 0.473E+00 -.553E+03   -.478E-02 0.680E-03 -.624E-01   -.450E-05 -.862E-04 -.804E-01
   0.536E+00 -.671E+00 0.552E+03   -.536E+00 0.665E+00 -.551E+03   0.125E-02 0.650E-02 -.809E-01   0.832E-04 -.104E-04 -.804E-01
   -.149E+00 -.166E+00 0.157E+04   0.150E+00 0.167E+00 -.157E+04   -.119E-02 -.102E-02 0.310E+01   0.199E-04 0.124E-04 -.184E+00
   0.148E+00 -.133E+00 0.157E+04   -.146E+00 0.135E+00 -.157E+04   -.275E-02 -.237E-02 0.310E+01   0.409E-04 -.378E-04 -.184E+00
   -.286E+02 -.878E+01 -.147E+04   0.285E+02 0.879E+01 0.147E+04   0.356E-01 -.562E-02 -.458E+01   -.539E-03 -.532E-03 0.163E+00
   0.879E+01 -.110E+02 -.150E+04   -.878E+01 0.110E+02 0.150E+04   -.362E-02 0.250E-01 -.452E+01   0.498E-03 0.106E-03 0.164E+00
   -.345E+01 -.367E+01 -.452E+03   0.343E+01 0.365E+01 0.452E+03   0.159E-01 0.138E-01 0.224E+00   -.347E-04 -.602E-04 0.462E-01
   0.331E+01 -.277E+01 -.447E+03   -.332E+01 0.277E+01 0.447E+03   0.461E-02 -.477E-02 0.263E+00   0.287E-03 -.240E-03 0.465E-01
   -.593E+00 0.468E+00 0.551E+03   0.587E+00 -.470E+00 -.551E+03   0.648E-02 0.254E-02 -.796E-01   0.195E-05 0.826E-04 -.804E-01
   0.673E+00 0.679E+00 0.553E+03   -.659E+00 -.673E+00 -.553E+03   -.148E-01 -.779E-02 -.463E-01   0.783E-04 0.138E-04 -.803E-01
   -.149E+00 0.167E+00 0.157E+04   0.145E+00 -.167E+00 -.157E+04   0.386E-02 0.114E-02 0.310E+01   0.165E-04 -.144E-04 -.184E+00
   0.147E+00 0.132E+00 0.157E+04   -.149E+00 -.134E+00 -.157E+04   0.209E-02 0.229E-02 0.310E+01   0.384E-04 0.400E-04 -.184E+00
   -.957E+01 0.771E+01 -.150E+04   0.954E+01 -.771E+01 0.150E+04   0.245E-01 -.763E-04 -.452E+01   0.186E-03 0.491E-03 0.163E+00
   0.212E+02 0.122E+02 -.148E+04   -.213E+02 -.122E+02 0.148E+04   0.752E-01 -.154E-01 -.455E+01   0.695E-03 -.744E-04 0.164E+00
   -.369E+01 0.379E+01 -.448E+03   0.369E+01 -.378E+01 0.448E+03   0.397E-03 -.537E-02 0.261E+00   -.668E-04 0.639E-04 0.465E-01
   0.280E+01 0.265E+01 -.454E+03   -.279E+01 -.264E+01 0.454E+03   -.674E-02 -.582E-02 0.197E+00   0.233E-03 0.240E-03 0.465E-01
   0.761E+00 -.645E+00 0.554E+03   -.779E+00 0.650E+00 -.554E+03   0.208E-01 -.584E-02 -.106E+00   0.913E-05 -.874E-04 -.803E-01
   -.542E+00 -.801E+00 0.553E+03   0.540E+00 0.804E+00 -.553E+03   0.213E-02 -.461E-02 -.617E-01   -.861E-04 -.195E-04 -.804E-01
   0.150E+00 -.167E+00 0.157E+04   -.151E+00 0.164E+00 -.157E+04   0.132E-02 0.378E-02 0.310E+01   -.219E-04 0.973E-05 -.184E+00
   -.150E+00 -.133E+00 0.157E+04   0.148E+00 0.131E+00 -.157E+04   0.336E-02 0.347E-02 0.309E+01   -.451E-04 -.469E-04 -.184E+00
   0.347E+02 -.254E+02 -.143E+04   -.346E+02 0.254E+02 0.143E+04   -.130E+00 0.439E-02 -.428E+01   0.815E-03 -.884E-03 0.164E+00
   -.100E+02 -.303E+02 -.147E+04   0.100E+02 0.302E+02 0.147E+04   -.710E-02 0.462E-01 -.459E+01   -.558E-03 -.642E-03 0.163E+00
   0.357E+01 -.418E+01 -.447E+03   -.356E+01 0.417E+01 0.447E+03   -.495E-02 0.477E-02 0.274E+00   0.420E-04 -.116E-03 0.465E-01
   -.353E+01 -.309E+01 -.440E+03   0.355E+01 0.311E+01 0.440E+03   -.165E-01 -.183E-01 0.937E-01   -.302E-03 -.280E-03 0.470E-01
   0.601E+00 0.604E+00 0.553E+03   -.595E+00 -.594E+00 -.553E+03   -.766E-02 -.116E-01 -.469E-01   0.461E-06 0.775E-04 -.803E-01
   -.717E+00 0.838E+00 0.554E+03   0.722E+00 -.856E+00 -.554E+03   -.672E-02 0.207E-01 -.107E+00   -.871E-04 0.209E-04 -.803E-01
   0.151E+00 0.169E+00 0.157E+04   -.147E+00 -.165E+00 -.157E+04   -.462E-02 -.440E-02 0.310E+01   -.150E-04 -.568E-05 -.184E+00
   -.148E+00 0.132E+00 0.157E+04   0.150E+00 -.129E+00 -.157E+04   -.215E-02 -.286E-02 0.310E+01   -.350E-04 0.431E-04 -.184E+00
   0.104E+02 0.196E+02 -.148E+04   -.104E+02 -.197E+02 0.149E+04   -.187E-01 0.703E-01 -.454E+01   -.169E-03 0.659E-03 0.164E+00
   -.261E+02 0.361E+02 -.143E+04   0.261E+02 -.359E+02 0.144E+04   -.127E-01 -.131E+00 -.432E+01   -.861E-03 0.880E-03 0.164E+00
   0.388E+01 0.438E+01 -.439E+03   -.389E+01 -.439E+01 0.438E+03   0.884E-02 0.529E-02 0.367E+00   0.796E-04 0.129E-03 0.469E-01
   -.292E+01 0.289E+01 -.448E+03   0.292E+01 -.290E+01 0.448E+03   -.717E-02 0.100E-01 0.265E+00   -.235E-03 0.269E-03 0.465E-01
   0.113E+02 0.104E+02 0.177E+02   -.398E-12 -.103E-12 0.267E-11   -.800E+01 -.740E+01 -.150E+02   -.206E-02 -.195E-02 -.458E+00

 POSITION                                       TOTAL-FORCE (eV/Angst)
      4.43093      4.61905     16.86903         1.783484      1.623844     -0.300243
      5.26511      5.38498     16.70683        -0.875478     -0.808271      0.091974
      6.13963      6.18827     16.51762        -0.891156     -0.819385      0.169136
      0.00000      6.33074      7.50000        -0.000288      0.000128      0.501329
      2.11025      0.00000      7.50000         0.000068      0.000008      0.503253
      0.00000      0.00000      9.61025         0.003461      0.003348      0.025775
      2.11025      6.33074      9.61025         0.009182      0.004608      0.030097
      8.44059      6.33133     11.73580        -0.001194      0.000388      0.057234
      2.10991      8.44098     11.73529         0.002974     -0.002196      0.048541
      0.00061      0.00069     13.83986        -0.001481     -0.000515     -0.120438
      2.10939      6.32951     13.83826        -0.015637      0.009632     -0.134262
      0.00000      2.11025      7.50000        -0.000150      0.000221      0.503096
      2.11025      4.22049      7.50000        -0.000061      0.000380      0.500615
      0.00000      4.22049      9.61025        -0.011501     -0.002304      0.025639
      2.11025      2.11025      9.61025        -0.004170     -0.004414      0.024787
      0.00003      2.11008     11.73535        -0.003157      0.002797      0.049222
      2.10812      4.22029     11.73396         0.002492     -0.000112      0.046806
      0.00002      4.22192     13.83941         0.003894      0.000055     -0.126018
      2.10972      2.10998     13.84251        -0.007775     -0.007490     -0.135550
      4.22049      6.33074      7.50000         0.000492      0.000108      0.505712
      6.33074      0.00000      7.50000        -0.000047     -0.000125      0.501298
      4.22049      0.00000      9.61025        -0.002694     -0.010451      0.025452
      6.33074      6.33074      9.61025        -0.004762     -0.004862      0.034003
      4.22269      6.33059     11.73822        -0.001602     -0.001105      0.041712
      6.33150      8.44057     11.73577        -0.000343     -0.000164      0.057244
      4.22197      0.00054     13.83809        -0.000180      0.006152     -0.126833
      6.33951      6.33914     13.85651         0.005960      0.006424     -0.059998
      4.22049      2.11025      7.50000         0.000205      0.000115      0.500674
      6.33074      4.22049      7.50000        -0.000087      0.000671      0.505555
      4.22049      4.22049      9.61025         0.005762      0.006093      0.023738
      6.33074      2.11025      9.61025         0.004097      0.009561      0.030265
      4.22024      2.10842     11.73384        -0.000293      0.002249      0.046765
      6.33046      4.22272     11.73823        -0.002252     -0.001010      0.042392
      4.21154      4.21193     13.83269        -0.003069     -0.004065     -0.144937
      6.32964      2.10963     13.83826         0.008280     -0.013063     -0.130780
      0.00000      6.33074      9.61025        -0.001664      0.000243      0.093801
      2.11025      0.00000      9.61025         0.000580      0.002402      0.083795
      0.00000      0.00000      7.50000        -0.000452     -0.000223     -0.421089
      2.11025      6.33074      7.50000        -0.000934     -0.000665     -0.421201
      0.00422      6.33154     13.87979         0.016745     -0.003087     -0.136329
      2.11117      8.44081     13.88876         0.003549     -0.001154     -0.128859
      0.00116      0.00112     11.72909        -0.001728     -0.002819      0.005628
      2.11224      6.33097     11.72881        -0.000816     -0.003996      0.012990
      0.00000      2.11025      9.61025         0.002167      0.001169      0.084614
      2.11025      4.22049      9.61025        -0.004108     -0.002456      0.090230
      0.00000      4.22049      7.50000         0.001322      0.000657     -0.421162
      2.11025      2.11025      7.50000         0.000769      0.001010     -0.420894
      8.44076      2.11124     13.88849        -0.000964      0.003653     -0.128525
      2.10789      4.21954     13.88086         0.003815      0.000560     -0.123578
      8.43911      4.21985     11.72985         0.000523      0.003198      0.011339
      2.10990      2.10975     11.72982         0.000761      0.002427      0.005207
      4.22049      6.33074      9.61025         0.006326     -0.001749      0.088872
      6.33074      0.00000      9.61025         0.000545     -0.001392      0.093869
      4.22049      0.00000      7.50000         0.000555      0.001468     -0.421282
      6.33074      6.33074      7.50000         0.001194      0.001401     -0.423008
      4.21965      6.32823     13.89557        -0.026275      0.002954     -0.135732
      6.33152      0.00449     13.87921        -0.004614      0.017698     -0.138175
      4.21982      8.43956     11.72954         0.004526      0.001063      0.011547
      6.33011      6.33006     11.73375         0.001057      0.001410      0.012608
      4.22049      2.11025      9.61025        -0.002551     -0.002919      0.089381
      6.33074      4.22049      9.61025        -0.002130      0.006448      0.088541
      4.22049      4.22049      7.50000        -0.001569     -0.001325     -0.420191
      6.33074      2.11025      7.50000        -0.000751     -0.000809     -0.421244
      4.21933      2.10811     13.88220         0.001712      0.003435     -0.125009
      6.32670      4.21994     13.89684         0.003606     -0.025748     -0.135950
      4.22034      4.22036     11.72949        -0.000736      0.000083      0.023993
      6.33079      2.11237     11.72890        -0.003434     -0.000185      0.012558
    total drift:                               -0.001650     -0.012782      0.033876

  FREE ENERGIE OF THE ION-ELECTRON SYSTEM (eV)
  free  energy   TOTEN  =      -496.68985070 eV

  energy  without entropy=     -496.68985070  energy(sigma->0) =     -496.68985070