 vasp.6.3.0 20Jan22 (build Mar 11 2022 13:48:16) complex

 executed on             LinuxIFC date 2024.01.22  03:03:42

 INCAR:
   SYSTEM = TiO2
   ISMEAR = 0
   SIGMA = 0.05
   EDIFF = 1E-5
   ALGO = ALL
   ISTART = 0
   IBRION = -1
   NSW = 0
   ISYM = 0
   ISIF = 2
   EDIFFG = -0.01
   DIPOL = 0.5 0.5 0.5
   IDIPOL = 3
   LDIPOL = .TRUE.
   GGA = PE
   IVDW = 21
   LDAU = .TRUE.
   LDAUTYPE = 2
   LDAUL = -1 -1 2 -1
   LDAUU = 0.0 0.0 4.2 0.0
   LDAUPRINT = 1
   LMAXMIX = 4
   ENCUT = 600
   PREC = Accurate
   LASPH = .TRUE.
   LREAL = .FALSE.
   ISPIN = 1
   NELM = 200
   NELMIN = 8
   NCORE = 2
   KPAR = 1
   LWAVE = .FALSE.
   LCHARG = .FALSE.

 POTCAR:    PAW_PBE H 15Jun2001
 POTCAR:    PAW_PBE O 08Apr2002
 POTCAR:    PAW_PBE Ti_pv 07Sep2000
 POTCAR:    PAW_PBE O 08Apr2002
|           W    W    AA    RRRRR   N    N  II  N    N   GGGG   !!!           |
|           W    W   A  A   R    R  NN   N  II  NN   N  G    G  !!!           |
|           W    W  A    A  R    R  N N  N  II  N N  N  G       !!!           |
|           W WW W  AAAAAA  RRRRR   N  N N  II  N  N N  G  GGG   !            |
|           WW  WW  A    A  R   R   N   NN  II  N   NN  G    G                |
|           W    W  A    A  R    R  N    N  II  N    N   GGGG   !!!           |
|     For optimal performance we recommend to set                             |
|       NCORE = 2 up to number-of-cores-per-socket                            |
|     This setting can greatly improve the performance of VASP for DFT.       |
|     The default, NCORE=1 might be grossly inefficient on modern             |
|     multi-core architectures or massively parallel machines. Do your        |
|     Unfortunately you need to use the default for GW and RPA                |
|     calculations (for HF NCORE is supported but not extensively tested      |
|     yet).                                                                   |

   TITEL  = PAW_PBE H 15Jun2001
   POMASS =    1.000; ZVAL   =    1.000    mass and valenz
   ENMAX  =  250.000; ENMIN  =  200.000 eV

   TITEL  = PAW_PBE O 08Apr2002
   POMASS =   16.000; ZVAL   =    6.000    mass and valenz
   ENMAX  =  400.000; ENMIN  =  300.000 eV

   TITEL  = PAW_PBE Ti_pv 07Sep2000
   POMASS =   47.880; ZVAL   =   10.000    mass and valenz
   ENMAX  =  222.335; ENMIN  =  166.751 eV

   TITEL  = PAW_PBE O 08Apr2002
   POMASS =   16.000; ZVAL   =    6.000    mass and valenz
   ENMAX  =  400.000; ENMIN  =  300.000 eV

  PAW_PBE H 15Jun2001                   :
  PAW_PBE O 08Apr2002                   :
  PAW_PBE Ti_pv 07Sep2000               :
  PAW_PBE O 08Apr2002                   :

 POSCAR:  H  O Ti  O
  positions in direct lattice
 exchange correlation table for  LEXCH =        8
   RHO(1)=    0.500       N(1)  =     2000
   RHO(2)=  100.500       N(2)  =     4000

 ion  position               nearest neighbor table
   1  0.688  0.568  0.771-   3 0.97
   2  0.688  0.432  0.771-   3 0.97
   3  0.630  0.500  0.772-   1 0.97   2 0.97  51 2.23
   4  0.807  0.833  0.295-  54 1.93  88 1.93  56 1.93  55 1.99  53 1.99  21 3.04   5 3.04   7 3.04

   5  0.591  0.667  0.327-  57 1.93  52 1.93 119 1.93  55 1.93  58 1.99  56 1.99   6 3.04  36 3.04
                             4 3.04  10 3.07
   6  0.307  0.667  0.295-  58 1.93 124 1.93  60 1.93  59 1.99  52 1.99  39 3.04   5 3.04   7 3.04

   7  0.091  0.833  0.327-  61 1.93  53 1.93  91 1.93  59 1.93  60 1.99  54 1.99  22 3.04   6 3.04
                             4 3.04   8 3.07
   8  0.945  0.833  0.422-  62 1.93  96 1.93  64 1.93  54 1.97  63 1.98  61 1.98  11 3.00   9 3.04
                            25 3.04   7 3.07
   9  0.727  0.666  0.451-  57 1.90 127 1.93  63 1.94  65 1.95  66 1.99  64 1.99  10 3.01   8 3.04
                            40 3.05  14 3.09
  10  0.444  0.666  0.422-  66 1.93 132 1.93  68 1.93  58 1.96  67 1.98  57 1.99   9 3.01  11 3.04
                            43 3.05   5 3.07
  11  0.226  0.833  0.452-  61 1.90  99 1.94  67 1.94  69 1.96  62 1.97  68 1.99   8 3.00  10 3.04
                            26 3.04  12 3.09
  12  0.086  0.834  0.550-  70 1.93 104 1.93  72 1.93  71 1.97  69 1.99  62 1.99  15 2.95  13 3.03
                            29 3.04  11 3.09
  13  0.866  0.666  0.575-  65 1.87 135 1.93  71 1.94  74 1.95  73 1.99  72 1.99  14 2.98  12 3.03
                            44 3.05  18 3.15
  14  0.584  0.667  0.549- 140 1.93  76 1.93  74 1.93  66 1.97  75 1.97  65 2.00  13 2.98  15 3.04
                            47 3.05   9 3.09
  15  0.365  0.833  0.577-  69 1.87 107 1.94  75 1.94  70 1.95  77 1.98  76 2.00  12 2.95  30 3.04
                            14 3.04
  16  0.231  0.833  0.680-  78 1.86  80 1.93 112 1.94  79 2.00  70 2.08  77 2.08  19 2.85  33 3.06
                            17 3.08
  17  0.001  0.666  0.700-  73 1.78  81 1.84 143 1.96  79 1.98  80 2.05  18 2.86  16 3.08  48 3.09

[...]

  20  0.807  0.167  0.295-  86 1.93  88 1.93 120 1.93  87 1.99  85 1.99  21 3.04  37 3.04  23 3.04

[...]

  36  0.807  0.500  0.295- 118 1.93  56 1.93 120 1.93 119 1.99 117 1.99  37 3.04   5 3.04  39 3.04

  37  0.591  0.333  0.327- 121 1.93 116 1.93 119 1.93  87 1.93 122 1.99 120 1.99  38 3.04  36 3.04
                            20 3.04  42 3.07
  38  0.307  0.333  0.295- 122 1.93 124 1.93  92 1.93 123 1.99 116 1.99  39 3.04  37 3.04  23 3.04

  39  0.091  0.500  0.327- 125 1.93 117 1.93 123 1.93  59 1.93 124 1.99 118 1.99   6 3.04  38 3.04
                            36 3.04  40 3.05
  40  0.946  0.500  0.422- 126 1.93 128 1.93  64 1.93 118 1.97 125 1.97 127 1.99  43 3.00   9 3.05
                            41 3.05  39 3.05
  41  0.727  0.334  0.451- 121 1.90 127 1.93  95 1.94 129 1.95 130 1.99 128 1.99  42 3.01  24 3.04
                            40 3.05  46 3.09
  42  0.444  0.334  0.422- 130 1.93 132 1.93 100 1.93 122 1.96 131 1.98 121 1.99  41 3.01  27 3.04
                            43 3.05  37 3.07
  43  0.226  0.500  0.453- 125 1.93 131 1.94  67 1.94 126 1.96 133 1.96 132 2.00  40 3.00  42 3.05
                            10 3.05  44 3.06
  44  0.089  0.500  0.550- 134 1.93 136 1.93  72 1.93 133 1.97 135 2.00 126 2.00  47 2.97  13 3.05
                            45 3.05  43 3.06
  45  0.866  0.334  0.575- 129 1.87 135 1.93 103 1.94 138 1.95 137 1.99 136 1.99  46 2.98  28 3.03
                            44 3.05  50 3.15
  46  0.584  0.333  0.549- 140 1.93 108 1.93 138 1.93 130 1.97 139 1.97 129 2.00  45 2.98  31 3.04
                            47 3.05  41 3.09
  47  0.367  0.500  0.580- 133 1.93  75 1.94 139 1.94 134 1.94 141 1.97 140 2.01  44 2.97  14 3.05
                            46 3.05  48 3.12
  48  0.235  0.500  0.680- 142 1.86  80 1.93 144 1.93 143 2.02 141 2.03 134 2.08  51 2.88  17 3.09
                            49 3.09  47 3.12
  49  0.001  0.334  0.700- 137 1.78 145 1.84 143 1.96 111 1.98 144 2.05  50 2.86  32 3.08  48 3.09

  50  0.729  0.334  0.676- 145 1.89 147 1.92 115 1.94 146 1.99 138 2.02 137 2.08  49 2.86  35 3.07
                            51 3.07  45 3.15
  51  0.506  0.500  0.706- 142 1.82 141 1.88 146 1.97  82 1.97 147 2.09   3 2.23  48 2.88  50 3.07
                            18 3.07
  52  0.487  0.667  0.269-   5 1.93   6 1.99
  53  0.987  0.833  0.269-   7 1.93   4 1.99
  54  0.911  0.833  0.353-   4 1.93   8 1.97   7 1.99
  55  0.627  0.833  0.321-  21 1.93   5 1.93   4 1.99
  56  0.771  0.667  0.300-  36 1.93   4 1.93   5 1.99
  57  0.623  0.667  0.395-   9 1.90   5 1.93  10 1.99
  58  0.411  0.667  0.353-   6 1.93  10 1.96   5 1.99
  59  0.127  0.667  0.321-  39 1.93   7 1.93   6 1.99
  60  0.271  0.833  0.300-  22 1.93   6 1.93   7 1.99
  61  0.123  0.833  0.395-  11 1.90   7 1.93   8 1.98
  62  0.050  0.834  0.480-   8 1.93  11 1.97  12 1.99
  63  0.764  0.833  0.447-  25 1.94   9 1.94   8 1.98
  64  0.909  0.667  0.427-   8 1.93  40 1.93   9 1.99
  65  0.763  0.666  0.520-  13 1.87   9 1.95  14 2.00
  66  0.549  0.666  0.480-  10 1.93  14 1.97   9 1.99
  67  0.264  0.667  0.448-  43 1.94  11 1.94  10 1.98
  68  0.408  0.833  0.427-  10 1.93  26 1.93  11 1.99
  69  0.263  0.833  0.521-  15 1.87  11 1.96  12 1.99
  70  0.193  0.833  0.607-  12 1.93  15 1.95  16 2.08
  71  0.904  0.833  0.572-  29 1.94  13 1.94  12 1.97
  72  0.051  0.667  0.553-  44 1.93  12 1.93  13 1.99
  73  0.912  0.668  0.645-  17 1.78  13 1.99  18 2.08
  74  0.694  0.670  0.605-  14 1.93  13 1.95  18 2.02
  75  0.405  0.667  0.574-  47 1.94  15 1.94  14 1.97
  76  0.549  0.833  0.553-  30 1.93  14 1.93  15 2.00
  77  0.411  0.834  0.646-  19 1.79  15 1.98  16 2.08
  78  0.347  0.833  0.731-  19 1.83  16 1.86
  79  0.051  0.833  0.708-  33 1.98  17 1.98  16 2.00
  80  0.194  0.666  0.681-  16 1.93  48 1.93  17 2.05
  81  0.841  0.660  0.730-  17 1.84  18 1.89
  82  0.554  0.668  0.707-  19 1.96  51 1.97  18 1.99
  83  0.694  0.834  0.679-  34 1.93  18 1.94  19 2.04
  84  0.487  0.000  0.269-  21 1.93  22 1.99
  85  0.987  0.167  0.269-  23 1.93  20 1.99
  86  0.911  0.167  0.353-  20 1.93  24 1.97  23 1.99
  87  0.627  0.167  0.321-  21 1.93  37 1.93  20 1.99
  88  0.771  0.000  0.300-   4 1.93  20 1.93  21 1.99
  89  0.623  0.000  0.395-  25 1.90  21 1.93  26 1.99
  90  0.411  0.000  0.353-  22 1.93  26 1.97  21 1.99
  91  0.127  0.000  0.321-   7 1.93  23 1.93  22 1.99
  92  0.271  0.167  0.300-  22 1.93  38 1.93  23 1.99
  93  0.123  0.167  0.395-  27 1.90  23 1.93  24 1.98
  94  0.050  0.166  0.480-  24 1.93  27 1.97  28 1.99
  95  0.764  0.167  0.447-  25 1.94  41 1.94  24 1.98
  96  0.908  0.000  0.427-   8 1.93  24 1.93  25 1.99
  97  0.763  0.000  0.520-  29 1.87  25 1.95  30 2.00
  98  0.549  0.000  0.479-  26 1.92  25 1.98  30 1.98
  99  0.264  0.000  0.448-  11 1.94  27 1.94  26 1.98
 100  0.408  0.167  0.427-  42 1.93  26 1.93  27 1.99
 101  0.263  0.167  0.521-  31 1.87  27 1.96  28 1.99
 102  0.193  0.167  0.607-  28 1.93  31 1.95  32 2.08
 103  0.904  0.167  0.572-  29 1.94  45 1.94  28 1.97
 104  0.051  1.000  0.553-  12 1.93  28 1.93  29 2.01
 105  0.912  0.000  0.645-  33 1.79  29 1.99  34 2.07
 106  0.693  0.000  0.606-  30 1.93  29 1.95  34 2.07
 107  0.404  0.000  0.573-  31 1.94  15 1.94  30 1.98
 108  0.549  0.167  0.553-  30 1.93  46 1.93  31 2.00
 109  0.411  0.166  0.646-  35 1.79  31 1.98  32 2.08
 110  0.347  0.167  0.731-  35 1.83  32 1.86
 111  0.051  0.167  0.708-  33 1.98  49 1.98  32 2.00
[...]
 133  0.265  0.500  0.522-  47 1.93  43 1.96  44 1.97
 134  0.193  0.500  0.607-  44 1.93  47 1.94  48 2.08
 135  0.905  0.500  0.573-  13 1.93  45 1.93  44 2.00
 136  0.051  0.333  0.553-  44 1.93  28 1.93  45 1.99
 137  0.912  0.332  0.645-  49 1.78  45 1.99  50 2.08
 138  0.694  0.330  0.605-  46 1.93  45 1.95  50 2.02
 139  0.405  0.333  0.574-  47 1.94  31 1.94  46 1.97
 140  0.550  0.500  0.554-  46 1.93  14 1.93  47 2.01
 141  0.413  0.500  0.648-  51 1.88  47 1.97  48 2.03
 142  0.345  0.500  0.733-  51 1.82  48 1.86
 143  0.051  0.500  0.707-  49 1.96  17 1.96  48 2.02
 144  0.194  0.334  0.681-  32 1.93  48 1.93  49 2.05
 145  0.841  0.340  0.730-  49 1.84  50 1.89
 146  0.554  0.332  0.707-  35 1.96  51 1.97  50 1.99
 147  0.691  0.500  0.675-  18 1.92  50 1.92  51 2.09

IMPORTANT INFORMATION: All symmetrisations will be switched off!
[...]
   O          54.674          3.936         10.109          1.87208645
   O          56.581          3.959         10.284          1.90445937
   O          56.278          3.955         10.256          1.89934798
   O          56.474          3.957         10.274          1.90265435
   O          37.857          3.702          8.412          1.55779767
   O          55.185          3.942         10.156          1.88081256
   O          58.258          3.978         10.435          1.93247381
   O          40.885          3.750          8.742          1.61889646
   O          55.578          3.947         10.192          1.88749624
   O          59.036          3.987         10.505          1.94534247

  vdW correction parametrized for the method pbe

  IVDW =  21
  VDW_RADIUS =    50.000 A
  VDW_IDAMPF =  0
  VDW_S6 =     1.000
  VDW_SR =     0.950
  VDW_D =    20.000
  LVDW_ONECELL = F F F
  LVDW_SAMETYPE T T T T
  LVDW_EWALD = F

  Number of pair interactions contributing to vdW energy: 1743165
  Edisp (eV):  -18.28580

  FORCE on cell =-STRESS in cart. coord.  units (eV):
  Direction    XX          YY          ZZ          XY          YZ          ZX
  Alpha Z  2451.31809  2451.31809  2451.31809
  Ewald  490165.41165483425.68931************     0.00687     0.00099 -1969.31247
  Hartree511065.89509507032.34752************     0.00043    -0.00008 -1288.42159
  E(xc)   -5184.21526 -5188.09075 -5194.77612    -0.00001     0.00001    -1.56086
  Local  ************************************    -0.00382    -0.00064  3260.14415
  n-local -3131.73889 -3115.19612 -3163.26239    -0.00062     0.00005     3.04642
  augment  3163.76206  3160.82567  3153.26110    -0.00009    -0.00002    -0.78108
  Kinetic 17125.29238 17228.22086 17296.12218    -0.00002    -0.00048    -4.29117
  Fock        0.00000     0.00000     0.00000     0.00000     0.00000     0.00000
  vdW       -21.39226   -26.89077   -21.82754     0.00000    -0.00000    -0.57209
  Total      80.22206   107.79168    92.72386     0.00274    -0.00018    -1.74869
  in kB      39.55706    53.15149    45.72163     0.00135    -0.00009    -0.86227

 VOLUME and BASIS-vectors are now :
  energy-cutoff  :      600.00
  volume of cell :     3249.23
      direct lattice vectors                 reciprocal lattice vectors
    10.254981746  0.000000000  0.000000000     0.097513582 -0.000000000  0.000000000
     0.000000000 11.356579900  0.000000000     0.000000000  0.088054679  0.000000000
     0.000000000  0.000000000 27.899598656     0.000000000  0.000000000  0.035842810

  length of vectors
    10.254981746 11.356579900 27.899598656     0.097513582  0.088054679  0.035842810

 FORCES acting on ions:
    Electron-Ion                     Ewald-Force                    Non-Local-Force
   -.517E+02 -.663E+02 -.364E+03   0.570E+02 0.733E+02 0.364E+03   -.508E+01 -.673E+01 0.119E+00
   -.517E+02 0.663E+02 -.364E+03   0.570E+02 -.733E+02 0.364E+03   -.508E+01 0.673E+01 0.119E+00
   0.102E+02 0.888E-02 -.220E+04   -.508E+02 -.162E-01 0.221E+04   0.403E+02 0.258E-02 -.957E+01
   0.650E+01 -.777E-01 0.339E+04   -.131E+01 0.804E-01 -.338E+04   -.156E+01 -.727E-03 -.432E+01
   0.426E+01 -.198E+00 0.279E+04   -.596E+01 0.201E+00 -.279E+04   0.728E-01 -.973E-03 0.127E+00
   0.660E+01 0.140E+00 0.339E+04   -.144E+01 -.144E+00 -.338E+04   -.155E+01 0.119E-02 -.432E+01
   0.280E+01 0.909E-01 0.279E+04   -.454E+01 -.969E-01 -.279E+04   0.833E-01 0.152E-02 0.125E+00
   0.207E+00 -.147E+00 0.127E+04   -.372E+00 0.148E+00 -.127E+04   0.108E+00 -.683E-02 -.119E+00
   0.205E+01 -.211E+01 0.808E+03   -.199E+01 0.209E+01 -.808E+03   0.274E-01 0.449E-01 0.128E-01
   0.236E+01 -.626E-01 0.127E+04   -.251E+01 0.544E-01 -.127E+04   0.113E+00 0.168E-01 -.130E+00
   -.425E+01 0.243E+00 0.797E+03   0.432E+01 -.243E+00 -.797E+03   0.101E+00 0.598E-03 0.180E-01
   -.676E+01 -.243E+01 -.782E+03   0.649E+01 0.243E+01 0.782E+03   0.230E+00 -.146E-01 -.174E-01
   -.106E+02 -.421E+01 -.117E+04   0.108E+02 0.426E+01 0.117E+04   0.168E+00 -.203E-01 0.785E-01
   0.285E+01 -.234E+01 -.748E+03   -.306E+01 0.234E+01 0.748E+03   0.229E+00 0.911E-02 -.100E-01
   0.362E+01 -.262E+01 -.121E+04   -.344E+01 0.262E+01 0.121E+04   0.145E+00 -.178E-01 0.173E-01
   0.297E+02 -.125E+02 -.280E+04   -.306E+02 0.125E+02 0.280E+04   0.705E+00 0.456E-01 -.618E+00
   -.878E+02 -.292E+02 -.320E+04   0.880E+02 0.290E+02 0.320E+04   0.102E+01 0.228E+00 0.165E+01
   -.110E+02 -.558E+02 -.270E+04   0.103E+02 0.558E+02 0.270E+04   0.678E+00 0.596E-01 -.341E+00
   -.553E+02 -.360E+02 -.319E+04   0.555E+02 0.360E+02 0.319E+04   0.109E+01 0.305E-01 0.162E+01
   0.650E+01 0.777E-01 0.339E+04   -.131E+01 -.804E-01 -.338E+04   -.156E+01 0.726E-03 -.432E+01
   0.413E+01 0.210E-04 0.279E+04   -.586E+01 -.118E-04 -.279E+04   0.802E-01 -.215E-05 0.122E+00
   0.646E+01 -.834E-05 0.339E+04   -.128E+01 -.327E-05 -.338E+04   -.156E+01 0.335E-06 -.432E+01
   0.280E+01 -.909E-01 0.279E+04   -.454E+01 0.969E-01 -.279E+04   0.833E-01 -.152E-02 0.125E+00
   0.207E+00 0.147E+00 0.127E+04   -.372E+00 -.148E+00 -.127E+04   0.108E+00 0.683E-02 -.119E+00
   -.694E+00 0.120E-03 0.803E+03   0.730E+00 -.127E-03 -.803E+03   0.911E-01 -.256E-05 0.138E-01
   0.238E+01 0.527E-04 0.127E+04   -.253E+01 -.591E-04 -.127E+04   0.983E-01 -.211E-05 -.145E+00
   -.425E+01 -.243E+00 0.797E+03   0.432E+01 0.243E+00 -.797E+03   0.101E+00 -.605E-03 0.180E-01
   -.676E+01 0.243E+01 -.782E+03   0.649E+01 -.243E+01 0.782E+03   0.230E+00 0.146E-01 -.174E-01
   -.680E+01 0.307E-03 -.119E+04   0.695E+01 -.337E-03 0.120E+04   0.220E+00 -.626E-06 0.520E-01
   -.168E+01 0.126E-03 -.771E+03   0.142E+01 -.113E-03 0.770E+03   0.225E+00 -.556E-05 0.259E-01
   0.362E+01 0.262E+01 -.121E+04   -.344E+01 -.262E+01 0.121E+04   0.145E+00 0.178E-01 0.173E-01
   0.297E+02 0.125E+02 -.280E+04   -.306E+02 -.125E+02 0.280E+04   0.705E+00 -.456E-01 -.618E+00
   -.743E+02 -.172E-03 -.321E+04   0.745E+02 0.132E-03 0.321E+04   0.104E+01 0.162E-04 0.160E+01
   0.117E+02 0.628E-03 -.279E+04   -.126E+02 -.709E-03 0.279E+04   0.650E+00 0.616E-05 -.557E+00
   -.553E+02 0.360E+02 -.319E+04   0.555E+02 -.360E+02 0.319E+04   0.109E+01 -.304E-01 0.162E+01
   0.647E+01 -.337E-04 0.339E+04   -.126E+01 -.484E-05 -.338E+04   -.156E+01 -.226E-05 -.432E+01
   0.426E+01 0.198E+00 0.279E+04   -.596E+01 -.201E+00 -.279E+04   0.728E-01 0.976E-03 0.127E+00
   0.660E+01 -.140E+00 0.339E+04   -.144E+01 0.144E+00 -.338E+04   -.155E+01 -.119E-02 -.432E+01
   0.186E+01 -.220E-04 0.279E+04   -.356E+01 0.158E-04 -.279E+04   0.683E-01 -.178E-05 0.122E+00
   0.350E+00 -.166E-03 0.127E+04   -.523E+00 0.151E-03 -.127E+04   0.548E-01 0.794E-05 -.342E-01
   0.205E+01 0.211E+01 0.808E+03   -.199E+01 -.209E+01 -.808E+03   0.274E-01 -.449E-01 0.128E-01
   0.236E+01 0.624E-01 0.127E+04   -.251E+01 -.543E-01 -.127E+04   0.113E+00 -.168E-01 -.130E+00
   -.667E+01 -.308E-03 0.779E+03   0.675E+01 0.313E-03 -.779E+03   0.877E-01 0.783E-05 0.252E-01
   -.449E+01 -.369E-03 -.785E+03   0.426E+01 0.369E-03 0.785E+03   0.558E-01 0.972E-06 0.358E-01
   -.106E+02 0.421E+01 -.117E+04   0.108E+02 -.426E+01 0.117E+04   0.168E+00 0.203E-01 0.785E-01
   0.285E+01 0.234E+01 -.748E+03   -.306E+01 -.234E+01 0.748E+03   0.229E+00 -.911E-02 -.100E-01
   0.323E+01 -.287E-03 -.125E+04   -.307E+01 0.266E-03 0.125E+04   0.115E+00 0.443E-05 -.384E-01
   0.444E+02 0.438E-04 -.280E+04   -.450E+02 -.478E-04 0.280E+04   0.378E+00 -.321E-06 -.466E+00
   -.878E+02 0.292E+02 -.320E+04   0.880E+02 -.290E+02 0.320E+04   0.102E+01 -.228E+00 0.165E+01
   -.110E+02 0.558E+02 -.270E+04   0.103E+02 -.558E+02 0.270E+04   0.678E+00 -.596E-01 -.341E+00
   0.399E+02 0.194E-02 -.315E+04   -.394E+02 -.180E-02 0.315E+04   0.582E+00 -.407E-04 0.939E+00
   -.332E+02 -.287E-01 0.229E+04   0.384E+02 0.292E-01 -.230E+04   -.690E+01 -.506E-03 0.178E+02
   -.335E+02 -.266E-01 0.229E+04   0.387E+02 0.255E-01 -.230E+04   -.689E+01 0.146E-02 0.178E+02
   0.834E+02 0.545E-01 0.139E+04   -.884E+02 -.584E-01 -.139E+04   0.395E+01 0.145E-02 -.430E+01
   0.758E+02 -.663E-01 0.169E+04   -.831E+02 0.694E-01 -.169E+04   0.749E+01 -.586E-02 -.267E+01
   -.876E+02 -.905E-01 0.195E+04   0.949E+02 0.902E-01 -.195E+04   -.695E+01 -.274E-03 -.286E+00
   -.725E+02 -.897E+00 0.106E+04   0.783E+02 0.943E+00 -.107E+04   -.582E+01 -.399E-01 0.411E+01
   0.842E+02 0.104E+00 0.139E+04   -.892E+02 -.876E-01 -.139E+04   0.391E+01 -.181E-01 -.414E+01
   0.749E+02 0.116E+00 0.169E+04   -.822E+02 -.125E+00 -.169E+04   0.751E+01 0.188E-01 -.269E+01
   -.877E+02 0.332E-01 0.195E+04   0.950E+02 -.308E-01 -.195E+04   -.692E+01 -.607E-02 -.291E+00
[...]
   0.896E+02 -.156E-03 -.108E+04   -.969E+02 0.154E-03 0.109E+04   0.703E+01 0.766E-05 -.699E+01
   0.704E+02 0.643E-04 -.716E+03   -.766E+02 -.887E-04 0.719E+03   0.601E+01 0.507E-05 -.311E+01
   -.853E+02 0.906E+00 -.462E+03   0.919E+02 -.938E+00 0.459E+03   -.647E+01 0.233E-01 0.270E+01
   -.742E+02 0.156E+02 -.129E+04   0.766E+02 -.163E+02 0.128E+04   -.273E+01 0.682E+00 0.928E+01
   0.822E+02 0.167E+02 -.104E+04   -.888E+02 -.175E+02 0.104E+04   0.634E+01 0.788E+00 -.533E+01
   0.833E+02 0.140E+01 -.729E+03   -.900E+02 -.147E+01 0.733E+03   0.645E+01 0.500E-01 -.311E+01
   -.746E+02 -.273E-03 -.466E+03   0.809E+02 0.257E-03 0.464E+03   -.619E+01 0.724E-06 0.214E+01
   -.572E+02 -.495E-04 -.132E+04   0.628E+02 0.271E-04 0.131E+04   -.565E+01 0.224E-04 0.622E+01
   0.112E+03 0.142E-03 -.228E+04   -.118E+03 -.786E-04 0.231E+04   0.633E+01 -.779E-04 -.215E+02
   0.424E+02 -.201E-04 -.201E+04   -.463E+02 0.473E-04 0.202E+04   0.375E+01 -.549E-04 -.738E+01
   -.538E+02 0.817E+01 -.167E+04   0.588E+02 -.801E+01 0.167E+04   -.504E+01 -.155E+00 0.275E+01
   0.287E+01 0.380E+02 -.227E+04   -.826E+01 -.376E+02 0.229E+04   0.506E+01 -.376E+00 -.195E+02
   0.853E+02 0.573E+02 -.197E+04   -.903E+02 -.574E+02 0.197E+04   0.481E+01 0.162E-01 -.696E+01
   -.598E+02 0.826E-03 -.152E+04   0.632E+02 -.836E-03 0.152E+04   -.345E+01 -.562E-04 0.561E+01
   -.405E+02 0.359E-04 0.779E+02   -.149E-12 -.124E-11 -.159E-11   0.405E+02 -.561E-04 -.778E+02

 POSITION                                       TOTAL-FORCE (eV/Angst)
      7.05772      6.44571     21.51822         0.239404      0.286419     -0.007223
      7.05776      4.91080     21.51820         0.235846     -0.281742     -0.007121
      6.45692      5.67832     21.53910        -0.340985     -0.004776      0.299605
      8.27721      9.46382      8.23277         3.667728      0.001979      0.949140
      6.06281      7.57105      9.11232        -1.628959      0.002176     -1.803073
      3.14972      7.57105      8.23277         3.637071     -0.002871      0.930533
      0.93532      9.46382      9.11232        -1.663969     -0.004503     -1.803201
      9.68880      9.46486     11.78508        -0.065752     -0.004094     -0.151712
      7.45463      7.56688     12.59103         0.083106      0.014322      0.183028
      4.55328      7.56885     11.78048        -0.037545      0.006069     -0.124053
      2.31720      9.46347     12.60505         0.152521      0.000920      0.178401
      0.88467      9.46635     15.33981        -0.064095     -0.015432     -0.225387
      8.88150      7.56737     16.05093         0.277941      0.019373      0.328306
      5.99342      7.56942     15.31050        -0.003257      0.004585     -0.137125
      3.74106      9.46403     16.08911         0.294890     -0.013976      0.330547
      2.37094      9.45623     18.96724        -0.192319      0.012688     -0.545673
      0.00842      7.55935     19.52237         1.071649      0.025852      0.785981
      7.47583      7.56019     18.86549        -0.090501      0.072019     -0.395098
      5.16726      9.47379     19.52644         1.067962     -0.023202      0.748428
      8.27721      1.89276      8.23277         3.667704     -0.001948      0.949174
      6.06281      0.00000      9.11232        -1.649663      0.000007     -1.798642
      3.14972      0.00000      8.23277         3.658880     -0.000011      0.942537
      0.93532      1.89276      9.11232        -1.664007      0.004500     -1.803193
      9.68880      1.89172     11.78508        -0.065776      0.004099     -0.151730
      7.44858      0.00000     12.59615         0.112033     -0.000009      0.178341
      4.55607      0.00000     11.78411        -0.057611     -0.000008     -0.150812
      2.31720      1.89311     12.60505         0.152557     -0.000935      0.178403
      0.88467      1.89023     15.33981        -0.064104      0.015423     -0.225388
      8.86814      0.00000     16.06742         0.323718     -0.000029      0.332081
      5.99960      0.00000     15.32593        -0.057639      0.000008     -0.197568
      3.74106      1.89255     16.08911         0.294908      0.013980      0.330457
      2.37094      1.90035     18.96724        -0.192329     -0.012699     -0.545731
      0.03269     11.35658     19.52079         1.076088     -0.000024      0.771474
      7.50799     11.35658     18.93605        -0.196712     -0.000073     -0.537780
      5.16726      1.88279     19.52644         1.067860      0.023144      0.748411
      8.27721      5.67829      8.23277         3.675049     -0.000041      0.944650
      6.06281      3.78553      9.11232        -1.628892     -0.002187     -1.803066
      3.14972      3.78553      8.23277         3.637025      0.002865      0.930459
      0.93532      5.67829      9.11232        -1.633363     -0.000008     -1.748439
      9.70238      5.67829     11.78038        -0.121932     -0.000007     -0.099664
      7.45463      3.78970     12.59104         0.083111     -0.014313      0.182998
      4.55328      3.78773     11.78047        -0.037533     -0.006058     -0.124078
      2.32119      5.67829     12.63432         0.161742      0.000012      0.060068
      0.91249      5.67829     15.34690        -0.178949      0.000001     -0.166792
      8.88150      3.78921     16.05093         0.277917     -0.019352      0.328242
      5.99342      3.78716     15.31050        -0.003289     -0.004594     -0.137117
      3.76271      5.67829     16.17439         0.257744     -0.000017      0.117664
      2.40549      5.67829     18.98177        -0.268935     -0.000004     -0.461257
      0.00842      3.79723     19.52238         1.071832     -0.025811      0.785882
      7.47583      3.79638     18.86549        -0.090574     -0.071942     -0.395250
      5.19205      5.67829     19.70006         0.960276      0.000102      0.386469
      4.99460      7.57105      7.50000        -1.729997     -0.000027      0.296514
     10.12209      9.46382      7.50000        -1.725308      0.000349      0.290667
      9.34542      9.46382      9.84509        -1.086095     -0.002418      0.047550
      6.43232      9.46382      8.96555         0.193109     -0.002846      0.010578
      7.90770      7.57105      8.37954         0.444912     -0.000563     -1.200519
      6.39199      7.57105     11.01817         0.051395      0.006597      0.180186
      4.21792      7.57105      9.84509        -1.097941     -0.001611      0.032705
      1.30483      7.57105      8.96555         0.204329      0.010037      0.002589
      2.78021      9.46382      8.37954         0.455441     -0.003612     -1.202882
[...]
      2.71520      5.67829     14.55661         0.201628      0.000000     -0.197621
      1.98325      5.67829     16.94663        -0.234715      0.000006      0.464398
      9.27670      5.67829     15.98882        -0.174108     -0.000019      0.094383
      0.52184      3.78736     15.42860         0.176840     -0.008122     -0.098587
      9.35631      3.77004     17.98543        -0.292464     -0.017604     -0.688463
      7.11712      3.75253     16.88311        -0.233797     -0.026156      0.311076
      4.15087      3.78726     16.02060        -0.225090     -0.019565      0.103218
      5.64291      5.67829     15.45384         0.140776     -0.000016     -0.063570
      4.23057      5.67829     18.08941        -0.036007      0.000000     -0.353147
      3.53977      5.67829     20.45395        -0.398680     -0.000014      1.097281
      0.52811      5.67829     19.73658        -0.134977     -0.000028      0.290775
      1.98554      3.79013     18.99935         0.014566     -0.001840     -0.064015
      8.62932      3.85843     20.36096        -0.348480      0.030531      1.020325
      5.68519      3.76622     19.73148        -0.198265     -0.041101      0.245342
      7.08845      5.67829     18.82704        -0.057598     -0.000067     -0.147019
    total drift:                                0.000894     -0.000020      0.067124

  FREE ENERGIE OF THE ION-ELECTRON SYSTEM (eV)
  free  energy   TOTEN  =     -1157.85598425 eV

  energy  without entropy=    -1157.85598425  energy(sigma->0) =    -1157.85598425