 vasp.6.3.0 20Jan22 (build Mar 11 2022 13:48:16) complex

 executed on             LinuxIFC date 2024.08.24  11:56:31

 INCAR:
   SYSTEM = MgO-rocksalt
   ISMEAR = 0
   SIGMA = 0.05
   EDIFF = 1E-7
   ALGO = ALL
   ISTART = 0
   IBRION = 2
   NSW = 1000
   ISYM = 0
   ISIF = 2
   EDIFFG = -0.01
   DIPOL = 0.5 0.5 0.5
   IDIPOL = 3
   LDIPOL = .TRUE.
   GGA = RE
   IVDW = 13
   VDW_S8 = 1.7468
   VDW_A1 = 0.5363
   VDW_A2 = 3.0726
   ENCUT = 600
   PREC = Accurate
   LASPH = .TRUE.
   LREAL = .FALSE.
   ISPIN = 1
   NELM = 200
   NELMIN = 8
   NCORE = 8
   KPAR = 1
   LWAVE = .FALSE.
   LCHARG = .FALSE.

 POTCAR:    PAW_PBE Ti_pv 07Sep2000
 POTCAR:    PAW_PBE O 08Apr2002
|           W    W    AA    RRRRR   N    N  II  N    N   GGGG   !!!           |
|           W    W   A  A   R    R  NN   N  II  NN   N  G    G  !!!           |
|           W    W  A    A  R    R  N N  N  II  N N  N  G       !!!           |
|           W WW W  AAAAAA  RRRRR   N  N N  II  N  N N  G  GGG   !            |
|           WW  WW  A    A  R   R   N   NN  II  N   NN  G    G                |
|           W    W  A    A  R    R  N    N  II  N    N   GGGG   !!!           |
|     For optimal performance we recommend to set                             |
|       NCORE = 2 up to number-of-cores-per-socket                            |
|     This setting can greatly improve the performance of VASP for DFT.       |
|     The default, NCORE=1 might be grossly inefficient on modern             |
|     multi-core architectures or massively parallel machines. Do your        |
|     Unfortunately you need to use the default for GW and RPA                |
|     calculations (for HF NCORE is supported but not extensively tested      |
|     yet).                                                                   |

   TITEL  = PAW_PBE Ti_pv 07Sep2000
   POMASS =   47.880; ZVAL   =   10.000    mass and valenz
   ENMAX  =  222.335; ENMIN  =  166.751 eV

   TITEL  = PAW_PBE O 08Apr2002
   POMASS =   16.000; ZVAL   =    6.000    mass and valenz
   ENMAX  =  400.000; ENMIN  =  300.000 eV

  PAW_PBE Ti_pv 07Sep2000               :
  PAW_PBE O 08Apr2002                   :

 POSCAR: Ti  O
  positions in direct lattice
|           W    W    AA    RRRRR   N    N  II  N    N   GGGG   !!!           |
|           W    W   A  A   R    R  NN   N  II  NN   N  G    G  !!!           |
|           W    W  A    A  R    R  N N  N  II  N N  N  G       !!!           |
|           W WW W  AAAAAA  RRRRR   N  N N  II  N  N N  G  GGG   !            |
|           WW  WW  A    A  R   R   N   NN  II  N   NN  G    G                |
|           W    W  A    A  R    R  N    N  II  N    N   GGGG   !!!           |
|     Specifying the vdW parameters                                           |
|     VDW_S8 = 1.747                                                          |
|     VDW_A1 = 0.536                                                          |
|     VDW_A2 = 3.073                                                          |
|     in the INCAR file will overwrite the defaults for revpbe. Please        |
|     make sure that is what you intended.                                    |

 ion  position               nearest neighbor table
   1  0.750  0.625  0.287-  81 1.95 141 1.95  82 1.95 142 1.95 163 1.98  84 1.98  11 2.96  31 2.96

   2  0.000  0.750  0.287-  84 1.95 104 1.95 103 1.95  83 1.95  85 1.98  32 2.96  12 2.96
   3  0.000  0.625  0.394-  85 1.95 145 1.95  86 1.95 146 1.95  87 1.98  88 1.98  13 2.96  33 2.96

[...]

  80  0.500  0.500  0.713- 179 1.95 180 1.95 239 1.95 240 1.95 234 1.98  70 2.96  50 2.96
  81  0.750  0.750  0.245-   1 1.95  11 1.95
  82  0.750  0.750  0.329-   1 1.95  11 1.95   4 1.98
  83  0.098  0.625  0.287-   2 1.95  32 1.95  41 1.98
  84  0.902  0.625  0.287-   2 1.95  32 1.95   1 1.98
  85  0.000  0.750  0.352-   3 1.95  13 1.95   2 1.98
  86  0.000  0.750  0.435-   3 1.95  13 1.95   6 1.98
  87  0.848  0.625  0.394-   4 1.95  34 1.95   3 1.98
  88  0.152  0.625  0.394-  44 1.95  74 1.95   3 1.98
  89  0.750  0.750  0.458-   5 1.95  15 1.95   4 1.98
  90  0.750  0.750  0.542-   5 1.95  15 1.95   8 1.98
  91  0.098  0.625  0.500-   6 1.95  36 1.95  45 1.98
  92  0.902  0.625  0.500-   6 1.95  36 1.95   5 1.98
  93  0.000  0.750  0.565-   7 1.95  17 1.95   6 1.98
  94  0.000  0.750  0.648-   7 1.95  17 1.95  10 1.98
  95  0.848  0.625  0.606-   8 1.95  38 1.95   7 1.98
  96  0.152  0.625  0.606-  48 1.95  78 1.95   7 1.98
  97  0.750  0.750  0.671-   9 1.95  19 1.95   8 1.98
  98  0.750  0.750  0.755-   9 1.95  19 1.95
  99  0.098  0.625  0.713-  10 1.95  40 1.95  49 1.98
 100  0.902  0.625  0.713-  10 1.95  40 1.95   9 1.98
 101  0.750  0.000  0.245-  11 1.95  21 1.95
 102  0.750  0.000  0.329-  11 1.95  21 1.95  14 1.98
 103  0.098  0.875  0.287-   2 1.95  12 1.95  51 1.98
 104  0.902  0.875  0.287-   2 1.95  12 1.95  11 1.98
 105  0.000  0.000  0.352-  13 1.95  23 1.95  12 1.98
 106  0.000  0.000  0.435-  13 1.95  23 1.95  16 1.98
 107  0.848  0.875  0.394-   4 1.95  14 1.95  13 1.98
 108  0.152  0.875  0.394-  44 1.95  54 1.95  13 1.98
 109  0.750  0.000  0.458-  15 1.95  25 1.95  14 1.98
 110  0.750  0.000  0.542-  15 1.95  25 1.95  18 1.98
 111  0.098  0.875  0.500-   6 1.95  16 1.95  55 1.98
 112  0.902  0.875  0.500-   6 1.95  16 1.95  15 1.98
 113  0.000  0.000  0.565-  17 1.95  27 1.95  16 1.98
 114  0.000  0.000  0.648-  17 1.95  27 1.95  20 1.98
 115  0.848  0.875  0.606-   8 1.95  18 1.95  17 1.98
 116  0.152  0.875  0.606-  48 1.95  58 1.95  17 1.98
 117  0.750  0.000  0.671-  19 1.95  29 1.95  18 1.98
 118  0.750  0.000  0.755-  19 1.95  29 1.95
 119  0.098  0.875  0.713-  10 1.95  20 1.95  59 1.98
 120  0.902  0.875  0.713-  10 1.95  20 1.95  19 1.98
 121  0.750  0.250  0.245-  21 1.95  31 1.95
 122  0.750  0.250  0.329-  21 1.95  31 1.95  24 1.98
 123  0.098  0.125  0.287-  12 1.95  22 1.95  61 1.98
 124  0.902  0.125  0.287-  12 1.95  22 1.95  21 1.98
 125  0.000  0.250  0.352-  23 1.95  33 1.95  22 1.98
 126  0.000  0.250  0.435-  23 1.95  33 1.95  26 1.98
 127  0.848  0.125  0.394-  14 1.95  24 1.95  23 1.98
 128  0.152  0.125  0.394-  54 1.95  64 1.95  23 1.98
 129  0.750  0.250  0.458-  25 1.95  35 1.95  24 1.98
 130  0.750  0.250  0.542-  25 1.95  35 1.95  28 1.98
 131  0.098  0.125  0.500-  16 1.95  26 1.95  65 1.98
 132  0.902  0.125  0.500-  16 1.95  26 1.95  25 1.98
 133  0.000  0.250  0.565-  27 1.95  37 1.95  26 1.98
 134  0.000  0.250  0.648-  27 1.95  37 1.95  30 1.98
 135  0.848  0.125  0.606-  18 1.95  28 1.95  27 1.98
 136  0.152  0.125  0.606-  58 1.95  68 1.95  27 1.98
 137  0.750  0.250  0.671-  29 1.95  39 1.95  28 1.98
 138  0.750  0.250  0.755-  29 1.95  39 1.95
 139  0.098  0.125  0.713-  20 1.95  30 1.95  69 1.98
[...]
 226  0.500  0.500  0.435-  43 1.95  73 1.95  76 1.98
 227  0.348  0.375  0.394-  64 1.95  74 1.95  73 1.98
 228  0.652  0.375  0.394-  24 1.95  34 1.95  73 1.98
 229  0.250  0.500  0.458-  45 1.95  75 1.95  74 1.98
 230  0.250  0.500  0.542-  45 1.95  75 1.95  78 1.98
 231  0.598  0.375  0.500-  66 1.95  76 1.95  35 1.98
 232  0.402  0.375  0.500-  66 1.95  76 1.95  75 1.98
 233  0.500  0.500  0.565-  47 1.95  77 1.95  76 1.98
 234  0.500  0.500  0.648-  47 1.95  77 1.95  80 1.98
 235  0.348  0.375  0.606-  68 1.95  78 1.95  77 1.98
 236  0.652  0.375  0.606-  28 1.95  38 1.95  77 1.98
 237  0.250  0.500  0.671-  49 1.95  79 1.95  78 1.98
 238  0.250  0.500  0.755-  49 1.95  79 1.95
 239  0.598  0.375  0.713-  70 1.95  80 1.95  39 1.98
 240  0.402  0.375  0.713-  70 1.95  80 1.95  79 1.98

IMPORTANT INFORMATION: All symmetrisations will be switched off!
NOSYMM: (Re-)initialisation of all symmetry stuff for point group C_1.

                                     Primitive cell

  volume of cell :    4700.2642

  direct lattice vectors                    reciprocal lattice vectors
    13.003962940  0.000000000  0.000000000     0.076899635  0.000000000  0.000000000
     0.000000000 11.830322230  0.000000000     0.000000000  0.084528551  0.000000000
     0.000000000  0.000000000 30.552726600     0.000000000  0.000000000  0.032730303

  length of vectors
    13.003962940 11.830322230 30.552726600     0.076899635  0.084528551  0.032730303

  position of ions in fractional coordinates (direct lattice)
     0.750000000  0.625000000  0.287188176
     0.000000000  0.750000000  0.287188176
     0.000000000  0.625000000  0.393594088
     0.750000000  0.750000000  0.393594088
     0.750000000  0.625000000  0.500000000
     0.000000000  0.750000000  0.500000000
     0.000000000  0.625000000  0.606405912
     0.750000000  0.750000000  0.606405912
     0.750000000  0.625000000  0.712811824
     0.000000000  0.750000000  0.712811824
     0.750000000  0.875000000  0.287188176
     0.000000000  0.000000000  0.287188176
     0.000000000  0.875000000  0.393594088
     0.750000000  0.000000000  0.393594088
     0.750000000  0.875000000  0.500000000
     0.000000000  0.000000000  0.500000000
     0.000000000  0.875000000  0.606405912
     0.750000000  0.000000000  0.606405912
     0.750000000  0.875000000  0.712811824
     0.000000000  0.000000000  0.712811824
     0.750000000  0.125000000  0.287188176
     0.000000000  0.250000000  0.287188176
     0.000000000  0.125000000  0.393594088
     0.750000000  0.250000000  0.393594088
     0.750000000  0.125000000  0.500000000
     0.000000000  0.250000000  0.500000000
     0.000000000  0.125000000  0.606405912
     0.750000000  0.250000000  0.606405912
     0.750000000  0.125000000  0.712811824
     0.000000000  0.250000000  0.712811824
     0.750000000  0.375000000  0.287188176
     0.000000000  0.500000000  0.287188176
     0.000000000  0.375000000  0.393594088
     0.750000000  0.500000000  0.393594088
     0.750000000  0.375000000  0.500000000
     0.000000000  0.500000000  0.500000000
     0.000000000  0.375000000  0.606405912
     0.750000000  0.500000000  0.606405912
     0.750000000  0.375000000  0.712811824
     0.000000000  0.500000000  0.712811824
     0.250000000  0.625000000  0.287188176
     0.500000000  0.750000000  0.287188176
     0.500000000  0.625000000  0.393594088
     0.250000000  0.750000000  0.393594088
     0.250000000  0.625000000  0.500000000
     0.500000000  0.750000000  0.500000000
     0.500000000  0.625000000  0.606405912
     0.250000000  0.750000000  0.606405912
     0.250000000  0.625000000  0.712811824
     0.500000000  0.750000000  0.712811824
     0.250000000  0.875000000  0.287188176
     0.500000000  0.000000000  0.287188176
     0.500000000  0.875000000  0.393594088
     0.250000000  0.000000000  0.393594088
     0.250000000  0.875000000  0.500000000
     0.500000000  0.000000000  0.500000000
     0.500000000  0.875000000  0.606405912
     0.250000000  0.000000000  0.606405912
     0.250000000  0.875000000  0.712811824
     0.500000000  0.000000000  0.712811824
[...]
     0.500000000  0.500000000  0.435304992
     0.347999497  0.375000000  0.393594088
     0.652000503  0.375000000  0.393594088
     0.250000000  0.500000000  0.458289097
     0.250000000  0.500000000  0.541710903
     0.597999497  0.375000000  0.500000000
     0.402000503  0.375000000  0.500000000
     0.500000000  0.500000000  0.564695008
[...]
   3.25099073  5.91516111 20.50396294
   3.25099073  5.91516111 23.05272660
   7.77636330  4.43637084 21.77834477
   5.22759964  4.43637084 21.77834477

--------------------------------------- Iteration      FINAL  ---------------------------------------

--------------------OUTCAR has been truncated-------------------------

[...]

--------------------OUTCAR has been truncated-------------------------

  FORCE on cell =-STRESS in cart. coord.  units (eV):
  Direction    XX          YY          ZZ          XY          YZ          ZX
  Alpha Z  4654.23472  4654.23472  4654.23472
  Ewald  981368.94620999143.78078************     0.00004     0.00015     0.00006
  Hartree************************************     0.00002     0.00007     0.00002
  E(xc)   -8618.09317 -8590.83620 -8632.65883     0.00000     0.00000    -0.00000
  Local  ************************************    -0.00006    -0.00021    -0.00007
  n-local -5339.07007 -5262.57571 -5385.19278     0.00000     0.00000     0.00000
  augment  5215.42688  5201.42338  5217.66802     0.00000     0.00000     0.00000
  Kinetic 28642.55203 28169.32576 28691.97393     0.00000    -0.00001    -0.00001
  Fock        0.00000     0.00000     0.00000     0.00000     0.00000     0.00000
  vdW      -130.35141  -129.91401  -116.95816    -0.00000    -0.00000    -0.00000
  Total      13.96843   -29.50117   -31.08011     0.00000     0.00000    -0.00001
  in kB       4.76141   -10.05605   -10.59427     0.00000     0.00000    -0.00000

 VOLUME and BASIS-vectors are now :
  energy-cutoff  :      600.00
  volume of cell :     4700.26
      direct lattice vectors                 reciprocal lattice vectors
    13.003962940  0.000000000  0.000000000     0.076899635  0.000000000  0.000000000
     0.000000000 11.830322230  0.000000000     0.000000000  0.084528551  0.000000000
     0.000000000  0.000000000 30.552726600     0.000000000  0.000000000  0.032730303

  length of vectors
    13.003962940 11.830322230 30.552726600     0.076899635  0.084528551  0.032730303

 FORCES acting on ions:
    Electron-Ion                     Ewald-Force                    Non-Local-Force
   0.215E-06 -.204E-06 0.380E+04   -.250E-06 0.211E-06 -.380E+04   -.534E-07 0.241E-07 0.454E+00
   -.129E-05 0.311E-06 0.398E+04   0.136E-05 -.328E-06 -.397E+04   -.236E-07 0.126E-07 -.403E+01
   -.716E-05 -.123E-05 0.193E+04   0.748E-05 0.121E-05 -.193E+04   -.939E-07 -.319E-08 -.466E-01
   0.120E-05 0.130E-05 0.192E+04   -.121E-05 -.140E-05 -.192E+04   0.491E-07 0.776E-07 0.204E+00
   0.564E-05 -.317E-05 -.216E+02   -.553E-05 0.200E-05 0.224E+02   0.212E-07 0.957E-07 -.141E+00
   -.329E-04 -.341E-05 -.919E+01   0.337E-04 0.245E-05 0.808E+01   -.142E-06 0.229E-06 0.357E+00
   -.888E-04 -.133E-03 -.190E+04   0.895E-04 0.137E-03 0.190E+04   0.633E-07 -.798E-06 0.269E-02
   0.346E-04 0.711E-04 -.197E+04   -.343E-04 -.713E-04 0.197E+04   -.856E-07 0.441E-07 -.825E-01
   0.375E-04 -.740E-04 -.379E+04   -.366E-04 0.724E-04 0.379E+04   0.131E-05 0.122E-06 -.229E+00
   0.182E-04 -.136E-03 -.381E+04   -.188E-04 0.139E-03 0.381E+04   0.616E-07 -.286E-06 0.104E+01
   0.176E-06 0.618E-06 0.380E+04   -.203E-06 -.624E-06 -.380E+04   -.168E-07 0.251E-07 0.454E+00
   -.112E-05 0.656E-06 0.398E+04   0.119E-05 -.661E-06 -.397E+04   -.124E-07 -.199E-08 -.403E+01
   -.614E-05 0.312E-05 0.193E+04   0.636E-05 -.338E-05 -.193E+04   -.430E-07 0.477E-07 -.466E-01
   0.555E-06 0.287E-05 0.192E+04   -.583E-06 -.294E-05 -.192E+04   0.141E-07 0.125E-07 0.204E+00
   0.240E-05 0.149E-04 -.216E+02   -.224E-05 -.163E-04 0.224E+02   0.101E-06 0.194E-06 -.141E+00
   -.301E-04 0.193E-04 -.919E+01   0.300E-04 -.194E-04 0.808E+01   0.672E-07 -.275E-07 0.357E+00
   0.141E-03 0.694E-04 -.190E+04   -.143E-03 -.710E-04 0.190E+04   -.116E-06 0.291E-06 0.269E-02
   0.171E-04 -.670E-04 -.197E+04   -.154E-04 0.660E-04 0.197E+04   -.981E-06 0.859E-06 -.825E-01
   0.263E-04 0.531E-04 -.379E+04   -.283E-04 -.589E-04 0.379E+04   0.524E-06 0.156E-05 -.229E+00
   0.137E-03 0.162E-03 -.381E+04   -.140E-03 -.168E-03 0.381E+04   0.718E-07 0.830E-06 0.104E+01
   0.161E-06 0.215E-06 0.380E+04   -.154E-06 -.216E-06 -.380E+04   0.616E-07 -.333E-07 0.454E+00
   -.110E-05 -.311E-06 0.398E+04   0.116E-05 0.331E-06 -.397E+04   -.741E-08 -.674E-08 -.403E+01
   -.485E-05 0.165E-05 0.193E+04   0.500E-05 -.156E-05 -.193E+04   0.602E-08 0.266E-11 -.466E-01
   0.472E-06 -.136E-05 0.192E+04   -.509E-06 0.147E-05 -.192E+04   0.593E-07 -.146E-06 0.204E+00
   -.133E-05 0.276E-05 -.216E+02   0.153E-05 -.100E-05 0.224E+02   -.184E-06 -.129E-06 -.141E+00
   -.191E-04 0.171E-05 -.919E+01   0.190E-04 -.548E-06 0.808E+01   0.166E-06 -.310E-06 0.357E+00
   -.703E-04 0.735E-04 -.190E+04   0.698E-04 -.753E-04 0.190E+04   0.393E-06 0.453E-06 0.269E-02
   -.383E-04 0.147E-03 -.197E+04   0.382E-04 -.148E-03 0.197E+04   0.962E-07 -.284E-06 -.825E-01
   -.804E-04 0.739E-04 -.379E+04   0.803E-04 -.758E-04 0.379E+04   0.206E-05 0.142E-05 -.229E+00
   0.141E-03 0.584E-04 -.381E+04   -.141E-03 -.595E-04 0.381E+04   0.660E-07 0.142E-06 0.104E+01
   0.181E-06 -.641E-06 0.380E+04   -.200E-06 0.630E-06 -.380E+04   0.269E-07 -.144E-07 0.454E+00
   -.128E-05 -.659E-06 0.398E+04   0.134E-05 0.658E-06 -.397E+04   -.217E-07 0.357E-08 -.403E+01
   -.587E-05 -.356E-05 0.193E+04   0.607E-05 0.373E-05 -.193E+04   -.916E-07 -.575E-07 -.466E-01
   0.120E-05 -.281E-05 0.192E+04   -.123E-05 0.287E-05 -.192E+04   0.264E-07 0.644E-07 0.204E+00
   0.932E-06 -.145E-04 -.216E+02   -.836E-06 0.153E-04 0.224E+02   0.154E-06 -.131E-06 -.141E+00
   -.395E-04 -.132E-04 -.919E+01   0.405E-04 0.133E-04 0.808E+01   -.228E-06 -.276E-07 0.357E+00
   0.879E-04 0.513E-06 -.190E+04   -.874E-04 -.162E-05 0.190E+04   -.207E-06 0.112E-07 0.269E-02
   0.795E-04 -.150E-03 -.197E+04   -.808E-04 0.152E-03 0.197E+04   0.760E-07 -.577E-06 -.825E-01
   0.802E-04 -.757E-04 -.379E+04   -.828E-04 0.841E-04 0.379E+04   -.313E-05 -.261E-05 -.229E+00
   0.609E-04 -.659E-04 -.381E+04   -.617E-04 0.701E-04 0.381E+04   0.114E-05 -.747E-06 0.104E+01
   -.243E-06 -.249E-06 0.380E+04   0.252E-06 0.232E-06 -.380E+04   0.687E-08 0.409E-07 0.454E+00
   0.129E-05 0.375E-06 0.398E+04   -.136E-05 -.401E-06 -.397E+04   0.425E-08 0.162E-09 -.403E+01
   0.723E-05 -.115E-05 0.193E+04   -.753E-05 0.112E-05 -.193E+04   0.714E-07 -.364E-08 -.466E-01
   -.123E-05 0.296E-05 0.192E+04   0.126E-05 -.315E-05 -.192E+04   -.978E-07 0.793E-07 0.204E+00
   -.115E-04 0.132E-04 -.216E+02   0.115E-04 -.173E-04 0.224E+02   -.135E-06 0.174E-06 -.141E+00
   0.246E-04 0.748E-05 -.919E+01   -.258E-04 -.842E-05 0.808E+01   0.412E-06 0.197E-06 0.357E+00
   0.930E-04 -.459E-04 -.190E+04   -.929E-04 0.447E-04 0.190E+04   -.184E-06 0.101E-06 0.269E-02
   0.445E-04 -.119E-03 -.197E+04   -.443E-04 0.120E-03 0.197E+04   0.286E-07 -.671E-06 -.825E-01
   -.743E-04 -.103E-03 -.379E+04   0.762E-04 0.106E-03 0.379E+04   0.742E-06 -.116E-05 -.229E+00
   -.294E-04 -.946E-04 -.381E+04   0.280E-04 0.979E-04 0.381E+04   0.106E-06 -.433E-06 0.104E+01
   -.197E-06 0.781E-06 0.380E+04   0.205E-06 -.883E-06 -.380E+04   -.388E-07 -.179E-07 0.454E+00
   0.115E-05 0.746E-06 0.398E+04   -.119E-05 -.736E-06 -.397E+04   0.119E-08 0.320E-08 -.403E+01
   0.614E-05 0.421E-05 0.193E+04   -.639E-05 -.437E-05 -.193E+04   0.512E-07 0.359E-07 -.466E-01
   -.601E-06 0.498E-05 0.192E+04   0.627E-06 -.513E-05 -.192E+04   -.719E-07 0.568E-07 0.204E+00
   -.697E-05 0.256E-04 -.216E+02   0.701E-05 -.281E-04 0.224E+02   -.968E-07 0.533E-06 -.141E+00
   0.216E-04 0.233E-04 -.919E+01   -.221E-04 -.238E-04 0.808E+01   0.215E-06 0.103E-06 0.357E+00
   -.738E-04 -.530E-04 -.190E+04   0.741E-04 0.556E-04 0.190E+04   0.318E-06 -.421E-06 0.269E-02
   -.529E-05 0.171E-03 -.197E+04   0.507E-05 -.171E-03 0.197E+04   0.747E-07 0.110E-05 -.825E-01
   -.696E-04 0.108E-03 -.379E+04   0.728E-04 -.117E-03 0.379E+04   0.231E-05 0.374E-05 -.229E+00
   -.146E-03 0.169E-03 -.381E+04   0.148E-03 -.176E-03 0.381E+04   0.879E-07 0.827E-06 0.104E+01
[...]
   -.533E+02 -.364E-05 0.115E+04   0.573E+02 0.379E-05 -.115E+04   -.355E+01 -.202E-06 0.157E+00
   0.533E+02 -.208E-05 0.115E+04   -.573E+02 0.217E-05 -.115E+04   0.355E+01 -.124E-06 0.157E+00
   -.261E-05 -.857E-05 0.497E+03   0.257E-05 0.944E-05 -.501E+03   0.736E-07 -.152E-05 0.415E+01
   -.233E-04 -.184E-04 -.539E+03   0.227E-04 0.189E-04 0.547E+03   0.115E-05 -.128E-05 -.724E+01
   -.555E+02 -.130E-04 -.641E+01   0.603E+02 0.133E-04 0.614E+01   -.522E+01 -.464E-06 0.371E+00
   0.555E+02 -.288E-04 -.641E+01   -.603E+02 0.303E-04 0.614E+01   0.522E+01 -.208E-05 0.371E+00
   0.610E-04 -.301E-04 -.643E+03   -.625E-04 0.300E-04 0.637E+03   0.110E-05 0.371E-06 0.639E+01
   -.542E-04 -.651E-04 -.162E+04   0.548E-04 0.670E-04 0.162E+04   -.336E-06 -.173E-05 0.299E+01
   -.269E+02 -.112E-03 -.115E+04   0.298E+02 0.117E-03 0.115E+04   -.295E+01 -.321E-05 0.901E+00
   0.269E+02 -.516E-04 -.115E+04   -.298E+02 0.543E-04 0.115E+04   0.295E+01 -.286E-05 0.901E+00
   0.104E-04 -.867E-04 -.183E+04   -.144E-04 0.904E-04 0.184E+04   0.501E-05 -.356E-05 -.230E+01
   0.344E-04 0.128E-03 -.274E+04   -.398E-04 -.148E-03 0.276E+04   0.591E-05 0.190E-04 -.209E+02
   -.207E+02 -.311E-04 -.237E+04   0.266E+02 0.339E-04 0.237E+04   -.591E+01 -.406E-05 -.388E+01
   0.207E+02 -.105E-04 -.237E+04   -.266E+02 0.106E-04 0.237E+04   0.591E+01 -.750E-06 -.388E+01
   -.393E-05 0.459E-05 0.971E+02   0.320E-12 0.155E-11 0.659E-10   0.534E-05 -.358E-05 -.972E+02

 POSITION                                       TOTAL-FORCE (eV/Angst)
      9.75297      7.39395      8.77438        -0.000000      0.000000     -3.375828
      0.00000      8.87274      8.77438         0.000000     -0.000000      2.809440
      0.00000      7.39395     12.02537         0.000000     -0.000000      0.542830
      9.75297      8.87274     12.02537         0.000000     -0.000000     -0.703803
      9.75297      7.39395     15.27636         0.000000     -0.000001      0.713896
      0.00000      8.87274     15.27636         0.000001     -0.000001     -0.766442
     -0.00000      7.39395     18.45713         0.000000      0.000003      0.009240
      9.75297      8.87274     18.66062         0.000000      0.000000     -0.002021
      9.75297      7.39395     22.01205         0.000002     -0.000002      0.001899
     -0.00000      8.87274     21.63415        -0.000001      0.000002      0.009700
      9.75297     10.35153      8.77438        -0.000000      0.000000     -3.375829
      0.00000      0.00000      8.77438         0.000000     -0.000000      2.809440
      0.00000     10.35153     12.02537         0.000000     -0.000000      0.542830
      9.75297      0.00000     12.02537        -0.000000     -0.000000     -0.703803
      9.75297     10.35153     15.27636         0.000000     -0.000001      0.713895
      0.00000      0.00000     15.27636        -0.000000     -0.000000     -0.766442
      0.00000     10.35153     18.45713        -0.000001     -0.000001      0.009239
      9.75297     -0.00000     18.66062         0.000001     -0.000001     -0.002021
      9.75297     10.35153     22.01205        -0.000002     -0.000004      0.001889
      0.00000      0.00000     21.63415        -0.000002     -0.000005      0.009702
      9.75297      1.47879      8.77438         0.000000     -0.000000     -3.375829
      0.00000      2.95758      8.77438         0.000000      0.000000      2.809440
      0.00000      1.47879     12.02537         0.000000      0.000000      0.542830
      9.75297      2.95758     12.02537         0.000000     -0.000000     -0.703803
      9.75297      1.47879     15.27636         0.000000      0.000002      0.713895
      0.00000      2.95758     15.27636         0.000000      0.000001     -0.766442
     -0.00000      1.47879     18.45713        -0.000001     -0.000001      0.009237
      9.75297      2.95758     18.66062        -0.000000     -0.000000     -0.002024
      9.75297      1.47879     22.01205         0.000002     -0.000000      0.001901
      0.00000      2.95758     21.63415        -0.000001     -0.000001      0.009701
      9.75297      4.43637      8.77438         0.000000     -0.000000     -3.375828
      0.00000      5.91516      8.77438         0.000000     -0.000000      2.809440
      0.00000      4.43637     12.02537         0.000000      0.000000      0.542830
      9.75297      5.91516     12.02537        -0.000000      0.000000     -0.703803
      9.75297      4.43637     15.27636         0.000000      0.000001      0.713896
      0.00000      5.91516     15.27636         0.000001      0.000000     -0.766443
      0.00000      4.43637     18.45713         0.000001     -0.000001      0.009236
      9.75297      5.91516     18.66062        -0.000001      0.000001     -0.002022
      9.75297      4.43637     22.01205        -0.000005      0.000005      0.001890
      0.00000      5.91516     21.63415         0.000000      0.000003      0.009700
      3.25099      7.39395      8.77438         0.000000      0.000000     -3.375828
      6.50198      8.87274      8.77438        -0.000000     -0.000000      2.809440
      6.50198      7.39395     12.02537        -0.000000     -0.000000      0.542830
      3.25099      8.87274     12.02537        -0.000000     -0.000000     -0.703802
      3.25099      7.39395     15.27636        -0.000000     -0.000004      0.713901
      6.50198      8.87274     15.27636        -0.000001     -0.000001     -0.766442
      6.50198      7.39395     18.45713         0.000001     -0.000001      0.009239
      3.25099      8.87274     18.66062         0.000000      0.000000     -0.002022
      3.25099      7.39395     22.01205         0.000003      0.000001      0.001891
      6.50198      8.87274     21.63415        -0.000001      0.000003      0.009707
      3.25099     10.35153      8.77438        -0.000000     -0.000000     -3.375828
      6.50198      0.00000      8.77438        -0.000000      0.000000      2.809440
      6.50198     10.35153     12.02537        -0.000000     -0.000000      0.542830
      3.25099      0.00000     12.02537        -0.000000     -0.000000     -0.703803
      3.25099     10.35153     15.27636        -0.000000     -0.000002      0.713897
      6.50198      0.00000     15.27636        -0.000000     -0.000000     -0.766442
      6.50198     10.35153     18.45713         0.000000      0.000002      0.009238
      3.25099      0.00000     18.66062        -0.000000      0.000001     -0.002025
      3.25099     10.35153     22.01205         0.000005     -0.000005      0.001894
      6.50198      0.00000     21.63415         0.000002     -0.000006      0.009703
[...]
      6.50198      5.91516     13.29975         0.000000     -0.000000     -0.109885
      4.52537      4.43637     12.02537         0.439833     -0.000000      0.048732
      8.47859      4.43637     12.02537        -0.439833     -0.000000      0.048732
      3.25099      5.91516     14.00198         0.000000     -0.000001     -0.118762
      3.25099      5.91516     16.55075         0.000001     -0.000001      0.017742
      7.77636      4.43637     15.27636        -0.498817     -0.000000      0.098847
      5.22760      4.43637     15.27636         0.498818     -0.000001      0.098846
      6.50198      5.91516     17.27271        -0.000000      0.000000     -0.007955
      6.50198      5.91516     19.82756         0.000000      0.000000      0.002058
      4.55399      4.43637     18.54944        -0.001699      0.000001     -0.001504
      8.44997      4.43637     18.54944         0.001698     -0.000000     -0.001503
      3.25099      5.91516     20.52028         0.000001      0.000000      0.001561
      3.25099      5.91516     23.09493         0.000001     -0.000001      0.000131
      7.72539      4.43637     21.95763        -0.000207     -0.000001     -0.000240
      5.27857      4.43637     21.95763         0.000209     -0.000001     -0.000240
    total drift:                                0.000001      0.000001     -0.037309

  FREE ENERGIE OF THE ION-ELECTRON SYSTEM (eV)
  free  energy   TOTEN  =     -2125.87119601 eV

  energy  without entropy=    -2125.87119601  energy(sigma->0) =    -2125.87119601

 d Force = 0.1419489E-03[ 0.804E-04, 0.203E-03]  d Energy = 0.1277170E-03 0.142E-04
 d Force = 0.2173657E+02[ 0.217E+02, 0.217E+02]  d Ewald  = 0.2173656E+02 0.113E-04

 Conjugate gradient step on ions:
 trial-energy change:   -0.000128  1 .order   -0.000142   -0.000203   -0.000080
  (g-gl).g = 0.292E-03      g.g   = 0.360E-03  gl.gl    = 0.872E-03
 g(Force)  = 0.360E-03   g(Stress)= 0.000E+00 ortho     = 0.810E-05
 gamma     =   0.33499
 trial     =   0.56143
 opt step  =   0.92826  (harmonic =   0.92826) maximal distance =0.00086896
 next E    = -2125.871237   (d E  =  -0.00017)

 reached required accuracy - stopping structural energy minimisation