 vasp.6.4.1 05Apr23 (build Sep 19 2024 10:44:22) complex

 executed on             LinuxIFC date 2024.10.20  04:36:12

 INCAR:
   SYSTEM = TiO2
   ISMEAR = 0
   SIGMA = 0.05
   EDIFF = 1E-7
   ALGO = ALL
   ISTART = 0
   IBRION = 2
   NSW = 1000
   ISYM = 0
   ISIF = 2
   EDIFFG = -0.01
   DIPOL = 0.5 0.5 0.5
   IDIPOL = 3
   LDIPOL = .TRUE.
   GGA = MK
   LUSE_VDW = .TRUE.
   PARAM1 = 0.1234
   PARAM2 = 0.711357
   ZAB_VDW = -1.8867
   AGGAC = 0.0
   ENCUT = 600
   PREC = Accurate
   LASPH = .TRUE.
   LREAL = .FALSE.
   ISPIN = 1
   NELM = 200
   NELMIN = 8
   NCORE = 8
   KPAR = 1
   LWAVE = .FALSE.
   LCHARG = .FALSE.

 POTCAR:    PAW_PBE N 08Apr2002
 POTCAR:    PAW_PBE H 15Jun2001
 POTCAR:    PAW_PBE Ti_pv 07Sep2000
 POTCAR:    PAW_PBE O 08Apr2002
|           W    W    AA    RRRRR   N    N  II  N    N   GGGG   !!!           |
|           W    W   A  A   R    R  NN   N  II  NN   N  G    G  !!!           |
|           W    W  A    A  R    R  N N  N  II  N N  N  G       !!!           |
|           W WW W  AAAAAA  RRRRR   N  N N  II  N  N N  G  GGG   !            |
|           WW  WW  A    A  R   R   N   NN  II  N   NN  G    G                |
|           W    W  A    A  R    R  N    N  II  N    N   GGGG   !!!           |
|     For optimal performance we recommend to set                             |
|       NCORE = 2 up to number-of-cores-per-socket                            |
|     This setting can greatly improve the performance of VASP for DFT.       |
|     The default, NCORE=1 might be grossly inefficient on modern             |
|     multi-core architectures or massively parallel machines. Do your        |
|     Unfortunately you need to use the default for GW and RPA                |
|     calculations (for HF NCORE is supported but not extensively tested      |
|     yet).                                                                   |

   TITEL  = PAW_PBE N 08Apr2002
   POMASS =   14.001; ZVAL   =    5.000    mass and valenz
   ENMAX  =  400.000; ENMIN  =  300.000 eV

   TITEL  = PAW_PBE H 15Jun2001
   POMASS =    1.000; ZVAL   =    1.000    mass and valenz
   ENMAX  =  250.000; ENMIN  =  200.000 eV

   TITEL  = PAW_PBE Ti_pv 07Sep2000
   POMASS =   47.880; ZVAL   =   10.000    mass and valenz
   ENMAX  =  222.335; ENMIN  =  166.751 eV

   TITEL  = PAW_PBE O 08Apr2002
   POMASS =   16.000; ZVAL   =    6.000    mass and valenz
   ENMAX  =  400.000; ENMIN  =  300.000 eV

  PAW_PBE N 08Apr2002                   :
  PAW_PBE H 15Jun2001                   :
  PAW_PBE Ti_pv 07Sep2000               :
  PAW_PBE O 08Apr2002                   :

 POSCAR:  N  H Ti  O
  positions in direct lattice
 exchange correlation table for  LEXCH =       43
   RHO(1)=    0.500       N(1)  =     2000
   RHO(2)=  100.500       N(2)  =     4000

 ion  position               nearest neighbor table
   1  0.610  0.500  0.773-   2 1.02   4 1.02   3 1.02  52 2.30
   2  0.547  0.500  0.801-   1 1.02
   3  0.668  0.428  0.775-   1 1.02
   4  0.668  0.572  0.775-   1 1.02
   5  0.809  0.833  0.295-  89 1.94  55 1.94  57 1.94  56 2.00  54 2.00  22 3.06   6 3.06   8 3.06

   6  0.593  0.667  0.326-  53 1.94 120 1.94  58 1.94  56 1.94  57 2.00  59 2.00  37 3.06   5 3.06
                             7 3.06  11 3.09
   7  0.309  0.667  0.295- 125 1.94  59 1.94  61 1.94  60 2.00  53 2.00  40 3.06   8 3.06   6 3.06

   8  0.093  0.833  0.326-  92 1.94  54 1.94  62 1.94  60 1.94  61 2.00  55 2.00  23 3.06   7 3.06
                             5 3.06   9 3.09
   9  0.946  0.833  0.422-  63 1.93  65 1.94  97 1.94  55 1.98  64 1.99  62 2.00  12 3.01  10 3.06
                            26 3.06   8 3.09
  10  0.727  0.667  0.451-  58 1.90 128 1.94  64 1.94  66 1.97  67 1.98  65 2.01  11 3.01  41 3.06
                             9 3.06  15 3.11
  11  0.446  0.667  0.422-  67 1.93  69 1.94 133 1.94  59 1.98  68 1.99  58 2.00  10 3.01  12 3.06
                            44 3.06   6 3.09
  12  0.227  0.833  0.451-  62 1.90  68 1.94 100 1.94  70 1.97  63 1.98  69 2.01   9 3.01  11 3.06
                            27 3.06  13 3.11
  13  0.086  0.833  0.550-  71 1.93  73 1.94 105 1.94  72 1.98  63 2.00  70 2.01  16 2.96  30 3.06
                            14 3.06  12 3.11
  14  0.865  0.667  0.576-  66 1.87 136 1.94  72 1.94  75 1.95  74 2.00  73 2.02  15 2.96  45 3.06
                            13 3.06
  15  0.586  0.667  0.550-  75 1.93  77 1.94 141 1.94  76 1.98  67 2.00  66 2.01  14 2.96  48 3.06
                            16 3.06  10 3.11
  16  0.365  0.833  0.576-  70 1.87 108 1.94  76 1.94  71 1.95  78 2.00  77 2.02  13 2.96  31 3.06
                            15 3.06
  17  0.233  0.833  0.680-  79 1.86 113 1.94  81 1.94  80 2.00  78 2.09  71 2.09  20 2.85  34 3.08
                            18 3.08
  18  0.004  0.667  0.700-  74 1.79  82 1.83  80 1.98 144 1.98  81 2.05  19 2.85  49 3.08  17 3.08

[...]

  21  0.809  0.167  0.295-  89 1.94  87 1.94 121 1.94  88 2.00  86 2.00  22 3.06  38 3.06  24 3.06

[...]

  37  0.809  0.500  0.295-  57 1.94 121 1.94 119 1.94 120 2.00 118 2.00  38 3.06   6 3.06  40 3.06

  38  0.593  0.333  0.326- 117 1.94 120 1.94 122 1.94  88 1.94 121 2.00 123 2.00  37 3.06  21 3.06
                            39 3.06  43 3.09
  39  0.309  0.333  0.295- 125 1.94 123 1.94  93 1.94 124 2.00 117 2.00  40 3.06  24 3.06  38 3.06

  40  0.093  0.500  0.326-  60 1.94 124 1.94 118 1.94 126 1.94 125 2.00 119 2.00   7 3.06  39 3.06
                            37 3.06  41 3.09
  41  0.946  0.500  0.422- 127 1.93 129 1.94  65 1.94 119 1.98 128 1.99 126 2.00  44 3.01  42 3.06
                            10 3.06  40 3.09
  42  0.727  0.333  0.451- 122 1.90  96 1.94 128 1.94 130 1.97 131 1.98 129 2.01  43 3.01  25 3.06
                            41 3.06  47 3.11
  43  0.446  0.333  0.422- 131 1.93 101 1.94 133 1.94 123 1.98 132 1.99 122 2.00  42 3.01  28 3.06
                            44 3.06  38 3.09
  44  0.227  0.500  0.451- 126 1.90  68 1.94 132 1.94 134 1.97 127 1.98 133 2.01  41 3.01  11 3.06
                            43 3.06  45 3.11
  45  0.086  0.500  0.550- 135 1.93 137 1.94  73 1.94 136 1.98 127 2.00 134 2.01  48 2.96  46 3.06
                            14 3.06  44 3.11
  46  0.865  0.333  0.576- 130 1.87 136 1.94 104 1.94 139 1.95 138 2.00 137 2.02  47 2.96  45 3.06
                            29 3.06
  47  0.586  0.333  0.550- 139 1.93 109 1.94 141 1.94 140 1.98 131 2.00 130 2.01  46 2.96  48 3.06
                            32 3.06  42 3.11
  48  0.365  0.500  0.576- 134 1.87  76 1.94 140 1.94 135 1.95 142 2.00 141 2.02  45 2.96  15 3.06
                            47 3.06
  49  0.233  0.500  0.680- 143 1.86  81 1.94 145 1.94 144 2.00 142 2.09 135 2.09  52 2.85  18 3.08
                            50 3.08
  50  0.004  0.333  0.700- 138 1.79 146 1.83 112 1.98 144 1.98 145 2.05  51 2.85  49 3.08  33 3.08

  51  0.733  0.333  0.680- 146 1.86 148 1.94 116 1.94 147 2.00 138 2.09 139 2.09  50 2.85  52 3.08
                            36 3.08
  52  0.504  0.500  0.700- 142 1.79 143 1.83 147 1.98  83 1.98 148 2.05   1 2.30  49 2.85  19 3.08
                            51 3.08
  53  0.489  0.667  0.268-   6 1.94   7 2.00
  54  0.989  0.833  0.268-   8 1.94   5 2.00
  55  0.913  0.833  0.353-   5 1.94   9 1.98   8 2.00
  56  0.630  0.833  0.321-  22 1.94   6 1.94   5 2.00
  57  0.773  0.667  0.300-  37 1.94   5 1.94   6 2.00
  58  0.625  0.667  0.395-  10 1.90   6 1.94  11 2.00
  59  0.413  0.667  0.353-   7 1.94  11 1.98   6 2.00
  60  0.130  0.667  0.321-  40 1.94   8 1.94   7 2.00
  61  0.273  0.833  0.300-  23 1.94   7 1.94   8 2.00
  62  0.125  0.833  0.395-  12 1.90   8 1.94   9 2.00
  63  0.051  0.833  0.480-   9 1.93  12 1.98  13 2.00
  64  0.765  0.833  0.447-  10 1.94  26 1.94   9 1.99
  65  0.909  0.667  0.427-   9 1.94  41 1.94  10 2.01
  66  0.764  0.667  0.521-  14 1.87  10 1.97  15 2.01
  67  0.551  0.667  0.480-  11 1.93  10 1.98  15 2.00
  68  0.265  0.667  0.447-  12 1.94  44 1.94  11 1.99
  69  0.409  0.833  0.427-  11 1.94  27 1.94  12 2.01
  70  0.264  0.833  0.521-  16 1.87  12 1.97  13 2.01
  71  0.194  0.833  0.607-  13 1.93  16 1.95  17 2.09
  72  0.905  0.833  0.573-  30 1.94  14 1.94  13 1.98
  73  0.050  0.667  0.553-  13 1.94  45 1.94  14 2.02
  74  0.913  0.667  0.646-  18 1.79  14 2.00  19 2.09
  75  0.694  0.667  0.607-  15 1.93  14 1.95  19 2.09
  76  0.405  0.667  0.573-  48 1.94  16 1.94  15 1.98
  77  0.550  0.833  0.553-  31 1.94  15 1.94  16 2.02
  78  0.413  0.833  0.646-  20 1.79  16 2.00  17 2.09
  79  0.348  0.833  0.731-  20 1.83  17 1.86
  80  0.054  0.833  0.708-  34 1.98  18 1.98  17 2.00
  81  0.196  0.667  0.680-  49 1.94  17 1.94  18 2.05
  82  0.848  0.667  0.731-  18 1.83  19 1.86
  83  0.554  0.667  0.708-  52 1.98  20 1.98  19 2.00
  84  0.696  0.833  0.680-  35 1.94  19 1.94  20 2.05
  85  0.489  0.000  0.268-  22 1.94  23 2.00
  86  0.989  0.167  0.268-  24 1.94  21 2.00
  87  0.913  0.167  0.353-  21 1.94  25 1.98  24 2.00
  88  0.630  0.167  0.321-  22 1.94  38 1.94  21 2.00
  89  0.773  0.000  0.300-   5 1.94  21 1.94  22 2.00
  90  0.625  0.000  0.395-  26 1.90  22 1.94  27 2.00
  91  0.413  0.000  0.353-  23 1.94  27 1.98  22 2.00
  92  0.130  0.000  0.321-   8 1.94  24 1.94  23 2.00
  93  0.273  0.167  0.300-  23 1.94  39 1.94  24 2.00
  94  0.125  0.167  0.395-  28 1.90  24 1.94  25 2.00
  95  0.051  0.167  0.480-  25 1.93  28 1.98  29 2.00
  96  0.765  0.167  0.447-  42 1.94  26 1.94  25 1.99
  97  0.909  1.000  0.427-   9 1.94  25 1.94  26 2.01
  98  0.764  1.000  0.521-  30 1.87  26 1.97  31 2.01
  99  0.551  1.000  0.480-  27 1.93  26 1.98  31 2.00
 100  0.265  0.000  0.447-  28 1.94  12 1.94  27 1.99
 101  0.409  0.167  0.427-  43 1.94  27 1.94  28 2.01
 102  0.264  0.167  0.521-  32 1.87  28 1.97  29 2.01
 103  0.194  0.167  0.607-  29 1.93  32 1.95  33 2.09
 104  0.905  0.167  0.573-  30 1.94  46 1.94  29 1.98
 105  0.050  1.000  0.553-  13 1.94  29 1.94  30 2.02
 106  0.913  1.000  0.646-  34 1.79  30 2.00  35 2.09
 107  0.694  1.000  0.607-  31 1.93  30 1.95  35 2.09
 108  0.405  0.000  0.573-  32 1.94  16 1.94  31 1.98
 109  0.550  0.167  0.553-  47 1.94  31 1.94  32 2.02
 110  0.413  0.167  0.646-  36 1.79  32 2.00  33 2.09
 111  0.348  0.167  0.731-  36 1.83  33 1.86
 112  0.054  0.167  0.708-  34 1.98  50 1.98  33 2.00
[...]
 134  0.264  0.500  0.521-  48 1.87  44 1.97  45 2.01
 135  0.194  0.500  0.607-  45 1.93  48 1.95  49 2.09
 136  0.905  0.500  0.573-  14 1.94  46 1.94  45 1.98
 137  0.050  0.333  0.553-  45 1.94  29 1.94  46 2.02
 138  0.913  0.333  0.646-  50 1.79  46 2.00  51 2.09
 139  0.694  0.333  0.607-  47 1.93  46 1.95  51 2.09
 140  0.405  0.333  0.573-  48 1.94  32 1.94  47 1.98
 141  0.550  0.500  0.553-  47 1.94  15 1.94  48 2.02
 142  0.413  0.500  0.646-  52 1.79  48 2.00  49 2.09
 143  0.348  0.500  0.731-  52 1.83  49 1.86
 144  0.054  0.500  0.708-  18 1.98  50 1.98  49 2.00
 145  0.196  0.333  0.680-  49 1.94  33 1.94  50 2.05
 146  0.848  0.333  0.731-  50 1.83  51 1.86
 147  0.554  0.333  0.708-  52 1.98  36 1.98  51 2.00
 148  0.696  0.500  0.680-  19 1.94  51 1.94  52 2.05

IMPORTANT INFORMATION: All symmetrisations will be switched off!
[...]
   3.58931857  5.69657559 20.43884688
   0.56065425  5.69657531 19.78108917
   2.02032520  3.79771762 19.01457388
   8.74662823  3.79771687 20.43884267
   5.71794603  3.79771684 19.78108842
   7.17761928  5.69657661 19.01457383

--------------------------------------- Iteration      FINAL  ---------------------------------------

--------------------OUTCAR has been truncated-------------------------

[...]

--------------------OUTCAR has been truncated-------------------------

  FORCE on cell =-STRESS in cart. coord.  units (eV):
  Direction    XX          YY          ZZ          XY          YZ          ZX
  Alpha Z  2425.63557  2425.63557  2425.63557
  Ewald  483937.19355477172.20746************     0.00814    -0.00111 -1889.98594
  Hartree505110.89719501006.43584************     0.00165    -0.00050 -1255.06026
  E(xc)   -5188.73811 -5189.47009 -5188.21015     0.00002    -0.00001    -0.41835
  Local  ************************998008.19254    -0.00725     0.00137  3144.25347
  n-local -3321.31972 -3291.59119 -3332.85244    -0.00028    -0.00000     1.84374
  augment  3150.21323  3146.80902  3140.06535    -0.00003     0.00001    -0.51839
  Kinetic 17124.15579 17181.00669 17241.45458    -0.00044     0.00051    -9.38143
  Fock        0.00000     0.00000     0.00000     0.00000     0.00000     0.00000
  Total     -46.32938   -18.08236   -14.13438     0.00181     0.00027    -9.26717
  in kB     -22.60292    -8.82192    -6.89580     0.00088     0.00013    -4.52122

 VOLUME and BASIS-vectors are now :
  energy-cutoff  :      600.00
  volume of cell :     3283.99
      direct lattice vectors                 reciprocal lattice vectors
    10.314592520  0.000000000  0.000000000     0.096950025 -0.000000000  0.000000000
     0.000000000 11.393151181  0.000000000     0.000000000  0.087772029  0.000000000
     0.000000000  0.000000000 27.945155206     0.000000000  0.000000000  0.035784378

  length of vectors
    10.314592520 11.393151181 27.945155206     0.096950025  0.087772029  0.035784378

 FORCES acting on ions:
    Electron-Ion                     Ewald-Force                    Non-Local-Force
   -.167E+02 0.340E-02 -.175E+04   0.740E+01 -.600E-02 0.173E+04   0.934E+01 -.924E-03 0.178E+02
   0.430E+02 0.266E-02 -.370E+03   -.478E+02 -.280E-02 0.375E+03   0.480E+01 0.345E-03 -.549E+01
   -.419E+02 0.545E+02 -.353E+03   0.462E+02 -.604E+02 0.354E+03   -.432E+01 0.585E+01 -.389E+00
   -.419E+02 -.545E+02 -.353E+03   0.462E+02 0.604E+02 0.354E+03   -.433E+01 -.585E+01 -.389E+00
   0.573E+01 -.652E-02 0.335E+04   -.939E+00 0.603E-02 -.334E+04   -.102E+01 0.416E-04 -.314E+01
   0.476E+01 -.134E+00 0.275E+04   -.626E+01 0.135E+00 -.276E+04   -.121E+00 -.945E-03 -.991E-01
   0.572E+01 0.137E+00 0.335E+04   -.952E+00 -.143E+00 -.334E+04   -.101E+01 0.158E-02 -.313E+01
   0.352E+01 0.986E-01 0.275E+04   -.506E+01 -.107E+00 -.276E+04   -.114E+00 0.162E-02 -.103E+00
   -.414E+00 0.230E+00 0.126E+04   0.250E+00 -.230E+00 -.126E+04   0.162E+00 -.854E-03 0.194E-01
   0.952E+00 -.161E+01 0.797E+03   -.897E+00 0.160E+01 -.797E+03   -.418E-01 0.177E-01 -.147E+00
   0.114E+01 -.322E+00 0.126E+04   -.129E+01 0.318E+00 -.126E+04   0.157E+00 0.765E-02 0.191E-02
   -.428E+01 0.188E+00 0.791E+03   0.433E+01 -.193E+00 -.790E+03   -.273E-01 0.254E-02 -.154E+00
   -.585E+01 -.235E+01 -.775E+03   0.556E+01 0.233E+01 0.775E+03   0.289E+00 0.991E-02 0.134E+00
   -.887E+01 -.452E+01 -.116E+04   0.902E+01 0.453E+01 0.116E+04   -.102E+00 -.488E-02 -.248E+00
   0.622E+00 -.193E+01 -.752E+03   -.868E+00 0.192E+01 0.751E+03   0.255E+00 0.603E-02 0.103E+00
   0.373E+00 -.104E+01 -.118E+04   -.218E+00 0.106E+01 0.118E+04   -.108E+00 -.141E-01 -.301E+00
   0.278E+02 -.110E+02 -.277E+04   -.288E+02 0.110E+02 0.277E+04   0.962E+00 0.506E-02 -.412E-01
   -.848E+02 -.206E+02 -.315E+04   0.851E+02 0.205E+02 0.315E+04   -.125E+00 0.130E+00 0.652E+00
   -.102E+02 -.392E+02 -.269E+04   0.930E+01 0.392E+02 0.269E+04   0.880E+00 -.240E-01 0.755E-01
   -.595E+02 -.334E+02 -.315E+04   0.598E+02 0.333E+02 0.315E+04   -.802E-01 0.371E-01 0.668E+00
   0.573E+01 0.652E-02 0.335E+04   -.939E+00 -.602E-02 -.334E+04   -.102E+01 -.417E-04 -.314E+01
   0.478E+01 -.818E-05 0.275E+04   -.630E+01 0.827E-05 -.276E+04   -.115E+00 -.347E-07 -.104E+00
   0.561E+01 -.362E-05 0.335E+04   -.819E+00 0.359E-05 -.334E+04   -.102E+01 -.204E-07 -.314E+01
   0.352E+01 -.986E-01 0.275E+04   -.506E+01 0.107E+00 -.276E+04   -.114E+00 -.162E-02 -.103E+00
   -.414E+00 -.230E+00 0.126E+04   0.250E+00 0.230E+00 -.126E+04   0.162E+00 0.854E-03 0.194E-01
   -.109E+01 -.226E-04 0.794E+03   0.113E+01 0.223E-04 -.794E+03   -.144E-01 0.287E-07 -.156E+00
   0.113E+01 -.269E-04 0.126E+04   -.128E+01 0.273E-04 -.126E+04   0.155E+00 -.160E-06 0.608E-02
   -.428E+01 -.188E+00 0.791E+03   0.433E+01 0.193E+00 -.790E+03   -.273E-01 -.254E-02 -.154E+00
   -.585E+01 0.235E+01 -.775E+03   0.556E+01 -.233E+01 0.775E+03   0.289E+00 -.991E-02 0.134E+00
   -.815E+01 0.443E-04 -.118E+04   0.829E+01 -.482E-04 0.118E+04   -.850E-01 0.474E-06 -.262E+00
   -.374E+01 0.102E-04 -.767E+03   0.345E+01 -.127E-04 0.767E+03   0.295E+00 0.525E-06 0.168E+00
   0.373E+00 0.104E+01 -.118E+04   -.218E+00 -.106E+01 0.118E+04   -.108E+00 0.141E-01 -.301E+00
   0.278E+02 0.110E+02 -.277E+04   -.288E+02 -.110E+02 0.277E+04   0.962E+00 -.506E-02 -.412E-01
   -.740E+02 -.156E-03 -.317E+04   0.744E+02 0.143E-03 0.317E+04   -.153E+00 0.313E-05 0.666E+00
   0.116E+02 -.222E-03 -.277E+04   -.126E+02 0.189E-03 0.277E+04   0.909E+00 0.486E-05 0.370E-02
   -.595E+02 0.334E+02 -.315E+04   0.598E+02 -.333E+02 0.315E+04   -.802E-01 -.371E-01 0.668E+00
   0.574E+01 0.628E-05 0.335E+04   -.924E+00 -.623E-05 -.334E+04   -.102E+01 -.389E-07 -.313E+01
   0.476E+01 0.134E+00 0.275E+04   -.626E+01 -.135E+00 -.276E+04   -.121E+00 0.945E-03 -.991E-01
   0.572E+01 -.137E+00 0.335E+04   -.952E+00 0.143E+00 -.334E+04   -.101E+01 -.158E-02 -.313E+01
   0.265E+01 0.257E-05 0.275E+04   -.414E+01 -.231E-05 -.276E+04   -.130E+00 -.132E-06 -.102E+00
   0.176E+01 0.170E-04 0.126E+04   -.192E+01 -.160E-04 -.126E+04   0.150E+00 0.171E-06 0.449E-01
   0.952E+00 0.161E+01 0.797E+03   -.897E+00 -.160E+01 -.797E+03   -.418E-01 -.177E-01 -.147E+00
   0.114E+01 0.322E+00 0.126E+04   -.129E+01 -.318E+00 -.126E+04   0.157E+00 -.765E-02 0.191E-02
   -.773E+01 -.520E-05 0.773E+03   0.780E+01 0.553E-05 -.773E+03   -.398E-01 -.208E-06 -.637E-01
   -.199E+01 0.149E-04 -.777E+03   0.175E+01 -.121E-04 0.777E+03   0.225E+00 -.493E-06 0.142E+00
   -.887E+01 0.452E+01 -.116E+04   0.902E+01 -.453E+01 0.116E+04   -.102E+00 0.488E-02 -.248E+00
   0.622E+00 0.193E+01 -.752E+03   -.868E+00 -.192E+01 0.751E+03   0.255E+00 -.603E-02 0.103E+00
   -.169E+00 0.484E-04 -.122E+04   0.309E+00 -.425E-04 0.123E+04   -.101E+00 -.186E-05 -.200E+00
   0.470E+02 0.491E-03 -.277E+04   -.478E+02 -.482E-03 0.277E+04   0.701E+00 -.120E-05 0.625E-01
   -.848E+02 0.206E+02 -.315E+04   0.852E+02 -.205E+02 0.315E+04   -.125E+00 -.130E+00 0.652E+00
   -.102E+02 0.392E+02 -.269E+04   0.929E+01 -.392E+02 0.269E+04   0.880E+00 0.240E-01 0.755E-01
   0.145E+02 0.264E-02 -.310E+04   -.138E+02 -.253E-02 0.310E+04   -.586E+00 -.507E-04 -.417E+00
   -.327E+02 -.229E-01 0.226E+04   0.374E+02 0.226E-01 -.228E+04   -.649E+01 0.561E-03 0.170E+02
   -.330E+02 -.163E-01 0.226E+04   0.377E+02 0.142E-01 -.228E+04   -.649E+01 0.267E-02 0.170E+02
   0.817E+02 0.122E+00 0.137E+04   -.863E+02 -.122E+00 -.137E+04   0.368E+01 -.197E-02 -.434E+01
   0.749E+02 0.404E-02 0.168E+04   -.817E+02 -.330E-02 -.167E+04   0.715E+01 -.126E-02 -.257E+01
   -.863E+02 -.403E-01 0.193E+04   0.933E+02 0.382E-01 -.193E+04   -.678E+01 0.430E-02 -.111E+00
   -.698E+02 -.819E+00 0.105E+04   0.753E+02 0.871E+00 -.106E+04   -.558E+01 -.488E-01 0.412E+01
   0.823E+02 0.456E-01 0.137E+04   -.869E+02 -.252E-01 -.137E+04   0.366E+01 -.218E-01 -.421E+01
   0.740E+02 0.117E+00 0.168E+04   -.808E+02 -.126E+00 -.167E+04   0.717E+01 0.221E-01 -.259E+01
[...]
   0.874E+02 0.301E-04 -.107E+04   -.941E+02 -.294E-04 0.108E+04   0.673E+01 -.105E-05 -.737E+01
   0.712E+02 0.921E-04 -.707E+03   -.770E+02 -.988E-04 0.710E+03   0.584E+01 0.229E-05 -.287E+01
   -.823E+02 0.483E+00 -.456E+03   0.885E+02 -.474E+00 0.454E+03   -.623E+01 -.601E-02 0.268E+01
   -.665E+02 0.981E+01 -.127E+04   0.687E+02 -.101E+02 0.126E+04   -.215E+01 0.326E+00 0.945E+01
   0.810E+02 0.884E+01 -.104E+04   -.872E+02 -.912E+01 0.104E+04   0.619E+01 0.283E+00 -.565E+01
   0.807E+02 0.607E+00 -.721E+03   -.870E+02 -.612E+00 0.724E+03   0.632E+01 0.409E-02 -.306E+01
   -.734E+02 -.533E-04 -.461E+03   0.793E+02 0.619E-04 0.459E+03   -.588E+01 -.983E-05 0.229E+01
   -.619E+02 0.994E-04 -.130E+04   0.675E+02 -.965E-04 0.130E+04   -.561E+01 -.589E-06 0.575E+01
   0.107E+03 0.529E-03 -.225E+04   -.112E+03 -.465E-03 0.227E+04   0.554E+01 -.802E-04 -.201E+02
   0.479E+02 0.326E-03 -.199E+04   -.516E+02 -.336E-03 0.200E+04   0.369E+01 -.219E-05 -.711E+01
   -.515E+02 0.636E+01 -.165E+04   0.564E+02 -.619E+01 0.165E+04   -.494E+01 -.174E+00 0.275E+01
   0.114E+02 0.299E+02 -.225E+04   -.165E+02 -.297E+02 0.227E+04   0.515E+01 -.142E+00 -.194E+02
   0.790E+02 0.459E+02 -.193E+04   -.840E+02 -.455E+02 0.194E+04   0.503E+01 -.389E+00 -.622E+01
   -.708E+02 0.812E-03 -.156E+04   0.753E+02 -.822E-03 0.155E+04   -.444E+01 -.187E-04 0.416E+01
   -.138E+02 0.224E-02 0.538E+02   0.313E-12 0.135E-11 0.159E-11   0.138E+02 -.225E-02 -.538E+02

 POSITION                                       TOTAL-FORCE (eV/Angst)
      6.30347      5.69662     21.73600         0.003208     -0.003527      0.000446
      5.64728      5.69657     22.52123        -0.005431      0.000200      0.005378
      6.91229      4.87372     21.81460        -0.006446      0.003231      0.001464
      6.91227      6.51940     21.81459        -0.004251      0.000017      0.001932
      8.34884      9.49429      8.23481         3.802624     -0.000452      1.704938
      6.11976      7.59543      9.11755        -1.625021     -0.000021     -1.941454
      3.19154      7.59543      8.23481         3.775577     -0.004407      1.691131
      0.96247      9.49429      9.11755        -1.653812     -0.006578     -1.947178
      9.75729      9.49461     11.80406        -0.000166      0.000053      0.000458
      7.50600      7.59080     12.60622        -0.002115      0.000625     -0.001507
      4.59501      7.59241     11.80074         0.000250      0.001019      0.002167
      2.34102      9.49380     12.61455        -0.002866     -0.002739     -0.001711
      0.89461      9.49559     15.37133        -0.002001     -0.001991      0.000282
      8.93387      7.58897     16.07839         0.002087     -0.000084      0.002107
      6.04001      7.59220     15.35161         0.002311     -0.000831     -0.000181
      3.76570      9.49435     16.10206        -0.002707      0.001773      0.003667
      2.39636      9.48717     19.00792        -0.002100      0.003700      0.004213
      0.02433      7.58423     19.55417         0.000181     -0.001556      0.003625
      7.53916      7.59493     18.93717         0.001019      0.000691      0.001788
      5.20156      9.50926     19.55011        -0.001722      0.000288     -0.000930
      8.34884      1.89886      8.23481         3.802624      0.000452      1.704938
      6.11976      0.00000      9.11755        -1.641853      0.000000     -1.945429
      3.19154      0.00000      8.23481         3.794862     -0.000000      1.699725
      0.96247      1.89886      9.11755        -1.653812      0.006578     -1.947179
      9.75729      1.89854     11.80406        -0.000164     -0.000053      0.000457
      7.50229     -0.00000     12.60773        -0.000734     -0.000000      0.003247
      4.59716     -0.00000     11.80388         0.001385      0.000000     -0.000877
      2.34102      1.89935     12.61455        -0.002865      0.002739     -0.001710
      0.89461      1.89756     15.37133        -0.001996      0.001988      0.000279
      8.92236     -0.00000     16.09102        -0.000081     -0.000003      0.001723
      6.04632     -0.00000     15.36074         0.002982     -0.000002      0.001755
      3.76570      1.89880     16.10206        -0.002711     -0.001776      0.003658
      2.39636      1.90598     19.00792        -0.002107     -0.003708      0.004202
      0.04544      0.00000     19.55582        -0.000759     -0.000010      0.000727
      7.56866      0.00000     18.99198         0.006320     -0.000028     -0.002357
      5.20156      1.88389     19.55011        -0.001757     -0.000342     -0.000946
      8.34884      5.69658      8.23481         3.816561      0.000000      1.702406
      6.11976      3.79772      9.11755        -1.625020      0.000021     -1.941452
      3.19154      3.79772      8.23481         3.775577      0.004407      1.691130
      0.96247      5.69658      9.11755        -1.626381      0.000000     -1.872030
      9.77237      5.69658     11.79937         0.001008      0.000001     -0.003286
      7.50600      3.80235     12.60622        -0.002115     -0.000624     -0.001510
      4.59501      3.80074     11.80074         0.000251     -0.001020      0.002168
      2.34355      5.69658     12.64511         0.001036      0.000000      0.000446
      0.92493      5.69658     15.37763         0.000808      0.000002      0.004105
      8.93387      3.80418     16.07839         0.002087      0.000089      0.002092
      6.04001      3.80095     15.35161         0.002308      0.000833     -0.000191
      3.78263      5.69658     16.19291         0.000163      0.000004     -0.003883
      2.43467      5.69658     19.02831         0.000933      0.000008      0.006768
      0.02433      3.80892     19.55418         0.000232      0.001569      0.003607
      7.53915      3.79822     18.93717         0.001033     -0.000662      0.001751
      5.23680      5.69658     19.71844         0.000799      0.000059      0.000381
      5.04710      7.59543      7.50000        -1.771079      0.000242      1.098553
     10.20440      9.49429      7.50000        -1.767589      0.000619      1.094961
      9.42150      9.49429      9.85236        -0.965658     -0.001934     -0.185522
      6.49329      9.49429      8.96963         0.363656     -0.000527     -0.059507
      7.97532      7.59543      8.38273         0.253178      0.002150     -1.037970
      6.44538      7.59543     11.03093        -0.076653      0.003480      0.374831
      4.26421      7.59543      9.85236        -0.971366     -0.001380     -0.173855
      1.33599      7.59543      8.96963         0.373760      0.012971     -0.067706
[...]
      2.73496      5.69658     14.57627         0.000191     -0.000000      0.000852
      1.99616      5.69658     16.97198         0.000499     -0.000000      0.000277
      9.33773      5.69658     16.01160        -0.002927     -0.000004      0.000748
      0.52900      3.79901     15.45474        -0.000104      0.002118      0.001244
      9.42183      3.79259     18.02387        -0.000152      0.001619      0.001720
      7.16963      3.78565     16.92841         0.000676      0.001965     -0.000959
      4.18355      3.79871     16.04589         0.000200     -0.001611     -0.000781
      5.68059      5.69658     15.47798        -0.002339     -0.000001      0.000817
      4.25139      5.69658     18.11114        -0.000866      0.000002     -0.000746
      3.57131      5.69658     20.49890        -0.002490     -0.000016      0.001627
      0.54619      5.69658     19.78137        -0.006188     -0.000013      0.005607
      2.01629      3.80086     19.03415         0.000738     -0.000636      0.000209
      8.71217      3.82971     20.41337         0.000207      0.000091      0.001708
      5.71830      3.76942     19.74754        -0.002984      0.000775      0.000789
      7.15329      5.69658     18.95114         0.001955     -0.000028     -0.002012
    total drift:                               -0.006452     -0.000006      0.000733

  FREE ENERGIE OF THE ION-ELECTRON SYSTEM (eV)
  free  energy   TOTEN  =     -1063.23278324 eV

  energy  without entropy=    -1063.23278324  energy(sigma->0) =    -1063.23278324

 d Force = 0.5799979E-04[ 0.295E-04, 0.865E-04]  d Energy = 0.5734517E-04 0.655E-06
 d Force = 0.1271234E+02[ 0.127E+02, 0.127E+02]  d Ewald  = 0.1271234E+02 0.475E-06

 Conjugate gradient step on ions:
 trial-energy change:   -0.000057  1 .order   -0.000058   -0.000086   -0.000030
  (g-gl).g = 0.131E-03      g.g   = 0.121E-03  gl.gl    = 0.283E-03
 g(Force)  = 0.121E-03   g(Stress)= 0.000E+00 ortho     = 0.137E-05
 gamma     =   0.46196
 trial     =   0.71291
 opt step  =   1.12848  (harmonic =   1.08308) maximal distance =0.00127112
 next E    = -1063.232792   (d E  =  -0.00007)

 reached required accuracy - stopping structural energy minimisation