 vasp.6.3.0 20Jan22 (build Aug 21 2024 11:13:42) complex
 executed on        HPECrayEX_GCC date 2024.11.27  08:56:04

 INCAR:
   SYSTEM = TiO2
   ISMEAR = 0
   SIGMA = 0.05
   EDIFF = 1E-4
   ALGO = ALL
   ISTART = 0
   IBRION = -1
   NSW = 0
   ISYM = 0
   ISIF = 2
   EDIFFG = -0.01
   DIPOL = 0.5 0.5 0.5
   IDIPOL = 3
   LDIPOL = .TRUE.
   LHFCALC = .TRUE.
   HFSCREEN = 0.2
   GGA = PE
   IVDW = 13
   VDW_S8 = 1.19528249
   VDW_A1 = 0.38663183
   VDW_A2 = 5.19133469
   ENCUT = 520
   PREC = Normal
   PRECFOCK = Fast
   LASPH = .TRUE.
   LREAL = .FALSE.
   ISPIN = 1
   NKREDX = 3
   NKREDY = 3
   NELM = 200
   NELMIN = 8
   NCORE = 16
   KPAR = 1
   LWAVE = .FALSE.
   LCHARG = .FALSE.

 POTCAR:    PAW_PBE N 08Apr2002
 POTCAR:    PAW_PBE H 15Jun2001
 POTCAR:    PAW_PBE Ti 08Apr2002
 POTCAR:    PAW_PBE O 08Apr2002
 POTCAR:    PAW_PBE N 08Apr2002
   VRHFIN =N: s2p3

   TITEL  = PAW_PBE N 08Apr2002
   POMASS =   14.001; ZVAL   =    5.000    mass and valenz
   ENMAX  =  400.000; ENMIN  =  300.000 eV

   TITEL  = PAW_PBE H 15Jun2001
   POMASS =    1.000; ZVAL   =    1.000    mass and valenz
   ENMAX  =  250.000; ENMIN  =  200.000 eV

[...]

   TITEL  = PAW_PBE O 08Apr2002
   POMASS =   16.000; ZVAL   =    6.000    mass and valenz
   ENMAX  =  400.000; ENMIN  =  300.000 eV

  PAW_PBE N 08Apr2002                   :
  PAW_PBE H 15Jun2001                   :
  PAW_PBE Ti 08Apr2002                  :
  PAW_PBE O 08Apr2002                   :

 POSCAR:  N  H Ti  O
  positions in direct lattice
 WARNING: Using user supplied parameters
     VDW_S8 = 1.195
     VDW_A1 = 0.387
     VDW_A2 = 5.191
     because the xc functional is not supported. Required parameters not
     defined in the INCAR file will be replaced with PBE defaults ones.

 ion  position               nearest neighbor table
   1  0.614  0.500  0.812-   2 1.01   3 1.02   4 1.02  52 2.25
   2  0.550  0.500  0.843-   1 1.01
   3  0.672  0.428  0.814-   1 1.02
   4  0.672  0.572  0.814-   1 1.02
   5  0.815  0.833  0.271-  89 1.92  55 1.92  57 1.92  54 1.97  56 1.97  22 3.03   8 3.03   6 3.03

   6  0.598  0.667  0.306- 120 1.92  53 1.92  56 1.92  58 1.92  57 1.97  59 1.97  37 3.03   7 3.03
                             5 3.03  11 3.06
   7  0.315  0.667  0.271- 125 1.92  59 1.92  61 1.92  53 1.97  60 1.97  40 3.03   6 3.03   8 3.03

   8  0.098  0.833  0.306-  92 1.92  54 1.92  60 1.92  62 1.92  55 1.97  61 1.97  23 3.03   5 3.03
                             7 3.03   9 3.06
   9  0.950  0.833  0.414-  97 1.92  65 1.92  63 1.92  55 1.96  64 1.97  62 1.97  12 2.99  10 3.04
                            26 3.04   8 3.06
  10  0.731  0.666  0.446-  58 1.89 128 1.92  64 1.92  66 1.95  67 1.97  65 1.98  11 3.00   9 3.04
                            41 3.04  15 3.08
  11  0.450  0.666  0.413- 133 1.92  69 1.92  67 1.92  59 1.96  68 1.97  58 1.98  10 3.00  12 3.04
                            44 3.04   6 3.06
  12  0.230  0.833  0.447-  62 1.90 100 1.92  68 1.92  70 1.95  63 1.96  69 1.99   9 2.99  27 3.04
                            11 3.04  13 3.08
  13  0.091  0.833  0.556- 105 1.92  73 1.92  71 1.92  72 1.97  70 1.97  63 1.99  16 2.94  14 3.03
                            30 3.04  12 3.08
  14  0.870  0.666  0.585-  66 1.87 136 1.92  72 1.93  75 1.94  74 1.99  73 1.99  15 2.96  13 3.03
                            45 3.05  19 3.14
  15  0.590  0.666  0.556- 141 1.91  77 1.92  75 1.93  67 1.97  76 1.97  66 1.98  14 2.96  16 3.04
                            48 3.05  10 3.08
  16  0.368  0.833  0.586-  70 1.87 108 1.92  76 1.92  71 1.94  78 1.98  77 1.99  13 2.94  15 3.04
                            31 3.04  17 3.17
  17  0.236  0.833  0.702-  79 1.86  81 1.92 113 1.92  80 2.00  78 2.05  71 2.07  20 2.84  34 3.06
                            18 3.07  16 3.17
  18  0.006  0.666  0.725-  74 1.79  82 1.83 144 1.95  80 1.97  81 2.03  19 2.85  17 3.07  49 3.09

[...]

  21  0.815  0.167  0.271-  89 1.92  87 1.92 121 1.92  86 1.97  88 1.97  22 3.03  24 3.03  38 3.03

[...]

  37  0.815  0.500  0.271-  57 1.92 121 1.92 119 1.92 118 1.97 120 1.97  38 3.03   6 3.03  40 3.03

  38  0.598  0.333  0.306- 120 1.92 117 1.92  88 1.92 122 1.92 121 1.97 123 1.97  37 3.03  39 3.03
                            21 3.03  43 3.06
  39  0.315  0.333  0.271- 125 1.92 123 1.92  93 1.92 117 1.97 124 1.97  40 3.03  38 3.03  24 3.03

  40  0.098  0.500  0.306-  60 1.92 124 1.92 118 1.92 126 1.92 119 1.97 125 1.97   7 3.03  39 3.03
                            37 3.03  41 3.05
  41  0.952  0.500  0.413- 129 1.92  65 1.92 127 1.92 119 1.96 126 1.96 128 1.98  44 2.99  10 3.04
                            42 3.04  40 3.05
  42  0.731  0.334  0.446- 122 1.89 128 1.92  96 1.92 130 1.95 131 1.97 129 1.98  43 3.00  25 3.04
                            41 3.04  47 3.08
  43  0.450  0.334  0.413- 133 1.92 101 1.92 131 1.92 123 1.96 132 1.97 122 1.98  42 3.00  28 3.04
                            44 3.04  38 3.06
  44  0.231  0.500  0.448- 126 1.92 132 1.92  68 1.92 127 1.94 134 1.96 133 1.99  41 2.99  11 3.04
                            43 3.04  45 3.05
  45  0.093  0.500  0.557- 135 1.91 137 1.92  73 1.92 134 1.95 136 1.99 127 1.99  48 2.95  14 3.05
                            46 3.05  44 3.05
  46  0.870  0.334  0.585- 130 1.87 136 1.92 104 1.93 139 1.94 138 1.99 137 1.99  47 2.96  29 3.03
                            45 3.05  51 3.14
  47  0.590  0.334  0.556- 141 1.91 109 1.92 139 1.93 131 1.97 140 1.97 130 1.98  46 2.96  32 3.04
                            48 3.05  42 3.08
  48  0.370  0.500  0.590- 134 1.92 140 1.92  76 1.92 135 1.93 142 1.96 141 2.01  45 2.95  15 3.05
                            47 3.05  49 3.10
  49  0.240  0.500  0.703- 143 1.85  81 1.92 145 1.92 142 2.00 144 2.03 135 2.08  52 2.87  50 3.09
                            18 3.09  48 3.10
  50  0.006  0.334  0.725- 138 1.79 146 1.83 144 1.95 112 1.97 145 2.03  51 2.85  33 3.07  49 3.09

  51  0.735  0.333  0.699- 146 1.88 148 1.92 116 1.92 147 1.99 139 2.02 138 2.05  50 2.85  36 3.06
                            52 3.07  46 3.14
  52  0.511  0.500  0.732- 143 1.83 142 1.89  83 1.97 147 1.97 148 2.04   1 2.25  49 2.87  51 3.07
                            19 3.07
  53  0.494  0.667  0.242-   6 1.92   7 1.97
  54  0.994  0.833  0.242-   8 1.92   5 1.97
  55  0.919  0.833  0.336-   5 1.92   9 1.96   8 1.97
  56  0.636  0.833  0.300-  22 1.92   6 1.92   5 1.97
  57  0.778  0.667  0.277-  37 1.92   5 1.92   6 1.97
  58  0.628  0.667  0.383-  10 1.89   6 1.92  11 1.98
  59  0.419  0.667  0.336-   7 1.92  11 1.96   6 1.97
  60  0.136  0.667  0.300-  40 1.92   8 1.92   7 1.97
  61  0.278  0.833  0.277-  23 1.92   7 1.92   8 1.97
  62  0.128  0.833  0.383-  12 1.90   8 1.92   9 1.97
  63  0.055  0.834  0.478-   9 1.92  12 1.96  13 1.99
  64  0.770  0.833  0.441-  26 1.92  10 1.92   9 1.97
  65  0.913  0.667  0.419-   9 1.92  41 1.92  10 1.98
  66  0.766  0.666  0.523-  14 1.87  10 1.95  15 1.98
  67  0.555  0.666  0.478-  11 1.92  15 1.97  10 1.97
  68  0.270  0.667  0.442-  44 1.92  12 1.92  11 1.97
  69  0.412  0.833  0.419-  27 1.92  11 1.92  12 1.99
  70  0.267  0.833  0.524-  16 1.87  12 1.95  13 1.97
  71  0.198  0.833  0.620-  13 1.92  16 1.94  17 2.07
  72  0.909  0.833  0.582-  30 1.92  14 1.93  13 1.97
  73  0.054  0.667  0.560-  13 1.92  45 1.92  14 1.99
  74  0.915  0.667  0.663-  18 1.79  14 1.99  19 2.05
  75  0.699  0.668  0.619-  15 1.93  14 1.94  19 2.02
  76  0.410  0.667  0.584-  16 1.92  48 1.92  15 1.97
  77  0.553  0.833  0.560-  31 1.92  15 1.92  16 1.99
  78  0.413  0.836  0.664-  20 1.79  16 1.98  17 2.05
  79  0.351  0.833  0.760-  20 1.83  17 1.86
  80  0.057  0.833  0.734-  34 1.96  18 1.97  17 2.00
  81  0.197  0.666  0.704-  17 1.92  49 1.92  18 2.03
  82  0.847  0.664  0.759-  18 1.83  19 1.88
  83  0.558  0.669  0.733-  20 1.94  52 1.97  19 1.99
  84  0.697  0.834  0.701-  35 1.91  19 1.92  20 2.03
  85  0.494  0.000  0.242-  22 1.92  23 1.97
  86  0.994  0.167  0.242-  24 1.92  21 1.97
  87  0.919  0.167  0.336-  21 1.92  25 1.96  24 1.97
  88  0.636  0.167  0.300-  22 1.92  38 1.92  21 1.97
  89  0.778  0.000  0.277-   5 1.92  21 1.92  22 1.97
  90  0.628  0.000  0.383-  26 1.89  22 1.92  27 1.98
  91  0.419  0.000  0.336-  23 1.92  27 1.96  22 1.97
  92  0.136  0.000  0.300-   8 1.92  24 1.92  23 1.97
  93  0.278  0.167  0.277-  23 1.92  39 1.92  24 1.97
  94  0.128  0.167  0.383-  28 1.90  24 1.92  25 1.97
  95  0.055  0.166  0.478-  25 1.92  28 1.96  29 1.99
  96  0.770  0.167  0.441-  26 1.92  42 1.92  25 1.97
  97  0.913  0.000  0.419-   9 1.92  25 1.92  26 1.99
  98  0.766  0.000  0.524-  30 1.87  26 1.95  31 1.98
  99  0.555  0.000  0.478-  27 1.92  26 1.96  31 1.98
 100  0.270  1.000  0.442-  12 1.92  28 1.92  27 1.97
 101  0.412  0.167  0.419-  27 1.92  43 1.92  28 1.99
 102  0.267  0.167  0.524-  32 1.87  28 1.95  29 1.97
 103  0.198  0.167  0.620-  29 1.92  32 1.94  33 2.07
 104  0.909  0.167  0.582-  30 1.92  46 1.93  29 1.97
 105  0.054  0.000  0.561-  29 1.92  13 1.92  30 2.00
 106  0.915  1.000  0.664-  34 1.79  30 1.99  35 2.04
 107  0.698  0.000  0.619-  31 1.92  30 1.93  35 2.07
 108  0.409  0.000  0.582-  32 1.92  16 1.92  31 1.97
 109  0.553  0.167  0.560-  31 1.92  47 1.92  32 1.99
 110  0.413  0.164  0.664-  36 1.79  32 1.98  33 2.05
 111  0.351  0.167  0.760-  36 1.83  33 1.86
 112  0.057  0.167  0.734-  34 1.96  50 1.97  33 2.00
[...]
 134  0.268  0.500  0.525-  48 1.92  45 1.95  44 1.96
 135  0.197  0.500  0.621-  45 1.91  48 1.93  49 2.08
 136  0.909  0.500  0.582-  46 1.92  14 1.92  45 1.99
 137  0.054  0.333  0.560-  29 1.92  45 1.92  46 1.99
 138  0.915  0.333  0.663-  50 1.79  46 1.99  51 2.05
 139  0.699  0.332  0.619-  47 1.93  46 1.94  51 2.02
 140  0.410  0.333  0.584-  32 1.92  48 1.92  47 1.97
 141  0.553  0.500  0.561-  47 1.91  15 1.91  48 2.01
 142  0.414  0.500  0.667-  52 1.89  48 1.96  49 2.00
 143  0.349  0.500  0.762-  52 1.83  49 1.85
 144  0.057  0.500  0.734-  50 1.95  18 1.95  49 2.03
 145  0.197  0.334  0.704-  33 1.92  49 1.92  50 2.03
 146  0.847  0.336  0.759-  50 1.83  51 1.88
 147  0.558  0.331  0.733-  36 1.94  52 1.97  51 1.99
 148  0.695  0.500  0.700-  51 1.92  19 1.92  52 2.04

IMPORTANT INFORMATION: All symmetrisations will be switched off!
NOSYMM: (Re-)initialisation of all symmetry stuff for point group C_1.

                                     Primitive cell

  volume of cell :    2859.6974

  direct lattice vectors                    reciprocal lattice vectors
    10.250982430  0.000000000  0.000000000     0.097551626 -0.000000000  0.000000000
     0.000000000 11.253211329  0.000000000     0.000000000  0.088863523  0.000000000
     0.000000000  0.000000000 24.790090512     0.000000000  0.000000000  0.040338699

  length of vectors
    10.250982430 11.253211329 24.790090512     0.097551626  0.088863523  0.040338699

  position of ions in fractional coordinates (direct lattice)
     0.613613132  0.499999537  0.811640581
     0.550448546  0.500000230  0.843037462
     0.672326445  0.427568488  0.814353961
     0.672326926  0.572432552  0.814354004
     0.814826118  0.833333333  0.271169148
     0.598301032  0.666666667  0.306373894
     0.314826118  0.666666667  0.271169148
     0.098301032  0.833333333  0.306373894
[...]
   9.42163298  9.37767611  8.31734428
   6.51573662  9.37767611  7.44461542
   7.97020496  7.50214089  6.87272885
   6.43691162  7.50214089  9.49091541
   4.29614176  7.50214089  8.31734428
   1.39024540  7.50214089  7.44461542
[...]
   2.74648188  5.62660572 13.01540527
   2.02372149  5.62660578 15.39186606
   9.32286861  5.62660537 14.43389625
   0.55216680  3.75204112 13.89438124
   9.37646594  3.74776888 16.44459915
   7.16316424  3.73893245 15.34653773
   4.19808490  3.75174613 14.46693617
   5.67001161  5.62660548 13.91593348
   4.24382437  5.62660307 16.53143475
   3.57527397  5.62660667 18.90209473
   0.57979972  5.62660588 18.20394472
   2.01543820  3.75440277 17.44145211
   8.68412014  3.78206870 18.81857604
   5.71966757  3.72089063 18.15913562
   7.12062115  5.62660488 17.35687349

--------------------------------------- Iteration      FINAL  ---------------------------------------

--------------------OUTCAR has been truncated-------------------------

[...]

--------------------OUTCAR has been truncated-------------------------

  FORCE on cell =-STRESS in cart. coord.  units (eV):
  Direction    XX          YY          ZZ          XY          YZ          ZX
  Alpha Z  1758.72895  1758.72895  1758.72895
  Ewald  171688.47272169759.96405************    -0.00129     0.00081  -705.25409
  Hartree183457.52286182783.38042************    -0.00009     0.00057  -311.91488
  E(xc)   -2830.65934 -2824.17313 -2814.31363    -0.00001    -0.00001    -1.47079
  Local  ************************357617.13870     0.00079    -0.00135  1019.07457
  n-local -1750.81495 -1731.28415 -1782.04625     0.00004     0.00001    -7.33098
  augment   805.47529   800.82179   802.96259     0.00003     0.00003    -0.92550
  Kinetic 13987.22398 14065.49026 14137.94518     0.00019    -0.00005    -2.62744
  Fock    -1303.70783 -1291.18115 -1288.92239    -0.00001    -0.00001     0.64607
  vdW       -27.86663   -29.31707   -24.46156     0.00000     0.00000    -0.20363
  Total     -45.15551     1.64003    -8.01839    -0.00034    -0.00000   -10.00666
  in kB     -25.29888     0.91884    -4.49239    -0.00019    -0.00000    -5.60635

 VOLUME and BASIS-vectors are now :
  energy-cutoff  :      520.00
  volume of cell :     2859.70
      direct lattice vectors                 reciprocal lattice vectors
    10.250982430  0.000000000  0.000000000     0.097551626 -0.000000000  0.000000000
     0.000000000 11.253211329  0.000000000     0.000000000  0.088863523  0.000000000
     0.000000000  0.000000000 24.790090512     0.000000000  0.000000000  0.040338699

  length of vectors
    10.250982430 11.253211329 24.790090512     0.097551626  0.088863523  0.040338699

 FORCES acting on ions:
    Electron-Ion                     Ewald-Force                    Non-Local-Force
   0.631E+01 -.124E-02 -.106E+04   -.156E+02 0.181E-02 0.105E+04   0.854E+01 0.195E-03 0.161E+02
   0.444E+02 -.561E-03 -.243E+03   -.494E+02 0.590E-03 0.249E+03   0.479E+01 -.672E-04 -.551E+01
   -.399E+02 0.550E+02 -.221E+03   0.445E+02 -.612E+02 0.221E+03   -.435E+01 0.588E+01 -.318E+00
   -.399E+02 -.550E+02 -.221E+03   0.445E+02 0.612E+02 0.221E+03   -.435E+01 -.588E+01 -.318E+00
   0.934E+01 -.688E-01 0.883E+03   -.640E+01 0.696E-01 -.881E+03   0.959E+00 0.279E-03 -.204E+01
   -.156E+01 -.839E-01 0.711E+03   0.518E+00 0.848E-01 -.712E+03   -.738E+00 -.557E-03 -.874E+00
   0.945E+01 -.486E-01 0.883E+03   -.652E+01 0.450E-01 -.880E+03   0.949E+00 -.883E-03 -.204E+01
   -.190E+01 -.128E-01 0.711E+03   0.832E+00 0.760E-02 -.712E+03   -.745E+00 -.125E-02 -.879E+00
   -.521E+00 0.858E-01 0.326E+03   0.365E+00 -.895E-01 -.326E+03   0.136E+00 -.790E-03 0.391E-01
   0.241E+00 -.654E+00 0.206E+03   -.609E-01 0.664E+00 -.206E+03   -.685E-01 0.970E-02 -.111E+00
   0.550E-01 -.200E+00 0.326E+03   -.190E+00 0.211E+00 -.326E+03   0.130E+00 0.331E-02 0.230E-01
   -.989E+00 0.600E-01 0.205E+03   0.121E+01 -.596E-01 -.204E+03   -.657E-01 0.219E-03 -.110E+00
   -.240E+01 -.892E+00 -.199E+03   0.216E+01 0.877E+00 0.199E+03   0.223E+00 0.105E-01 0.146E+00
   -.330E+01 -.177E+01 -.299E+03   0.375E+01 0.181E+01 0.299E+03   -.158E+00 -.152E-01 -.221E+00
   -.142E+00 -.105E+01 -.192E+03   -.282E-01 0.106E+01 0.192E+03   0.188E+00 0.141E-02 0.960E-01
   0.845E+00 -.394E+00 -.305E+03   -.382E+00 0.400E+00 0.305E+03   -.166E+00 -.157E-01 -.247E+00
   0.939E+01 -.428E+01 -.709E+03   -.103E+02 0.432E+01 0.708E+03   0.580E+00 -.110E-01 0.334E-01
   -.304E+02 -.834E+01 -.816E+03   0.320E+02 0.831E+01 0.816E+03   -.133E+00 0.926E-01 0.674E+00
   -.573E+01 -.154E+02 -.682E+03   0.504E+01 0.154E+02 0.682E+03   0.528E+00 -.189E-01 0.113E+00
   -.196E+02 -.139E+02 -.813E+03   0.211E+02 0.139E+02 0.813E+03   -.902E-01 0.489E-01 0.680E+00
   0.934E+01 0.689E-01 0.883E+03   -.640E+01 -.696E-01 -.881E+03   0.959E+00 -.283E-03 -.204E+01
   -.158E+01 0.955E-05 0.711E+03   0.522E+00 -.392E-05 -.712E+03   -.740E+00 -.217E-04 -.878E+00
   0.942E+01 0.880E-05 0.883E+03   -.648E+01 -.430E-05 -.881E+03   0.955E+00 -.207E-04 -.204E+01
   -.190E+01 0.128E-01 0.711E+03   0.832E+00 -.761E-02 -.712E+03   -.745E+00 0.123E-02 -.879E+00
   -.521E+00 -.858E-01 0.326E+03   0.365E+00 0.895E-01 -.326E+03   0.136E+00 0.786E-03 0.391E-01
   -.362E+00 0.355E-05 0.206E+03   0.552E+00 0.105E-05 -.205E+03   -.552E-01 -.779E-05 -.111E+00
   0.606E-01 0.334E-04 0.326E+03   -.209E+00 -.182E-04 -.326E+03   0.129E+00 -.659E-05 0.295E-01
   -.989E+00 -.599E-01 0.205E+03   0.121E+01 0.596E-01 -.204E+03   -.657E-01 -.221E-03 -.110E+00
   -.240E+01 0.892E+00 -.199E+03   0.216E+01 -.877E+00 0.199E+03   0.223E+00 -.106E-01 0.146E+00
   -.265E+01 -.105E-04 -.304E+03   0.316E+01 0.794E-05 0.305E+03   -.160E+00 -.228E-06 -.213E+00
   -.176E+01 0.660E-04 -.197E+03   0.152E+01 -.555E-04 0.197E+03   0.224E+00 -.611E-05 0.169E+00
   0.845E+00 0.394E+00 -.305E+03   -.382E+00 -.400E+00 0.305E+03   -.166E+00 0.157E-01 -.247E+00
   0.939E+01 0.428E+01 -.709E+03   -.103E+02 -.432E+01 0.708E+03   0.580E+00 0.109E-01 0.334E-01
   -.261E+02 -.549E-05 -.821E+03   0.276E+02 0.116E-04 0.821E+03   -.138E+00 -.184E-04 0.667E+00
   0.301E+01 -.127E-04 -.707E+03   -.385E+01 0.140E-04 0.707E+03   0.539E+00 -.954E-05 0.614E-01
   -.196E+02 0.139E+02 -.813E+03   0.211E+02 -.139E+02 0.813E+03   -.902E-01 -.489E-01 0.680E+00
   0.932E+01 0.517E-05 0.883E+03   -.637E+01 0.191E-05 -.881E+03   0.962E+00 -.379E-05 -.204E+01
   -.156E+01 0.839E-01 0.711E+03   0.518E+00 -.848E-01 -.712E+03   -.738E+00 0.576E-03 -.874E+00
   0.945E+01 0.486E-01 0.883E+03   -.652E+01 -.450E-01 -.880E+03   0.949E+00 0.904E-03 -.204E+01
   -.202E+01 -.132E-04 0.711E+03   0.978E+00 0.556E-05 -.712E+03   -.742E+00 0.182E-04 -.849E+00
   -.220E+00 -.330E-04 0.325E+03   0.237E-02 0.179E-04 -.325E+03   0.136E+00 -.111E-04 0.585E-01
   0.241E+00 0.654E+00 0.206E+03   -.608E-01 -.664E+00 -.206E+03   -.685E-01 -.967E-02 -.111E+00
   0.550E-01 0.199E+00 0.326E+03   -.190E+00 -.211E+00 -.326E+03   0.130E+00 -.331E-02 0.230E-01
   -.157E+01 -.305E-04 0.200E+03   0.181E+01 0.229E-04 -.200E+03   -.724E-01 0.104E-04 -.218E-01
   -.164E+01 0.349E-04 -.199E+03   0.128E+01 -.254E-04 0.199E+03   0.205E+00 0.547E-05 0.157E+00
   -.330E+01 0.177E+01 -.299E+03   0.375E+01 -.181E+01 0.299E+03   -.158E+00 0.152E-01 -.221E+00
   -.142E+00 0.105E+01 -.192E+03   -.281E-01 -.106E+01 0.192E+03   0.188E+00 -.142E-02 0.960E-01
   0.126E+01 -.707E-04 -.315E+03   -.861E+00 0.605E-04 0.315E+03   -.146E+00 0.132E-05 -.106E+00
   0.164E+02 -.121E-04 -.706E+03   -.173E+02 0.723E-05 0.705E+03   0.402E+00 0.801E-05 0.109E+00
   -.304E+02 0.834E+01 -.816E+03   0.320E+02 -.831E+01 0.816E+03   -.133E+00 -.926E-01 0.674E+00
   -.573E+01 0.154E+02 -.682E+03   0.504E+01 -.154E+02 0.682E+03   0.528E+00 0.188E-01 0.113E+00
   0.970E+01 -.167E-03 -.784E+03   -.818E+01 0.137E-03 0.784E+03   -.554E+00 0.144E-04 -.241E+00
   -.675E+01 -.186E+00 0.142E+04   0.120E+02 0.187E+00 -.144E+04   -.628E+01 -.236E-02 0.164E+02
   -.708E+01 -.153E+00 0.142E+04   0.123E+02 0.153E+00 -.144E+04   -.628E+01 0.175E-02 0.164E+02
   0.452E+02 0.922E-01 0.898E+03   -.499E+02 -.895E-01 -.893E+03   0.315E+01 -.362E-02 -.391E+01
   0.322E+02 -.781E-01 0.109E+04   -.394E+02 0.798E-01 -.109E+04   0.666E+01 -.135E-02 -.235E+01
   -.445E+02 -.140E+00 0.125E+04   0.518E+02 0.139E+00 -.125E+04   -.605E+01 0.103E-02 -.393E+00
   -.384E+02 -.466E+00 0.672E+03   0.444E+02 0.510E+00 -.676E+03   -.532E+01 -.360E-01 0.389E+01
   0.458E+02 0.377E-02 0.897E+03   -.505E+02 0.130E-01 -.893E+03   0.313E+01 -.169E-01 -.379E+01
   0.317E+02 -.106E-01 0.109E+04   -.390E+02 -.105E-02 -.109E+04   0.668E+01 0.207E-01 -.237E+01
[...]
   0.475E+02 -.265E-04 -.671E+03   -.550E+02 0.255E-04 0.679E+03   0.655E+01 0.155E-05 -.701E+01
   0.343E+02 0.948E-04 -.447E+03   -.402E+02 -.700E-04 0.450E+03   0.512E+01 -.130E-04 -.250E+01
   -.437E+02 0.832E+00 -.301E+03   0.501E+02 -.777E+00 0.298E+03   -.550E+01 -.460E-01 0.228E+01
   -.504E+02 0.798E+01 -.845E+03   0.530E+02 -.828E+01 0.835E+03   -.229E+01 0.260E+00 0.872E+01
   0.435E+02 0.726E+01 -.652E+03   -.504E+02 -.758E+01 0.658E+03   0.602E+01 0.279E+00 -.544E+01
   0.419E+02 0.931E+00 -.456E+03   -.482E+02 -.905E+00 0.459E+03   0.553E+01 -.249E-01 -.262E+01
   -.375E+02 0.249E-04 -.301E+03   0.434E+02 -.291E-04 0.298E+03   -.513E+01 0.786E-05 0.190E+01
   -.293E+02 0.286E-03 -.848E+03   0.357E+02 -.353E-03 0.842E+03   -.562E+01 0.415E-04 0.536E+01
   0.716E+02 -.210E-03 -.138E+04   -.779E+02 0.251E-03 0.140E+04   0.553E+01 -.272E-04 -.194E+02
   0.212E+02 -.664E-04 -.126E+04   -.243E+02 0.987E-04 0.127E+04   0.272E+01 -.329E-04 -.695E+01
   -.205E+02 0.732E+01 -.106E+04   0.253E+02 -.711E+01 0.106E+04   -.421E+01 -.186E+00 0.260E+01
   -.219E+02 0.325E+02 -.138E+04   0.161E+02 -.323E+02 0.140E+04   0.510E+01 -.111E+00 -.187E+02
   0.487E+02 0.466E+02 -.121E+04   -.534E+02 -.461E+02 0.122E+04   0.412E+01 -.450E+00 -.587E+01
   -.408E+02 -.150E-03 -.988E+03   0.450E+02 0.142E-03 0.984E+03   -.361E+01 -.187E-04 0.406E+01
   -.132E+02 -.443E-03 0.565E+02   -.114E-12 0.108E-11 -.364E-11   0.149E+02 0.223E-03 -.517E+02

 POSITION                                       TOTAL-FORCE (eV/Angst)
      6.29014      5.62660     20.12064         0.006724      0.000775      0.005271
      5.64264      5.62661     20.89897        -0.003165     -0.000040      0.001918
      6.89201      4.81152     20.18791        -0.005937      0.003695      0.001738
      6.89201      6.44170     20.18791        -0.006434     -0.004427      0.001646
      8.35277      9.37768      6.72231         4.337826      0.001033      1.779469
      6.13317      7.50214      7.59504        -1.923423      0.000191     -2.136553
      3.22728      7.50214      6.72231         4.305737     -0.004695      1.765623
      1.00768      9.37768      7.59504        -1.955598     -0.006740     -2.144053
      9.74169      9.37793     10.25229         0.000024     -0.000869     -0.002155
      7.49507      7.49848     11.06094         0.002484     -0.002367      0.002117
      4.61121      7.49977     10.24907        -0.000295     -0.000410      0.000157
      2.36284      9.37725     11.06881        -0.000806      0.000842      0.002916
      0.93080      9.37865     13.79543        -0.000185     -0.001588     -0.000518
      8.91328      7.49715     14.51368        -0.001522     -0.003589      0.002921
      6.04392      7.49854     13.77627         0.002136      0.003209      0.004033
      3.77696      9.37771     14.53651        -0.000499      0.000132      0.002366
      2.41950      9.37116     17.40584        -0.000211      0.000123      0.001385
      0.05863      7.49132     17.97235         0.001323     -0.001045      0.001682
      7.53118      7.50065     17.33638        -0.000908      0.002427      0.001097
      5.20459      9.39314     17.96452         0.002478     -0.001662      0.002570
      8.35277      1.87554      6.72231         4.337833     -0.001020      1.779495
      6.13317      0.00000      7.59504        -1.939773     -0.000017     -2.140746
      3.22728      0.00000      6.72231         4.327084     -0.000015      1.771544
      1.00768      1.87554      7.59504        -1.955565      0.006712     -2.144041
      9.74169      1.87528     10.25229         0.000027      0.000873     -0.002181
      7.49210      0.00000     11.06267        -0.004322     -0.000002      0.001954
      4.61327     11.25321     10.25164         0.000680      0.000011      0.001053
      2.36284      1.87596     11.06881        -0.000787     -0.000825      0.002901
      0.93080      1.87456     13.79543        -0.000150      0.001555     -0.000472
      8.90274      0.00000     14.52548        -0.001580     -0.000001      0.007113
      6.05033      0.00000     13.78516        -0.002760      0.000007      0.002270
      3.77696      1.87550     14.53651        -0.000531     -0.000120      0.002369
      2.41950      1.88205     17.40584        -0.000244     -0.000118      0.001352
      0.07898     11.25321     17.97376         0.000404     -0.000013      0.001288
      7.56066     11.25321     17.38837         0.001638     -0.000010     -0.004449
      5.20459      1.86007     17.96453         0.002534      0.001670      0.002565
      8.35277      5.62661      6.72231         4.350549      0.000004      1.778361
      6.13317      3.75107      7.59504        -1.923423     -0.000165     -2.136548
      3.22728      3.75107      6.72231         4.305774      0.004710      1.765633
      1.00768      5.62661      7.59504        -1.925359      0.000013     -2.060139
      9.75442      5.62661     10.24832        -0.001864     -0.000026      0.001408
      7.49507      3.75473     11.06094         0.002457      0.002393      0.002066
      4.61121      3.75344     10.24907        -0.000274      0.000396      0.000150
      2.36621      5.62661     11.09685        -0.000054      0.000006      0.005373
      0.95801      5.62661     13.80161         0.002465      0.000014      0.004608
      8.91328      3.75606     14.51368        -0.001547      0.003582      0.002932
      6.04392      3.75467     13.77627         0.002136     -0.003232      0.004033
      3.79273      5.62661     14.62351        -0.003672     -0.000009      0.000633
      2.45660      5.62661     17.42571         0.000566      0.000005      0.003218
      0.05863      3.76189     17.97235         0.001282      0.001026      0.001667
      7.53118      3.75256     17.33639        -0.000897     -0.002439      0.001112
      5.23824      5.62661     18.13439        -0.001917     -0.000014     -0.000111
      5.06431      7.50214      6.00000        -2.040856     -0.001586      1.039928
     10.18980      9.37768      6.00000        -2.037622      0.001720      1.038232
      9.42163      9.37768      8.31734        -1.130779     -0.001479     -0.097951
      6.51574      9.37768      7.44462         0.414112      0.000069     -0.073421
      7.97020      7.50214      6.87273         0.361292     -0.000515     -1.193328
      6.43691      7.50214      9.49092        -0.048677      0.002477      0.628121
      4.29614      7.50214      8.31734        -1.136454     -0.002719     -0.090645
      1.39025      7.50214      7.44462         0.426334      0.012645     -0.082502
[...]
      2.74648      5.62661     13.01541        -0.001356     -0.000018     -0.003446
      2.02372      5.62661     15.39187         0.001850      0.000002      0.000167
      9.32287      5.62661     14.43390        -0.001249      0.000011     -0.001522
      0.55217      3.75204     13.89438         0.002511      0.001777     -0.001057
      9.37647      3.74777     16.44460         0.000171      0.000961      0.002314
      7.16316      3.73893     15.34654         0.001343      0.002669     -0.000524
      4.19808      3.75175     14.46694        -0.001586     -0.002213      0.000588
      5.67001      5.62661     13.91593         0.000934      0.000006     -0.003372
      4.24382      5.62660     16.53143         0.001760     -0.000019      0.005630
      3.57527      5.62661     18.90209        -0.000449      0.000012      0.005333
      0.57980      5.62661     18.20394        -0.001827     -0.000005      0.003045
      2.01544      3.75440     17.44145         0.002947     -0.000898      0.000124
      8.68412      3.78207     18.81858        -0.003019     -0.001435      0.003501
      5.71967      3.72089     18.15914         0.001167      0.003320      0.002325
      7.12062      5.62660     17.35687         0.003111     -0.000030     -0.003455
    total drift:                                0.023674     -0.000212      0.001502

  FREE ENERGIE OF THE ION-ELECTRON SYSTEM (eV)
  free  energy   TOTEN  =     -1596.11749634 eV

  energy  without entropy=    -1596.11749634  energy(sigma->0) =    -1596.11749634