 vasp.6.3.0 20Jan22 (build Dec 25 2023 18:06:01) complex
 executed on        HPECrayEX_GCC date 2024.11.24  20:21:01

 INCAR:
   SYSTEM = TiO2
   ISMEAR = 0
   SIGMA = 0.05
   EDIFF = 1E-7
   ALGO = Normal
   ISTART = 0
   IBRION = 2
   NSW = 1000
   ISYM = 0
   ISIF = 2
   EDIFFG = -0.02
   DIPOL = 0.5 0.5 0.5
   IDIPOL = 3
   LDIPOL = .TRUE.
   LHFCALC = .TRUE.
   HFSCREEN = 0.2
   GGA = PE
   IVDW = 13
   VDW_S8 = 1.19528249
   VDW_A1 = 0.38663183
   VDW_A2 = 5.19133469
   ENCUT = 520
   PREC = Normal
   PRECFOCK = Fast
   LASPH = .TRUE.
   LREAL = .FALSE.
   ISPIN = 1
   NKREDX = 2
   NKREDY = 2
   NELM = 200
   NELMIN = 8
   NCORE = 8
   KPAR = 1
   LWAVE = .FALSE.
   LCHARG = .FALSE.

 POTCAR:    PAW_PBE C 08Apr2002
 POTCAR:    PAW_PBE O 08Apr2002
 POTCAR:    PAW_PBE H 15Jun2001
 POTCAR:    PAW_PBE Ti 08Apr2002
 POTCAR:    PAW_PBE O 08Apr2002
 POTCAR:    PAW_PBE C 08Apr2002
   VRHFIN =C: s2p2

   TITEL  = PAW_PBE C 08Apr2002
   POMASS =   12.011; ZVAL   =    4.000    mass and valenz
   ENMAX  =  400.000; ENMIN  =  300.000 eV

[...]

   TITEL  = PAW_PBE H 15Jun2001
   POMASS =    1.000; ZVAL   =    1.000    mass and valenz
   ENMAX  =  250.000; ENMIN  =  200.000 eV

[...]

   TITEL  = PAW_PBE O 08Apr2002
   POMASS =   16.000; ZVAL   =    6.000    mass and valenz
   ENMAX  =  400.000; ENMIN  =  300.000 eV

  PAW_PBE C 08Apr2002                   :
  PAW_PBE O 08Apr2002                   :
  PAW_PBE H 15Jun2001                   :
  PAW_PBE Ti 08Apr2002                  :
  PAW_PBE O 08Apr2002                   :

 POSCAR:  C  O  H Ti  O
  positions in direct lattice
  velocities in cartesian coordinates
|           W    W    AA    RRRRR   N    N  II  N    N   GGGG   !!!           |
|           W    W   A  A   R    R  NN   N  II  NN   N  G    G  !!!           |
|           W    W  A    A  R    R  N N  N  II  N N  N  G       !!!           |
|           W WW W  AAAAAA  RRRRR   N  N N  II  N  N N  G  GGG   !            |
|           WW  WW  A    A  R   R   N   NN  II  N   NN  G    G                |
|           W    W  A    A  R    R  N    N  II  N    N   GGGG   !!!           |
|     Specifying the vdW parameters                                           |
|     VDW_S8 = 1.195                                                          |
|     VDW_A1 = 0.387                                                          |
|     VDW_A2 = 5.191                                                          |
|     in the INCAR file will overwrite the defaults for hse06. Please         |
|     make sure that is what you intended.                                    |

 ion  position               nearest neighbor table
   1  0.509  0.589  0.844-   3 1.09   5 1.09   6 1.09   2 1.43
   2  0.538  0.499  0.811-   4 0.99   1 1.43  86 2.13
   3  0.425  0.598  0.842-   1 1.09
   4  0.615  0.493  0.810-   2 0.99
   5  0.532  0.566  0.881-   1 1.09
   6  0.547  0.669  0.834-   1 1.09
   7  0.750  0.625  0.265-  87 1.94  88 1.94 147 1.94 148 1.94 169 1.96  90 1.96  17 2.94  37 2.94

   8  0.000  0.750  0.265-  90 1.94 110 1.94 109 1.94  89 1.94  91 1.96  38 2.94  18 2.94
   9  0.000  0.625  0.382-  91 1.94  92 1.94 151 1.94 152 1.94  93 1.96  94 1.96  19 2.94  39 2.94

[...]

  87  0.750  0.750  0.219-   7 1.94  17 1.94
  88  0.750  0.750  0.311-   7 1.94  17 1.94  10 1.96
  89  0.098  0.625  0.265-   8 1.94  38 1.94  47 1.96
  90  0.902  0.625  0.265-   8 1.94  38 1.94   7 1.96
  91  0.000  0.750  0.336-   9 1.94  19 1.94   8 1.96
  92  0.000  0.750  0.428-   9 1.94  19 1.94  12 1.96
  93  0.848  0.625  0.382-  10 1.94  40 1.94   9 1.96
  94  0.152  0.625  0.382-  50 1.94  80 1.94   9 1.96
  95  0.750  0.750  0.454-  11 1.94  21 1.94  10 1.96
  96  0.750  0.750  0.546-  11 1.94  21 1.94  14 2.07
  97  0.098  0.625  0.500-  12 1.94  42 1.94  51 1.96
  98  0.902  0.625  0.500-  12 1.94  42 1.94  11 1.96
  99  0.000  0.750  0.572-  23 1.89  13 1.89  12 1.98
 100  0.999  0.750  0.665-  16 1.81  13 2.00  23 2.00
 101  0.850  0.625  0.618-  13 1.94  14 1.96  44 1.96
 102  0.150  0.625  0.619-  13 1.93  54 1.96  84 1.96
 103  0.754  0.751  0.690-  14 1.87  15 2.05  25 2.07
 104  0.748  0.749  0.783-  15 1.83  25 1.84
 105  0.094  0.625  0.743-  46 1.93  16 1.93  55 2.02
 106  0.906  0.624  0.744-  46 1.93  16 1.94  15 2.01
 107  0.750  0.000  0.219-  17 1.94  27 1.94
 108  0.750  0.000  0.311-  17 1.94  27 1.94  20 1.96
 109  0.098  0.875  0.265-   8 1.94  18 1.94  57 1.96
 110  0.902  0.875  0.265-   8 1.94  18 1.94  17 1.96
 111  0.000  0.000  0.336-  19 1.94  29 1.94  18 1.96
 112  0.000  0.000  0.428-  19 1.94  29 1.94  22 1.96
 113  0.848  0.875  0.382-  10 1.94  20 1.94  19 1.96
 114  0.152  0.875  0.382-  50 1.94  60 1.94  19 1.96
 115  0.750  0.000  0.454-  21 1.94  31 1.94  20 1.96
 116  0.750  0.000  0.546-  21 1.94  31 1.94  24 2.09
 117  0.098  0.875  0.500-  12 1.94  22 1.94  61 1.96
 118  0.902  0.875  0.500-  12 1.94  22 1.94  21 1.96
 119  0.000  0.000  0.572-  33 1.89  23 1.89  22 1.98
 120  1.000  1.000  0.665-  26 1.81  23 2.00  33 2.00
 121  0.850  0.876  0.618-  23 1.94  24 1.96  14 1.96
 122  0.150  0.875  0.619-  23 1.93  64 1.96  54 1.96
 123  0.750  1.000  0.690-  24 1.87  35 2.06  25 2.07
 124  0.750  1.000  0.783-  35 1.83  25 1.83
 125  0.094  0.874  0.743-  16 1.92  26 1.93  65 2.02
 126  0.906  0.875  0.743-  16 1.93  26 1.93  25 2.02
 127  0.750  0.250  0.219-  27 1.94  37 1.94
 128  0.750  0.250  0.311-  27 1.94  37 1.94  30 1.96
 129  0.098  0.125  0.265-  18 1.94  28 1.94  67 1.96
 130  0.902  0.125  0.265-  18 1.94  28 1.94  27 1.96
 131  0.000  0.250  0.336-  29 1.94  39 1.94  28 1.96
 132  0.000  0.250  0.428-  29 1.94  39 1.94  32 1.96
 133  0.848  0.125  0.382-  20 1.94  30 1.94  29 1.96
 134  0.152  0.125  0.382-  60 1.94  70 1.94  29 1.96
 135  0.750  0.250  0.454-  31 1.94  41 1.94  30 1.96
 136  0.750  0.250  0.546-  31 1.94  41 1.94  34 2.07
 137  0.098  0.125  0.500-  22 1.94  32 1.94  71 1.96
 138  0.902  0.125  0.500-  22 1.94  32 1.94  31 1.96
 139  0.000  0.250  0.572-  33 1.89  43 1.89  32 1.98
 140  0.999  0.250  0.665-  36 1.81  43 2.00  33 2.00
 141  0.850  0.125  0.618-  33 1.94  24 1.96  34 1.96
 142  0.150  0.125  0.619-  33 1.93  64 1.96  74 1.96
 143  0.753  0.249  0.690-  34 1.88  45 2.04  35 2.08
 144  0.749  0.251  0.783-  45 1.82  35 1.84
 145  0.094  0.125  0.743-  36 1.92  26 1.93  75 2.02
 146  0.906  0.125  0.743-  36 1.93  26 1.93  35 2.02
[...]
 232  0.500  0.500  0.428-  49 1.94  79 1.94  82 1.96
 233  0.348  0.375  0.382-  70 1.94  80 1.94  79 1.96
 234  0.652  0.375  0.382-  30 1.94  40 1.94  79 1.96
 235  0.250  0.500  0.454-  51 1.94  81 1.94  80 1.96
 236  0.250  0.500  0.546-  51 1.94  81 1.94  84 2.09
 237  0.598  0.375  0.500-  72 1.94  82 1.94  41 1.96
 238  0.402  0.375  0.500-  72 1.94  82 1.94  81 1.96
 239  0.500  0.500  0.573-  53 1.89  83 1.89  82 1.99
 240  0.499  0.500  0.666-  86 1.92  53 1.96  83 1.96
 241  0.349  0.375  0.619-  83 1.95  74 1.95  84 1.95
 242  0.651  0.375  0.619-  83 1.94  34 1.95  44 1.96
 243  0.249  0.500  0.690-  84 1.87  55 2.07  85 2.07
 244  0.252  0.500  0.783-  55 1.83  85 1.83
 245  0.596  0.371  0.738-  76 1.91  86 1.94  45 2.01
 246  0.406  0.374  0.742-  76 1.92  86 1.93  85 2.01

IMPORTANT INFORMATION: All symmetrisations will be switched off!
NOSYMM: (Re-)initialisation of all symmetry stuff for point group C_1.

                                     Primitive cell

  volume of cell :    4157.1448

  direct lattice vectors                    reciprocal lattice vectors
    12.893495846  0.000000000  0.000000000     0.077558485  0.000000000  0.000000000
     0.000000000 11.761907618  0.000000000     0.000000000  0.085020222  0.000000000
     0.000000000  0.000000000 27.412377441     0.000000000  0.000000000  0.036479871

  length of vectors
    12.893495846 11.761907618 27.412377441     0.077558485  0.085020222  0.036479871

  position of ions in fractional coordinates (direct lattice)
     0.509046896  0.589113855  0.843823748
     0.538426847  0.499489118  0.811346252
     0.425241803  0.598243589  0.841861699
     0.615043967  0.493434361  0.810177556
     0.532047741  0.566401897  0.880811829
     0.547310734  0.668663306  0.833557882
     0.750000000  0.625000000  0.264823466
     0.000000000  0.750000000  0.264823466
     0.000000000  0.625000000  0.382411733
     0.750000000  0.750000000  0.382411733
     0.750000000  0.625000000  0.500000000
     0.000000000  0.750000000  0.500000000
     0.000306720  0.625065035  0.615602964
     0.750341387  0.750147707  0.621590786
     0.750805229  0.625930083  0.741979625
     0.999698327  0.750187155  0.731157511
     0.750000000  0.875000000  0.264823466
     0.000000000  0.000000000  0.264823466
     0.000000000  0.875000000  0.382411733
     0.750000000  0.000000000  0.382411733
     0.750000000  0.875000000  0.500000000
     0.000000000  0.000000000  0.500000000
     0.000091754  0.875043763  0.615715013
     0.749725582  0.000016473  0.622024226
     0.749504920  0.875033559  0.743357339
     0.000015573  0.999912551  0.731144320
     0.750000000  0.125000000  0.264823466
     0.000000000  0.250000000  0.264823466
     0.000000000  0.125000000  0.382411733
     0.750000000  0.250000000  0.382411733
     0.750000000  0.125000000  0.500000000
     0.000000000  0.250000000  0.500000000
     0.000087934  0.124952272  0.615719277
     0.750121198  0.249854628  0.621560199
     0.749479784  0.124402090  0.743372696
     0.999895409  0.249716122  0.731159407
     0.750000000  0.375000000  0.264823466
     0.000000000  0.500000000  0.264823466
     0.000000000  0.375000000  0.382411733
     0.750000000  0.500000000  0.382411733
     0.750000000  0.375000000  0.500000000
     0.000000000  0.500000000  0.500000000
     0.000245544  0.374956040  0.615601587
     0.750853536  0.499975372  0.621781181
     0.751284029  0.373369019  0.742107913
     0.000817074  0.500030383  0.731066620
     0.250000000  0.625000000  0.264823466
     0.500000000  0.750000000  0.264823466
     0.500000000  0.625000000  0.382411733
     0.250000000  0.750000000  0.382411733
     0.250000000  0.625000000  0.500000000
     0.500000000  0.750000000  0.500000000
     0.500305832  0.622524742  0.617077722
     0.250360979  0.749933355  0.621953491
     0.250284112  0.625151265  0.743217719
     0.499805600  0.750362445  0.729597503
     0.250000000  0.875000000  0.264823466
     0.500000000  0.000000000  0.264823466
     0.500000000  0.875000000  0.382411733
     0.250000000  0.000000000  0.382411733
[...]
     0.500000000  0.500000000  0.428355971
     0.347680320  0.375000000  0.382411733
     0.652319680  0.375000000  0.382411733
     0.250000000  0.500000000  0.454055762
     0.250000000  0.500000000  0.545944238
     0.597680320  0.375000000  0.500000000
     0.402319680  0.375000000  0.500000000
     0.500251819  0.499830233  0.572559470
     0.499338985  0.500180286  0.665619996
     0.349304601  0.375026022  0.618674630
     0.650793984  0.374955790  0.619090163
     0.249199633  0.500238394  0.690208448
     0.251858587  0.500196050  0.783079833
     0.596004725  0.371371354  0.737948033
     0.406457218  0.373927251  0.741657390

  ion indices of the primitive-cell ions
[...]
   0.591E+02 -.153E+02 -.242E+03   -.652E+02 0.159E+02 0.241E+03   0.583E+01 -.610E+00 0.245E+00   -.233E-04 0.121E-05 -.625E-04
   -.712E+02 0.175E+02 -.266E+03   0.791E+02 -.182E+02 0.265E+03   -.761E+01 0.730E+00 0.305E+00   0.452E-04 -.138E-04 -.138E-03
   -.116E+02 0.592E+01 -.247E+03   0.131E+02 -.734E+01 0.253E+03   -.151E+01 0.136E+01 -.535E+01   0.213E-04 -.727E-05 0.632E-04
   -.192E+02 -.619E+02 -.237E+03   0.219E+02 0.669E+02 0.236E+03   -.255E+01 -.480E+01 0.131E+01   0.247E-04 0.204E-04 -.844E-04
   -.248E+00 -.484E-01 0.970E+03   0.246E+00 0.488E-01 -.973E+03   -.235E-03 0.239E-03 -.125E+01   0.201E-05 -.289E-07 0.660E-03
   -.407E-01 -.982E-01 0.105E+04   0.422E-01 0.987E-01 -.104E+04   0.405E-03 0.218E-03 -.186E+01   -.466E-06 0.885E-06 0.650E-03
   -.783E-01 -.359E-01 0.503E+03   0.838E-01 0.356E-01 -.503E+03   0.183E-02 0.219E-04 0.181E+00   0.530E-06 0.266E-06 -.177E-04
   -.217E+00 -.782E-01 0.500E+03   0.210E+00 0.788E-01 -.500E+03   -.180E-02 0.457E-03 -.171E+00   0.291E-05 0.597E-06 -.432E-04
   -.611E+00 -.155E+00 0.588E+01   0.575E+00 0.145E+00 -.543E+01   -.115E-01 -.556E-02 0.171E+00   0.633E-05 0.114E-06 -.787E-03
   -.336E+00 -.368E+00 0.480E+01   0.352E+00 0.373E+00 -.545E+01   0.195E-02 -.183E-02 -.541E-01   0.106E-05 0.182E-05 -.841E-03
   -.192E+01 -.719E+00 -.482E+03   0.191E+01 0.721E+00 0.482E+03   0.924E-02 -.669E-02 -.478E-01   0.156E-05 -.771E-05 -.113E-02
   -.341E+01 -.376E+01 -.484E+03   0.343E+01 0.377E+01 0.484E+03   -.163E-01 -.706E-02 0.360E-01   0.242E-04 0.414E-05 -.117E-02
   -.404E+02 -.805E+01 -.926E+03   0.403E+02 0.788E+01 0.926E+03   0.158E+00 0.731E-01 0.139E+00   0.549E-04 -.935E-05 -.875E-03
   -.191E+01 -.264E+01 -.977E+03   0.195E+01 0.262E+01 0.976E+03   -.480E-01 -.960E-02 0.633E+00   -.644E-05 -.135E-04 -.914E-03
   -.230E+00 -.115E+00 0.970E+03   0.227E+00 0.115E+00 -.973E+03   -.263E-03 0.625E-03 -.125E+01   0.151E-05 0.153E-05 0.658E-03
   -.378E-01 -.392E-01 0.105E+04   0.392E-01 0.395E-01 -.104E+04   0.399E-03 0.128E-03 -.186E+01   -.340E-06 0.109E-05 0.648E-03
   -.674E-01 -.836E-01 0.503E+03   0.726E-01 0.835E-01 -.503E+03   0.177E-02 -.121E-04 0.181E+00   0.425E-06 0.129E-05 -.169E-04
   -.228E+00 -.398E-01 0.500E+03   0.220E+00 0.396E-01 -.500E+03   -.200E-02 -.131E-03 -.172E+00   0.302E-05 0.453E-06 -.432E-04
   -.839E+00 -.435E+00 0.518E+01   0.813E+00 0.459E+00 -.471E+01   -.712E-02 0.142E-01 0.176E+00   0.636E-05 0.235E-05 -.785E-03
   -.244E+00 -.119E+00 0.423E+01   0.259E+00 0.120E+00 -.488E+01   0.248E-02 0.126E-05 -.530E-01   0.104E-05 0.202E-05 -.839E-03
   -.110E+01 -.119E+01 -.484E+03   0.109E+01 0.120E+01 0.484E+03   0.537E-02 -.837E-02 -.467E-01   0.439E-06 0.384E-05 -.114E-02
   -.218E+01 -.776E+00 -.491E+03   0.220E+01 0.773E+00 0.490E+03   -.209E-01 0.185E-02 0.419E-01   0.112E-04 0.885E-05 -.117E-02
   -.123E+02 -.116E+02 -.945E+03   0.123E+02 0.116E+02 0.945E+03   0.291E-01 0.134E-01 0.356E-01   0.399E-04 0.302E-04 -.854E-03
   -.173E+01 -.913E+00 -.979E+03   0.172E+01 0.913E+00 0.979E+03   0.193E-01 -.196E-02 0.666E+00   0.229E-05 0.266E-04 -.908E-03
   -.220E+00 0.481E-01 0.970E+03   0.218E+00 -.485E-01 -.973E+03   -.274E-03 -.277E-03 -.125E+01   0.154E-05 -.477E-07 0.657E-03
   -.402E-01 0.980E-01 0.105E+04   0.417E-01 -.985E-01 -.104E+04   0.411E-03 -.218E-03 -.186E+01   -.300E-06 -.100E-05 0.648E-03
   -.678E-01 0.364E-01 0.503E+03   0.733E-01 -.361E-01 -.503E+03   0.181E-02 0.276E-04 0.181E+00   0.479E-06 -.381E-06 -.166E-04
   -.204E+00 0.783E-01 0.500E+03   0.197E+00 -.789E-01 -.500E+03   -.176E-02 -.454E-03 -.172E+00   0.290E-05 -.574E-06 -.431E-04
   -.789E+00 0.191E+00 0.496E+01   0.762E+00 -.221E+00 -.449E+01   -.644E-02 -.165E-01 0.174E+00   0.613E-05 0.485E-06 -.783E-03
   -.339E+00 0.365E+00 0.458E+01   0.357E+00 -.370E+00 -.523E+01   0.301E-02 0.189E-02 -.533E-01   0.156E-05 -.191E-05 -.837E-03
   -.799E+00 0.609E+00 -.484E+03   0.786E+00 -.612E+00 0.484E+03   0.610E-02 0.738E-02 -.449E-01   -.119E-05 0.689E-05 -.113E-02
   -.308E+01 0.366E+01 -.486E+03   0.310E+01 -.366E+01 0.485E+03   -.159E-01 0.127E-02 0.273E-01   0.217E-04 -.540E-05 -.115E-02
   -.893E+01 0.623E+01 -.948E+03   0.892E+01 -.620E+01 0.947E+03   0.242E-01 -.562E-02 0.256E-01   0.354E-04 0.616E-05 -.837E-03
   -.168E+01 0.254E+01 -.978E+03   0.170E+01 -.251E+01 0.977E+03   -.375E-01 0.706E-02 0.638E+00   -.646E-05 0.120E-04 -.886E-03
   -.238E+00 0.115E+00 0.970E+03   0.236E+00 -.116E+00 -.973E+03   -.246E-03 -.587E-03 -.125E+01   0.191E-05 -.147E-05 0.659E-03
   -.432E-01 0.394E-01 0.105E+04   0.447E-01 -.397E-01 -.104E+04   0.415E-03 -.128E-03 -.186E+01   -.539E-06 -.991E-06 0.650E-03
   -.789E-01 0.832E-01 0.503E+03   0.847E-01 -.829E-01 -.503E+03   0.189E-02 -.375E-04 0.181E+00   0.567E-06 -.114E-05 -.176E-04
   -.194E+00 0.397E-01 0.500E+03   0.187E+00 -.395E-01 -.500E+03   -.181E-02 0.114E-03 -.172E+00   0.286E-05 -.454E-06 -.440E-04
   -.548E+00 0.398E+00 0.567E+01   0.512E+00 -.384E+00 -.522E+01   -.110E-01 0.790E-02 0.169E+00   0.614E-05 -.300E-05 -.784E-03
   -.379E+00 0.123E+00 0.515E+01   0.397E+00 -.123E+00 -.580E+01   0.167E-02 -.129E-03 -.570E-01   0.148E-05 -.200E-05 -.839E-03
   -.180E+01 0.135E+01 -.482E+03   0.179E+01 -.135E+01 0.482E+03   0.663E-02 0.643E-02 -.475E-01   0.508E-06 -.573E-05 -.112E-02
   -.369E+01 0.771E+00 -.481E+03   0.372E+01 -.773E+00 0.480E+03   -.404E-01 0.265E-02 0.352E-01   0.188E-04 -.972E-05 -.117E-02
   -.341E+02 0.126E+02 -.931E+03   0.340E+02 -.123E+02 0.931E+03   0.120E+00 -.996E-01 0.125E+00   0.517E-04 -.276E-04 -.855E-03
   -.311E+01 0.114E+01 -.975E+03   0.307E+01 -.114E+01 0.974E+03   0.401E-01 0.212E-02 0.595E+00   -.795E-05 -.284E-04 -.898E-03
   0.248E+00 -.447E-01 0.970E+03   -.246E+00 0.448E-01 -.973E+03   0.236E-03 0.692E-04 -.125E+01   -.191E-05 0.184E-06 0.662E-03
   0.408E-01 -.127E+00 0.105E+04   -.423E-01 0.128E+00 -.104E+04   -.408E-03 0.382E-03 -.186E+01   0.418E-06 0.175E-05 0.649E-03
   0.727E-01 0.939E-02 0.503E+03   -.779E-01 -.840E-03 -.503E+03   -.187E-02 0.244E-02 0.190E+00   -.525E-06 0.726E-08 -.192E-04
   0.223E+00 -.615E-01 0.500E+03   -.216E+00 0.618E-01 -.500E+03   0.181E-02 0.188E-03 -.167E+00   -.282E-05 0.580E-06 -.418E-04
   0.848E+00 -.620E-01 0.512E+01   -.811E+00 0.511E-01 -.462E+01   0.871E-02 -.579E-02 0.189E+00   -.660E-05 -.836E-06 -.787E-03
   0.341E+00 -.484E+00 0.697E+01   -.349E+00 0.417E+00 -.748E+01   -.739E-02 0.117E-01 -.553E-01   -.721E-06 0.229E-05 -.851E-03
   0.127E+01 -.396E+01 -.474E+03   -.129E+01 0.415E+01 0.474E+03   0.186E-01 -.114E+00 -.850E-02   0.461E-05 -.136E-05 -.116E-02
   0.542E+01 -.281E+01 -.488E+03   -.543E+01 0.281E+01 0.488E+03   0.400E-02 0.355E-02 0.459E-01   -.206E-04 0.440E-05 -.117E-02
   0.263E+02 -.616E+01 -.933E+03   -.263E+02 0.615E+01 0.932E+03   0.270E-01 0.359E-02 0.822E-02   -.506E-04 -.213E-05 -.890E-03
   0.913E+01 -.331E+02 -.942E+03   -.904E+01 0.333E+02 0.942E+03   -.135E+00 -.458E-01 0.786E+00   0.362E-05 0.457E-04 -.970E-03
   0.230E+00 -.110E+00 0.970E+03   -.227E+00 0.111E+00 -.973E+03   0.261E-03 0.558E-03 -.125E+01   -.149E-05 0.161E-05 0.660E-03
   0.378E-01 -.541E-01 0.105E+04   -.392E-01 0.545E-01 -.104E+04   -.400E-03 0.160E-03 -.186E+01   0.310E-06 0.100E-05 0.647E-03
   0.621E-01 -.650E-01 0.503E+03   -.670E-01 0.664E-01 -.503E+03   -.181E-02 -.391E-03 0.190E+00   -.689E-06 0.965E-06 -.199E-04
   0.233E+00 -.413E-01 0.499E+03   -.226E+00 0.413E-01 -.500E+03   0.186E-02 0.133E-03 -.167E+00   -.270E-05 0.554E-06 -.413E-04
[...]
   -.254E+02 0.103E+00 0.751E+03   0.298E+02 -.104E+00 -.752E+03   -.332E+01 0.141E-02 0.182E+00   0.635E-06 -.129E-05 -.155E-04
   0.256E+02 0.114E+00 0.752E+03   -.299E+02 -.115E+00 -.752E+03   0.333E+01 0.144E-02 0.192E+00   -.260E-05 -.132E-05 -.178E-04
   0.614E+00 0.149E+00 0.322E+03   -.592E+00 -.151E+00 -.327E+03   -.264E-01 0.416E-02 0.396E+01   -.670E-05 -.133E-05 -.743E-03
   0.237E+01 0.592E+00 -.312E+03   -.232E+01 -.593E+00 0.320E+03   -.617E-01 0.164E-02 -.664E+01   -.178E-04 -.605E-05 -.150E-02
   -.248E+02 0.284E+00 0.108E+02   0.299E+02 -.290E+00 -.109E+02   -.479E+01 0.265E-01 0.216E+00   0.115E-04 -.396E-05 -.121E-02
   0.256E+02 0.231E+00 0.102E+02   -.308E+02 -.240E+00 -.104E+02   0.485E+01 0.311E-01 0.204E+00   -.154E-04 -.375E-05 -.121E-02
   0.799E+00 0.106E+01 -.404E+03   -.774E+00 -.115E+01 0.396E+03   -.212E-01 0.795E-01 0.659E+01   -.714E-06 -.628E-05 -.163E-02
   0.939E+01 0.407E+01 -.101E+04   -.983E+01 -.398E+01 0.101E+04   0.387E+00 -.768E-01 -.250E+01   0.736E-07 -.181E-04 -.158E-02
   -.556E+01 0.420E+01 -.719E+03   0.913E+01 -.437E+01 0.718E+03   -.311E+01 0.143E+00 0.996E+00   -.469E-04 -.169E-04 -.171E-02
   0.848E+01 0.514E+01 -.718E+03   -.119E+02 -.518E+01 0.717E+03   0.297E+01 0.359E-01 0.601E+00   0.474E-04 -.131E-04 -.171E-02
   0.215E+02 0.287E+01 -.114E+04   -.216E+02 -.295E+01 0.114E+04   0.105E+00 0.726E-01 -.189E+01   -.545E-04 -.205E-04 -.148E-02
   0.615E+02 0.115E+02 -.166E+04   -.613E+02 -.116E+02 0.168E+04   -.185E+00 0.728E-01 -.196E+02   -.125E-03 -.494E-04 -.111E-02
   -.198E+02 0.635E+02 -.139E+04   0.264E+02 -.635E+02 0.139E+04   -.574E+01 -.177E-01 -.783E+00   0.797E-04 -.651E-04 -.137E-02
   0.386E+02 0.474E+02 -.144E+04   -.453E+02 -.472E+02 0.144E+04   0.584E+01 -.228E+00 -.310E+01   -.719E-04 -.579E-04 -.137E-02
   -.166E+02 -.178E+02 0.912E+02   0.172E-11 -.639E-13 -.280E-10   0.142E+02 0.149E+02 -.849E+02   0.249E-03 -.842E-04 -.137E+00

 POSITION                                       TOTAL-FORCE (eV/Angst)
      6.56315      6.92856     23.13236        -0.005329     -0.002223      0.008301
      6.94243      5.87613     22.24125         0.002910     -0.006459     -0.006964
      5.48281      7.03588     23.07754        -0.002529     -0.007419      0.007595
      7.93000      5.80436     22.20834         0.001870      0.009756     -0.000747
      6.86035      6.66149     24.14596         0.000994     -0.009104      0.013668
      7.05598      7.86418     22.85156        -0.003061      0.008045      0.016883
      9.67012      7.35119      7.25944        -0.002546      0.000675     -4.002778
      0.00000      8.82143      7.25944         0.001827      0.000747      3.054016
      0.00000      7.35119     10.48281         0.007452     -0.000243      0.579205
      9.67012      8.82143     10.48281        -0.009582      0.001109     -0.867168
      9.67012      7.35119     13.70619        -0.048285     -0.016157      0.649246
      0.00000      8.82143     13.70619         0.018856      0.003132     -0.745802
      0.00393      7.35202     16.87525         0.002061     -0.003754      0.000804
      9.67467      8.82331     17.03963         0.002811     -0.004507     -0.000449
      9.67999      7.36201     20.33971         0.001229      0.002462      0.000418
     12.88947      8.82351     20.04287         0.001287     -0.005648     -0.002399
      9.67012     10.29167      7.25944        -0.002824      0.001625     -4.003540
      0.00000      0.00000      7.25944         0.001782      0.000447      3.053082
      0.00000     10.29167     10.48281         0.007103     -0.000199      0.578897
      9.67012      0.00000     10.48281        -0.009964     -0.000347     -0.866798
      9.67012     10.29167     13.70619        -0.033447      0.040825      0.666909
      0.00000      0.00000     13.70619         0.018501      0.000604     -0.740575
      0.00115     10.29221     16.87796         0.000817     -0.002779      0.001639
      9.66648      0.00017     17.05109        -0.000019      0.000264     -0.001669
      9.66442     10.29194     20.37711         0.001854      0.003087      0.005756
      0.00036     11.76086     20.04252         0.002583      0.000530     -0.005686
      9.67012      1.47024      7.25944        -0.002870     -0.000787     -4.004250
      0.00000      2.94048      7.25944         0.001872     -0.000770      3.053331
      0.00000      1.47024     10.48281         0.007414      0.000289      0.578836
      9.67012      2.94048     10.48281        -0.009213     -0.001090     -0.868378
      9.67012      1.47024     13.70619        -0.034178     -0.048227      0.662002
      0.00000      2.94048     13.70619         0.022349     -0.003398     -0.744904
      0.00102      1.46957     16.87809         0.000342      0.002980      0.001909
      9.67173      2.93860     17.03881         0.001554      0.004205      0.000937
      9.66386      1.46328     20.37755         0.001716     -0.001522      0.006442
     12.89199      2.93720     20.04294        -0.000028      0.005218     -0.001620
      9.67012      4.41072      7.25944        -0.002568     -0.001505     -4.003481
      0.00000      5.88095      7.25944         0.001928     -0.000429      3.054286
      0.00000      4.41072     10.48281         0.007784      0.000227      0.579078
      9.67012      5.88095     10.48281        -0.008962      0.000293     -0.868597
      9.67012      4.41072     13.70619        -0.048585      0.023454      0.645118
      0.00000      5.88095     13.70619         0.021209     -0.000385     -0.747858
      0.00308      4.41013     16.87522         0.001785      0.002651      0.000878
      9.68084      5.88064     17.04452         0.000003     -0.000685      0.000424
      9.68599      4.39167     20.34329         0.001258     -0.002887      0.000869
      0.01067      5.88128     20.04018         0.000359     -0.001244      0.001385
      3.22337      7.35119      7.25944         0.002364      0.000146     -4.000495
      6.44675      8.82143      7.25944        -0.002022      0.001361      3.063790
      6.44675      7.35119     10.48281        -0.007373      0.011577      0.606473
      3.22337      8.82143     10.48281         0.009241      0.000580     -0.846456
      3.22337      7.35119     13.70619         0.046770     -0.017295      0.716964
      6.44675      8.82143     13.70619        -0.015411     -0.057525     -0.600415
      6.45092      7.32233     16.91559        -0.000428     -0.003842      0.001331
      3.22812      8.82082     17.04946        -0.000321     -0.005071     -0.001534
      3.22727      7.35292     20.37354         0.000960      0.002225      0.000850
      6.44434      8.82573     19.99986         0.003276      0.001286      0.000837
      3.22337     10.29167      7.25944         0.002666      0.001453     -4.001316
      6.44675      0.00000      7.25944        -0.001947      0.000599      3.062558
      6.44675     10.29167     10.48281        -0.007021      0.001132      0.609515
      3.22337      0.00000     10.48281         0.009585      0.000176     -0.846065
[...]
      6.44675      5.88095     11.74226         0.002607     -0.000806     -0.074413
      4.48281      4.41072     10.48281         0.543293      0.000569      0.056771
      8.41068      4.41072     10.48281        -0.534990      0.000647      0.059656
      3.22337      5.88095     12.44675        -0.008002      0.002701     -0.159723
      3.22337      5.88095     14.96563        -0.019278      0.000072      0.216946
      7.70619      4.41072     13.70619        -0.386346      0.024919      0.074769
      5.18731      4.41072     13.70619         0.426654      0.026846      0.075194
      6.45005      5.87907     15.69607         0.000299      0.000242     -0.006455
      6.43829      5.88298     18.24672         0.001494      0.000313      0.003313
      4.50370      4.41081     16.95948         0.003495     -0.002539      0.000996
      8.39110      4.41035     16.97086        -0.000873     -0.000877      0.000254
      3.21344      5.88376     18.91991         0.004794     -0.000012      0.007401
      3.24706      5.88321     21.46605        -0.001617     -0.000520      0.000162
      7.68538      4.36768     20.22957        -0.004234     -0.002529      0.006271
      5.24109      4.39885     20.33095         0.004955     -0.000783      0.002790
    total drift:                                0.018484      0.001106      0.060488

  FREE ENERGIE OF THE ION-ELECTRON SYSTEM (eV)
  free  energy   TOTEN  =     -2655.83171535 eV

  energy  without entropy=    -2655.83171535  energy(sigma->0) =    -2655.83171535

 d Force = 0.8920534E-04[ 0.601E-04, 0.118E-03]  d Energy = 0.8872077E-04 0.485E-06
 d Force = 0.4197768E+01[ 0.420E+01, 0.420E+01]  d Ewald  = 0.4197767E+01 0.385E-06

 Conjugate gradient step on ions:
 trial-energy change:   -0.000089  1 .order   -0.000089   -0.000118   -0.000060
  (g-gl).g = 0.274E-03      g.g   = 0.272E-03  gl.gl    = 0.251E-03
 g(Force)  = 0.272E-03   g(Stress)= 0.000E+00 ortho     =-0.150E-05
 gamma     =   1.09101
 trial     =   0.43703
 opt step  =   0.94377  (harmonic =   0.88905) maximal distance =0.00188024
 next E    = -2655.831749   (d E  =  -0.00012)

 reached required accuracy - stopping structural energy minimisation