 vasp.6.3.0 20Jan22 (build Mar 11 2022 13:48:16) complex

 executed on             LinuxIFC date 2023.12.30  09:05:42

 INCAR:
   SYSTEM = TiO2
   ISMEAR = 0
   SIGMA = 0.05
   EDIFF = 1E-7
   ALGO = ALL
   ISTART = 0
   IBRION = 2
   NSW = 1000
   ISYM = 0
   ISIF = 2
   EDIFFG = -0.02
   DIPOL = 0.5 0.5 0.5
   IDIPOL = 3
   LDIPOL = .TRUE.
   LHFCALC = .TRUE.
   HFSCREEN = 0.2
   GGA = PE
   IVDW = 13
   VDW_S8 = 1.19528249
   VDW_A1 = 0.38663183
   VDW_A2 = 5.19133469
   ENCUT = 520
   PREC = Normal
   PRECFOCK = Fast
   LASPH = .TRUE.
   LREAL = .FALSE.
   ISPIN = 1
   NKREDX = 2
   NKREDY = 2
   NELM = 200
   NELMIN = 8
   NCORE = 19
   KPAR = 1
   LWAVE = .FALSE.
   LCHARG = .FALSE.

 POTCAR:    PAW_PBE C 08Apr2002
 POTCAR:    PAW_PBE O 08Apr2002
 POTCAR:    PAW_PBE H 15Jun2001
 POTCAR:    PAW_PBE Ti 08Apr2002
 POTCAR:    PAW_PBE O 08Apr2002
 POTCAR:    PAW_PBE C 08Apr2002
   VRHFIN =C: s2p2

   TITEL  = PAW_PBE C 08Apr2002
   POMASS =   12.011; ZVAL   =    4.000    mass and valenz
   ENMAX  =  400.000; ENMIN  =  300.000 eV

[...]

   TITEL  = PAW_PBE H 15Jun2001
   POMASS =    1.000; ZVAL   =    1.000    mass and valenz
   ENMAX  =  250.000; ENMIN  =  200.000 eV

[...]

   TITEL  = PAW_PBE O 08Apr2002
   POMASS =   16.000; ZVAL   =    6.000    mass and valenz
   ENMAX  =  400.000; ENMIN  =  300.000 eV

  PAW_PBE C 08Apr2002                   :
  PAW_PBE O 08Apr2002                   :
  PAW_PBE H 15Jun2001                   :
  PAW_PBE Ti 08Apr2002                  :
  PAW_PBE O 08Apr2002                   :

 POSCAR:  C  O  H Ti  O
  positions in direct lattice
  velocities in cartesian coordinates
|           W    W    AA    RRRRR   N    N  II  N    N   GGGG   !!!           |
|           W    W   A  A   R    R  NN   N  II  NN   N  G    G  !!!           |
|           W    W  A    A  R    R  N N  N  II  N N  N  G       !!!           |
|           W WW W  AAAAAA  RRRRR   N  N N  II  N  N N  G  GGG   !            |
|           WW  WW  A    A  R   R   N   NN  II  N   NN  G    G                |
|           W    W  A    A  R    R  N    N  II  N    N   GGGG   !!!           |
|     Specifying the vdW parameters                                           |
|     VDW_S8 = 1.195                                                          |
|     VDW_A1 = 0.387                                                          |
|     VDW_A2 = 5.191                                                          |
|     in the INCAR file will overwrite the defaults for hse06. Please         |
|     make sure that is what you intended.                                    |

 ion  position               nearest neighbor table
   1  0.509  0.588  0.844-   3 1.09   5 1.09   6 1.09   2 1.43
   2  0.539  0.500  0.811-   4 0.99   1 1.43  86 2.13
   3  0.425  0.596  0.842-   1 1.09
   4  0.615  0.495  0.810-   2 0.99
   5  0.532  0.564  0.881-   1 1.09
   6  0.546  0.668  0.835-   1 1.09
   7  0.750  0.625  0.264-  88 1.94 148 1.94 147 1.94  87 1.94 169 1.97  90 1.97  17 2.94  37 2.94

   8  0.000  0.750  0.264-  90 1.94 110 1.94 109 1.94  89 1.94  91 1.97  38 2.94  18 2.94
   9  0.000  0.625  0.382-  92 1.94 152 1.94 151 1.94  91 1.94  93 1.97  94 1.97  19 2.94  39 2.94

[...]

  87  0.750  0.750  0.218-   7 1.94  17 1.94
  88  0.750  0.750  0.311-   7 1.94  17 1.94  10 1.97
  89  0.098  0.625  0.264-   8 1.94  38 1.94  47 1.97
  90  0.902  0.625  0.264-   8 1.94  38 1.94   7 1.97
  91  0.000  0.750  0.336-   9 1.94  19 1.94   8 1.97
  92  0.000  0.750  0.428-   9 1.94  19 1.94  12 1.97
  93  0.848  0.625  0.382-  10 1.94  40 1.94   9 1.97
  94  0.152  0.625  0.382-  50 1.94  80 1.94   9 1.97
  95  0.750  0.750  0.454-  11 1.94  21 1.94  10 1.97
  96  0.750  0.750  0.546-  11 1.94  21 1.94  14 2.07
  97  0.098  0.625  0.500-  12 1.94  42 1.94  51 1.97
  98  0.902  0.625  0.500-  12 1.94  42 1.94  11 1.97
  99  0.000  0.750  0.572-  23 1.89  13 1.89  12 1.98
 100  0.999  0.750  0.665-  16 1.81  13 2.00  23 2.00
 101  0.850  0.625  0.618-  13 1.95  44 1.96  14 1.96
 102  0.150  0.625  0.618-  13 1.94  54 1.96  84 1.97
 103  0.754  0.751  0.690-  14 1.87  15 2.05  25 2.07
 104  0.748  0.749  0.782-  15 1.83  25 1.84
 105  0.094  0.625  0.742-  46 1.93  16 1.94  55 2.02
 106  0.907  0.624  0.743-  46 1.93  16 1.94  15 2.01
 107  0.750  0.000  0.218-  17 1.94  27 1.94
 108  0.750  0.000  0.311-  17 1.94  27 1.94  20 1.97
 109  0.098  0.875  0.264-   8 1.94  18 1.94  57 1.97
 110  0.902  0.875  0.264-   8 1.94  18 1.94  17 1.97
 111  0.000  0.000  0.336-  19 1.94  29 1.94  18 1.97
 112  0.000  0.000  0.428-  19 1.94  29 1.94  22 1.97
 113  0.848  0.875  0.382-  10 1.94  20 1.94  19 1.97
 114  0.152  0.875  0.382-  50 1.94  60 1.94  19 1.97
 115  0.750  0.000  0.454-  21 1.94  31 1.94  20 1.97
 116  0.750  0.000  0.546-  21 1.94  31 1.94  24 2.08
 117  0.098  0.875  0.500-  12 1.94  22 1.94  61 1.97
 118  0.902  0.875  0.500-  12 1.94  22 1.94  21 1.97
 119  0.000  0.000  0.572-  33 1.89  23 1.89  22 1.98
 120  1.000  1.000  0.665-  26 1.81  23 2.00  33 2.00
 121  0.850  0.876  0.618-  23 1.94  14 1.96  24 1.96
 122  0.150  0.875  0.619-  23 1.94  64 1.96  54 1.97
 123  0.750  1.000  0.690-  24 1.87  35 2.06  25 2.06
 124  0.750  1.000  0.783-  35 1.83  25 1.83
 125  0.094  0.875  0.742-  16 1.93  26 1.93  65 2.03
 126  0.907  0.875  0.743-  16 1.93  26 1.93  25 2.03
 127  0.750  0.250  0.218-  27 1.94  37 1.94
 128  0.750  0.250  0.311-  27 1.94  37 1.94  30 1.97
 129  0.098  0.125  0.264-  18 1.94  28 1.94  67 1.97
 130  0.902  0.125  0.264-  18 1.94  28 1.94  27 1.97
 131  0.000  0.250  0.336-  29 1.94  39 1.94  28 1.97
 132  0.000  0.250  0.428-  29 1.94  39 1.94  32 1.97
 133  0.848  0.125  0.382-  20 1.94  30 1.94  29 1.97
 134  0.152  0.125  0.382-  60 1.94  70 1.94  29 1.97
 135  0.750  0.250  0.454-  31 1.94  41 1.94  30 1.97
 136  0.750  0.250  0.546-  31 1.94  41 1.94  34 2.07
 137  0.098  0.125  0.500-  22 1.94  32 1.94  71 1.97
 138  0.902  0.125  0.500-  22 1.94  32 1.94  31 1.97
 139  0.000  0.250  0.572-  33 1.89  43 1.89  32 1.98
 140  1.000  0.250  0.665-  36 1.81  43 2.00  33 2.00
 141  0.850  0.125  0.618-  33 1.94  24 1.96  34 1.96
 142  0.150  0.125  0.619-  33 1.94  64 1.96  74 1.96
 143  0.753  0.250  0.690-  34 1.88  45 2.04  35 2.07
 144  0.750  0.251  0.782-  45 1.82  35 1.84
 145  0.094  0.125  0.742-  36 1.93  26 1.93  75 2.03
 146  0.907  0.125  0.742-  36 1.93  26 1.93  35 2.03
[...]
 232  0.500  0.500  0.428-  49 1.94  79 1.94  82 1.97
 233  0.348  0.375  0.382-  70 1.94  80 1.94  79 1.97
 234  0.652  0.375  0.382-  30 1.94  40 1.94  79 1.97
 235  0.250  0.500  0.454-  51 1.94  81 1.94  80 1.97
 236  0.250  0.500  0.546-  51 1.94  81 1.94  84 2.08
 237  0.598  0.375  0.500-  72 1.94  82 1.94  41 1.97
 238  0.402  0.375  0.500-  72 1.94  82 1.94  81 1.97
 239  0.500  0.500  0.573-  53 1.89  83 1.89  82 1.99
 240  0.499  0.500  0.665-  86 1.92  53 1.96  83 1.96
 241  0.349  0.375  0.619-  84 1.95  74 1.95  83 1.95
 242  0.651  0.375  0.619-  83 1.95  34 1.95  44 1.96
 243  0.250  0.500  0.690-  84 1.87  55 2.06  85 2.07
 244  0.252  0.500  0.782-  55 1.83  85 1.83
 245  0.596  0.371  0.738-  76 1.91  86 1.94  45 2.01
 246  0.407  0.374  0.741-  76 1.92  86 1.93  85 2.02

IMPORTANT INFORMATION: All symmetrisations will be switched off!
NOSYMM: (Re-)initialisation of all symmetry stuff for point group C_1.

                                     Primitive cell

  volume of cell :    4180.4259

  direct lattice vectors                    reciprocal lattice vectors
    12.939701814  0.000000000  0.000000000     0.077281534  0.000000000  0.000000000
     0.000000000 11.760793336  0.000000000     0.000000000  0.085028278  0.000000000
     0.000000000  0.000000000 27.470062065     0.000000000  0.000000000  0.036403267

  length of vectors
    12.939701814 11.760793336 27.470062065     0.077281534  0.085028278  0.036403267

  position of ions in fractional coordinates (direct lattice)
     0.508714236  0.587696290  0.844149838
     0.539112666  0.500088530  0.810976623
     0.425130155  0.595789958  0.842180591
     0.615486270  0.494896700  0.809721136
     0.531798900  0.563575052  0.880869241
     0.545792729  0.668277111  0.834649912
     0.750000000  0.625000000  0.264476291
     0.000000000  0.750000000  0.264476291
     0.000000000  0.625000000  0.382238145
     0.750000000  0.750000000  0.382238145
     0.750000000  0.625000000  0.500000000
     0.000000000  0.750000000  0.500000000
     0.000653989  0.625038257  0.615455397
     0.750532825  0.750169825  0.621387115
     0.751054503  0.626069165  0.741446754
     0.000026411  0.750191404  0.730742940
     0.750000000  0.875000000  0.264476291
     0.000000000  0.000000000  0.264476291
     0.000000000  0.875000000  0.382238145
     0.750000000  0.000000000  0.382238145
     0.750000000  0.875000000  0.500000000
     0.000000000  0.000000000  0.500000000
     0.000131669  0.875015753  0.615537661
     0.749693847  0.000030487  0.621795650
     0.749815200  0.875155882  0.742786070
     0.000227073  0.999916480  0.730730673
     0.750000000  0.125000000  0.264476291
     0.000000000  0.250000000  0.264476291
     0.000000000  0.125000000  0.382238145
     0.750000000  0.250000000  0.382238145
     0.750000000  0.125000000  0.500000000
     0.000000000  0.250000000  0.500000000
     0.999982733  0.124928585  0.615554693
     0.750062280  0.249835820  0.621404725
     0.749713788  0.124515761  0.742822988
     0.000124508  0.249723813  0.730755576
     0.750000000  0.375000000  0.264476291
     0.000000000  0.500000000  0.264476291
     0.000000000  0.375000000  0.382238145
     0.750000000  0.500000000  0.382238145
     0.750000000  0.375000000  0.500000000
     0.000000000  0.500000000  0.500000000
     0.000446737  0.374928723  0.615453824
     0.751221533  0.499952429  0.621581485
     0.751445400  0.373540850  0.741658645
     0.000971536  0.500030131  0.730649823
     0.250000000  0.625000000  0.264476291
     0.500000000  0.750000000  0.264476291
     0.500000000  0.625000000  0.382238145
     0.250000000  0.750000000  0.382238145
     0.250000000  0.625000000  0.500000000
     0.500000000  0.750000000  0.500000000
     0.500744869  0.622572856  0.616978191
     0.250603544  0.749921497  0.621721171
     0.250530849  0.625182637  0.742650959
     0.500251637  0.750419023  0.729263813
     0.250000000  0.875000000  0.264476291
     0.500000000  0.000000000  0.264476291
     0.500000000  0.875000000  0.382238145
     0.250000000  0.000000000  0.382238145
[...]
     0.500000000  0.500000000  0.428294835
     0.347775060  0.375000000  0.382238145
     0.652224940  0.375000000  0.382238145
     0.250000000  0.500000000  0.453943310
     0.250000000  0.500000000  0.546056690
     0.597775060  0.375000000  0.500000000
     0.402224940  0.375000000  0.500000000
     0.500349941  0.499872376  0.572509957
     0.499480611  0.500216124  0.665397074
     0.349441872  0.374960505  0.618501927
     0.650871503  0.375022224  0.618968235
     0.249642722  0.500251342  0.689852760
     0.251947653  0.500221509  0.782431114
     0.596237957  0.371473704  0.737729363
     0.406841317  0.374137162  0.741352180

  ion indices of the primitive-cell ions
[...]
[...]
   6.46985091  5.88039667 11.76528570
   4.50010558  4.41029750 10.50010558
   8.43959623  4.41029750 10.50010558
   3.23492545  5.88039667 12.46985091
   3.23492545  5.88039667 15.00021116
   7.73503103  4.41029750 13.73503103
   5.20467078  4.41029750 13.73503103
   6.47437904  5.87889571 15.72688404
   6.46313017  5.88293846 18.27849891
   4.52167363  4.40983301 16.99028632
   8.42208317  4.41055888 17.00309583
   3.23030238  5.88335265 18.95029812
   3.26012750  5.88300179 21.49343126
   7.71514137  4.36882547 20.26547140
   5.26440532  4.40014984 20.36499039

--------------------------------------- Iteration      FINAL  ---------------------------------------

--------------------OUTCAR has been truncated-------------------------

[...]

--------------------OUTCAR has been truncated-------------------------

  FORCE on cell =-STRESS in cart. coord.  units (eV):
  Direction    XX          YY          ZZ          XY          YZ          ZX
  Alpha Z  3345.29620  3345.29620  3345.29620
  Ewald  348687.72094353762.64379************   -72.06362   129.15282   -86.59693
  Hartree371044.05438372252.24454************   -38.60049    73.37265   -56.58151
  E(xc)   -4690.57127 -4741.51388 -4690.91039    -0.02974     0.12079    -0.02622
  Local  ************************732434.82733   104.43137  -193.08925   139.59743
  n-local -2911.34187 -2803.53130 -2965.57021    -0.87316     1.42446    -0.59337
  augment  1343.67497  1324.48024  1349.41392     0.48814    -0.80583     0.22130
  Kinetic 23609.61571 23085.17991 23673.43523     6.65510   -10.55802     3.96787
  Fock    -2148.47963 -2173.52700 -2150.34449    -0.06930     0.19115     0.06444
  vdW       -51.02480   -51.11162   -44.65266     0.00300    -0.00211     0.00466
  Total      10.36505   -43.01019   -33.42898    -0.05869    -0.19334     0.05766
  in kB       3.97248   -16.48395   -12.81189    -0.02249    -0.07410     0.02210

 VOLUME and BASIS-vectors are now :
  energy-cutoff  :      520.00
  volume of cell :     4180.43
      direct lattice vectors                 reciprocal lattice vectors
    12.939701814  0.000000000  0.000000000     0.077281534  0.000000000  0.000000000
     0.000000000 11.760793336  0.000000000     0.000000000  0.085028278  0.000000000
     0.000000000  0.000000000 27.470062065     0.000000000  0.000000000  0.036403267

  length of vectors
    12.939701814 11.760793336 27.470062065     0.077281534  0.085028278  0.036403267

 FORCES acting on ions:
    Electron-Ion                     Ewald-Force                    Non-Local-Force
   0.404E+02 -.900E+02 -.100E+04   -.432E+02 0.953E+02 0.101E+04   0.264E+01 -.497E+01 -.478E+01
   0.301E+02 0.125E+03 -.151E+04   -.525E+02 -.151E+03 0.150E+04   0.197E+02 0.227E+02 0.914E+01
   0.595E+02 -.144E+02 -.240E+03   -.655E+02 0.149E+02 0.240E+03   0.583E+01 -.543E+00 0.238E+00
   -.716E+02 0.161E+02 -.265E+03   0.796E+02 -.168E+02 0.265E+03   -.762E+01 0.642E+00 0.322E+00
   -.115E+02 0.705E+01 -.246E+03   0.131E+02 -.856E+01 0.252E+03   -.151E+01 0.144E+01 -.532E+01
   -.187E+02 -.624E+02 -.236E+03   0.212E+02 0.674E+02 0.235E+03   -.247E+01 -.487E+01 0.121E+01
   -.248E+00 -.479E-01 0.966E+03   0.246E+00 0.483E-01 -.968E+03   -.211E-03 0.220E-03 -.124E+01
   -.408E-01 -.967E-01 0.104E+04   0.421E-01 0.972E-01 -.104E+04   0.370E-03 0.221E-03 -.184E+01
   -.756E-01 -.324E-01 0.502E+03   0.805E-01 0.324E-01 -.501E+03   0.160E-02 0.708E-04 0.182E+00
   -.208E+00 -.743E-01 0.498E+03   0.201E+00 0.749E-01 -.499E+03   -.174E-02 0.435E-03 -.169E+00
   -.585E+00 -.137E+00 0.715E+01   0.550E+00 0.125E+00 -.674E+01   -.115E-01 -.661E-02 0.162E+00
   -.282E+00 -.360E+00 0.662E+01   0.297E+00 0.364E+00 -.724E+01   0.659E-03 -.122E-02 -.767E-01
   -.174E+01 -.729E+00 -.479E+03   0.169E+01 0.733E+00 0.480E+03   0.144E-01 -.563E-02 -.529E-01
   -.327E+01 -.370E+01 -.482E+03   0.328E+01 0.371E+01 0.482E+03   -.155E-01 -.602E-02 0.339E-01
   -.400E+02 -.805E+01 -.925E+03   0.401E+02 0.775E+01 0.924E+03   0.160E+00 0.745E-01 0.145E+00
   -.206E+01 -.261E+01 -.974E+03   0.207E+01 0.255E+01 0.975E+03   -.412E-01 -.810E-02 0.655E+00
   -.230E+00 -.113E+00 0.966E+03   0.227E+00 0.114E+00 -.969E+03   -.236E-03 0.620E-03 -.124E+01
   -.378E-01 -.386E-01 0.104E+04   0.391E-01 0.389E-01 -.104E+04   0.364E-03 0.125E-03 -.184E+01
   -.651E-01 -.813E-01 0.502E+03   0.699E-01 0.813E-01 -.501E+03   0.157E-02 0.557E-04 0.182E+00
   -.218E+00 -.409E-01 0.498E+03   0.211E+00 0.408E-01 -.499E+03   -.194E-02 -.692E-04 -.169E+00
   -.800E+00 -.429E+00 0.647E+01   0.775E+00 0.453E+00 -.605E+01   -.732E-02 0.140E-01 0.166E+00
   -.214E+00 -.124E+00 0.607E+01   0.228E+00 0.125E+00 -.669E+01   0.187E-02 0.165E-03 -.757E-01
   -.118E+01 -.121E+01 -.481E+03   0.117E+01 0.122E+01 0.481E+03   0.455E-02 -.724E-02 -.538E-01
   -.216E+01 -.767E+00 -.489E+03   0.218E+01 0.763E+00 0.488E+03   -.235E-01 0.156E-02 0.400E-01
   -.122E+02 -.114E+02 -.944E+03   0.122E+02 0.114E+02 0.943E+03   0.289E-01 0.126E-01 0.452E-01
   -.185E+01 -.937E+00 -.977E+03   0.184E+01 0.936E+00 0.977E+03   0.173E-01 -.112E-02 0.688E+00
   -.220E+00 0.476E-01 0.966E+03   0.218E+00 -.480E-01 -.969E+03   -.247E-03 -.254E-03 -.124E+01
   -.402E-01 0.965E-01 0.104E+04   0.415E-01 -.970E-01 -.104E+04   0.375E-03 -.220E-03 -.184E+01
   -.650E-01 0.330E-01 0.502E+03   0.699E-01 -.329E-01 -.501E+03   0.160E-02 -.418E-04 0.182E+00
   -.194E+00 0.744E-01 0.498E+03   0.187E+00 -.750E-01 -.499E+03   -.171E-02 -.439E-03 -.169E+00
   -.751E+00 0.173E+00 0.623E+01   0.724E+00 -.197E+00 -.581E+01   -.654E-02 -.141E-01 0.165E+00
   -.284E+00 0.348E+00 0.638E+01   0.301E+00 -.353E+00 -.700E+01   0.176E-02 0.162E-02 -.756E-01
   -.962E+00 0.617E+00 -.481E+03   0.954E+00 -.615E+00 0.482E+03   0.274E-02 0.533E-02 -.511E-01
   -.308E+01 0.361E+01 -.484E+03   0.311E+01 -.361E+01 0.484E+03   -.181E-01 -.764E-03 0.252E-01
   -.886E+01 0.632E+01 -.946E+03   0.887E+01 -.627E+01 0.945E+03   0.237E-01 -.480E-02 0.350E-01
   -.181E+01 0.245E+01 -.976E+03   0.181E+01 -.238E+01 0.976E+03   -.333E-01 0.718E-02 0.660E+00
   -.239E+00 0.113E+00 0.966E+03   0.237E+00 -.114E+00 -.968E+03   -.222E-03 -.586E-03 -.124E+01
   -.432E-01 0.387E-01 0.104E+04   0.445E-01 -.390E-01 -.104E+04   0.380E-03 -.126E-03 -.184E+01
   -.757E-01 0.808E-01 0.502E+03   0.808E-01 -.808E-01 -.501E+03   0.165E-02 -.108E-03 0.182E+00
   -.185E+00 0.409E-01 0.498E+03   0.178E+00 -.407E-01 -.499E+03   -.174E-02 0.483E-04 -.169E+00
   -.522E+00 0.394E+00 0.692E+01   0.486E+00 -.382E+00 -.651E+01   -.109E-01 0.687E-02 0.161E+00
   -.331E+00 0.125E+00 0.693E+01   0.347E+00 -.125E+00 -.755E+01   0.680E-03 -.227E-04 -.790E-01
   -.170E+01 0.135E+01 -.480E+03   0.168E+01 -.135E+01 0.480E+03   0.911E-02 0.480E-02 -.532E-01
   -.353E+01 0.750E+00 -.479E+03   0.350E+01 -.746E+00 0.478E+03   -.352E-01 0.306E-02 0.326E-01
   -.339E+02 0.126E+02 -.930E+03   0.339E+02 -.123E+02 0.929E+03   0.122E+00 -.978E-01 0.134E+00
   -.315E+01 0.109E+01 -.973E+03   0.310E+01 -.109E+01 0.973E+03   0.361E-01 0.304E-02 0.618E+00
   0.248E+00 -.443E-01 0.966E+03   -.246E+00 0.444E-01 -.968E+03   0.211E-03 0.864E-04 -.124E+01
   0.410E-01 -.126E+00 0.104E+04   -.423E-01 0.127E+00 -.104E+04   -.374E-03 0.380E-03 -.183E+01
   0.722E-01 0.124E-01 0.502E+03   -.768E-01 -.390E-02 -.502E+03   -.168E-02 0.246E-02 0.190E+00
   0.212E+00 -.579E-01 0.498E+03   -.205E+00 0.583E-01 -.499E+03   0.174E-02 0.228E-03 -.165E+00
   0.790E+00 -.487E-01 0.640E+01   -.754E+00 0.396E-01 -.595E+01   0.798E-02 -.492E-02 0.178E+00
   0.391E+00 -.453E+00 0.863E+01   -.398E+00 0.389E+00 -.912E+01   -.812E-02 0.112E-01 -.734E-01
   0.152E+01 -.382E+01 -.471E+03   -.157E+01 0.414E+01 0.472E+03   0.234E-01 -.113E+00 -.862E-02
   0.550E+01 -.281E+01 -.486E+03   -.554E+01 0.282E+01 0.485E+03   0.245E-02 0.425E-02 0.444E-01
   0.259E+02 -.615E+01 -.931E+03   -.259E+02 0.613E+01 0.930E+03   0.347E-01 0.399E-02 0.193E-01
   0.906E+01 -.329E+02 -.940E+03   -.908E+01 0.331E+02 0.941E+03   -.131E+00 -.472E-01 0.796E+00
   0.229E+00 -.108E+00 0.966E+03   -.227E+00 0.109E+00 -.969E+03   0.234E-03 0.555E-03 -.124E+01
   0.379E-01 -.534E-01 0.104E+04   -.392E-01 0.537E-01 -.104E+04   -.366E-03 0.156E-03 -.183E+01
   0.616E-01 -.631E-01 0.502E+03   -.660E-01 0.643E-01 -.502E+03   -.164E-02 -.403E-03 0.190E+00
   0.222E+00 -.414E-01 0.498E+03   -.215E+00 0.415E-01 -.499E+03   0.178E-02 0.120E-03 -.165E+00
[...]
   -.254E+02 0.992E-01 0.749E+03   0.298E+02 -.100E+00 -.749E+03   -.344E+01 0.149E-02 0.185E+00
   0.255E+02 0.112E+00 0.749E+03   -.299E+02 -.113E+00 -.750E+03   0.345E+01 0.155E-02 0.194E+00
   0.566E+00 0.150E+00 0.323E+03   -.544E+00 -.152E+00 -.328E+03   -.256E-01 0.384E-02 0.410E+01
   0.231E+01 0.593E+00 -.309E+03   -.228E+01 -.595E+00 0.316E+03   -.335E-01 0.158E-02 -.665E+01
   -.249E+02 0.274E+00 0.128E+02   0.301E+02 -.282E+00 -.129E+02   -.489E+01 0.281E-01 0.217E+00
   0.257E+02 0.211E+00 0.122E+02   -.309E+02 -.222E+00 -.123E+02   0.494E+01 0.325E-01 0.210E+00
   0.914E+00 0.107E+01 -.401E+03   -.924E+00 -.115E+01 0.393E+03   0.899E-02 0.729E-01 0.656E+01
   0.947E+01 0.406E+01 -.101E+04   -.995E+01 -.398E+01 0.101E+04   0.413E+00 -.619E-01 -.262E+01
   -.633E+01 0.424E+01 -.716E+03   0.101E+02 -.449E+01 0.715E+03   -.326E+01 0.217E+00 0.977E+00
   0.889E+01 0.495E+01 -.715E+03   -.123E+02 -.491E+01 0.714E+03   0.300E+01 -.302E-01 0.575E+00
   0.212E+02 0.276E+01 -.113E+04   -.213E+02 -.284E+01 0.113E+04   0.798E-01 0.619E-01 -.180E+01
   0.613E+02 0.112E+02 -.166E+04   -.611E+02 -.113E+02 0.168E+04   -.160E+00 0.765E-01 -.196E+02
   -.201E+02 0.632E+02 -.138E+04   0.268E+02 -.632E+02 0.139E+04   -.583E+01 -.538E-01 -.846E+00
   0.391E+02 0.473E+02 -.143E+04   -.459E+02 -.471E+02 0.144E+04   0.597E+01 -.187E+00 -.310E+01
   -.164E+02 -.179E+02 0.904E+02   -.176E-11 -.917E-12 -.978E-11   0.141E+02 0.149E+02 -.842E+02

 POSITION                                       TOTAL-FORCE (eV/Angst)
      6.58263      6.91124     23.18843        -0.017230      0.001696     -0.000833
      6.97579      5.88074     22.27729         0.012540     -0.005103      0.001586
      5.50064      7.00612     23.13466         0.008664     -0.011862     -0.000416
      7.96391      5.82014     22.24294        -0.011141     -0.006013     -0.003683
      6.88129      6.62770     24.19766        -0.000178     -0.006272     -0.003206
      7.06231      7.85979     22.92802        -0.005219     -0.007509      0.001292
      9.70478      7.35050      7.26518        -0.002407      0.000609     -3.961917
      0.00000      8.82060      7.26518         0.001624      0.000787      3.127746
      0.00000      7.35050     10.50011         0.006676      0.000008      0.581916
      9.70478      8.82060     10.50011        -0.009264      0.001121     -0.869360
      9.70478      7.35050     13.73503        -0.048009     -0.019672      0.610507
      0.00000      8.82060     13.73503         0.017746      0.003487     -0.783233
      0.00848      7.35094     16.90660         0.000065      0.000217     -0.000027
      9.71191      8.82254     17.06942         0.001122     -0.000138      0.000417
      9.71849      7.36300     20.36784        -0.001781      0.002888     -0.001214
      0.00024      8.82300     20.07348         0.000609     -0.002803      0.000806
      9.70478     10.29069      7.26518        -0.002703      0.001630     -3.962679
      0.00000      0.00000      7.26518         0.001598      0.000450      3.126895
      0.00000     10.29069     10.50011         0.006441      0.000074      0.581905
      9.70478      0.00000     10.50011        -0.009685     -0.000202     -0.868782
      9.70478     10.29069     13.73503        -0.033893      0.040595      0.625577
      0.00000      0.00000     13.73503         0.018250      0.001353     -0.776925
      0.00172     10.29088     16.90900         0.001172      0.000558     -0.002233
      9.70060      0.00035     17.08057        -0.003583      0.000299      0.001284
      9.70258     10.29246     20.40452         0.002397      0.002203     -0.002529
      0.00299     11.75986     20.07309         0.001872      0.000832      0.000093
      9.70478      1.47010      7.26518        -0.002753     -0.000712     -3.963308
      0.00000      2.94020      7.26518         0.001650     -0.000780      3.127110
      0.00000      1.47010     10.50011         0.006684      0.000023      0.581872
      9.70478      2.94020     10.50011        -0.008914     -0.001100     -0.869650
      9.70478      1.47010     13.73503        -0.034851     -0.041713      0.624830
      0.00000      2.94020     13.73503         0.020739     -0.004244     -0.781801
     12.93950      1.46935     16.90945         0.001539      0.000557     -0.002292
      9.70592      2.93835     17.06986         0.001428      0.000655     -0.000285
      9.70127      1.46453     20.40552         0.002135     -0.001778     -0.002943
      0.00157      2.93688     20.07384         0.001245      0.003589      0.000800
      9.70478      4.41030      7.26518        -0.002434     -0.001521     -3.962537
      0.00000      5.88040      7.26518         0.001713     -0.000418      3.127991
      0.00000      4.41030     10.50011         0.006925     -0.000021      0.581809
      9.70478      5.88040     10.50011        -0.008615      0.000175     -0.870086
      9.70478      4.41030     13.73503        -0.048339      0.020613      0.610505
      0.00000      5.88040     13.73503         0.018964     -0.000717     -0.785702
      0.00580      4.40951     16.90657         0.000315      0.000536      0.000255
      9.72054      5.87989     17.07509        -0.002656      0.000240      0.000738
      9.72352      4.39317     20.37359        -0.002017     -0.002576     -0.002539
      0.01268      5.88075     20.07104         0.002831      0.000284      0.002181
      3.23493      7.35050      7.26518         0.002175      0.000223     -3.959929
      6.46985      8.82060      7.26518        -0.001906      0.001356      3.137319
      6.46985      7.35050     10.50011        -0.006672      0.011847      0.608214
      3.23493      8.82060     10.50011         0.008798      0.000689     -0.850464
      3.23493      7.35050     13.73503         0.045386     -0.014826      0.672015
      6.46985      8.82060     13.73503        -0.012842     -0.057414     -0.627411
      6.47943      7.32179     16.94836        -0.000284      0.001209     -0.000995
      3.24271      8.81960     17.07884         0.000893      0.000820     -0.000033
      3.24192      7.35260     20.40086         0.003755      0.003095      0.000970
      6.47320      8.82606     20.03292        -0.001095     -0.004078      0.000831
      3.23493     10.29069      7.26518         0.002461      0.001464     -3.960710
      6.46985      0.00000      7.26518        -0.001832      0.000590      3.136095
      6.46985     10.29069     10.50011        -0.006344      0.001033      0.611403
      3.23493      0.00000     10.50011         0.009087      0.000163     -0.849887
[...]
      6.46985      5.88040     11.76529         0.002439     -0.000722     -0.148144
      4.50011      4.41030     10.50011         0.474451      0.000606      0.057691
      8.43960      4.41030     10.50011        -0.467049      0.000702      0.060239
      3.23493      5.88040     12.46985        -0.007830      0.002490     -0.080375
      3.23493      5.88040     15.00021        -0.016691     -0.000141      0.058352
      7.73503      4.41030     13.73503        -0.429771      0.025897      0.068970
      5.20467      4.41030     13.73503         0.466476      0.027723      0.072783
      6.47437      5.87889     15.72615         0.000016      0.000253      0.002645
      6.46322      5.88299     18.27902         0.001514      0.000614     -0.007700
      4.52179      4.40998     16.99039         0.000044      0.001530      0.001181
      8.42212      4.41065     17.00306         0.001123      0.000865     -0.000681
      3.23059      5.88341     18.95038         0.002209      0.000577      0.000344
      3.26009      5.88300     21.49329        -0.000712      0.000236      0.002989
      7.71480      4.36890     20.26519         0.005629     -0.001959     -0.001169
      5.26471      4.40036     20.36492        -0.002678     -0.001277      0.000457
    total drift:                                0.026604     -0.000395     -0.009138

  FREE ENERGIE OF THE ION-ELECTRON SYSTEM (eV)
  free  energy   TOTEN  =     -2655.83534636 eV

  energy  without entropy=    -2655.83534636  energy(sigma->0) =    -2655.83534636

 d Force = 0.8962945E-05[ 0.214E-06, 0.177E-04]  d Energy = 0.8551964E-05 0.411E-06
 d Force =-0.7188364E-01[-0.719E-01,-0.719E-01]  d Ewald  =-0.7188366E-01 0.232E-07

 reached required accuracy - stopping structural energy minimisation