 vasp.6.4.2 20Jul23 (build Feb 22 2024 13:53:45) complex
 executed on              LinuxNV date 2024.08.27  16:37:30
 OpenACC runtime initialized ...    4 GPUs detected

 INCAR:
   SYSTEM = Oxide-Surface
   ISMEAR = 0
   SIGMA = 0.05
   EDIFF = 1E-5
   ALGO = Normal
   IBRION = -1
   NSW = 0
   ISYM = 0
   DIPOL = 0.5 0.5 0.5
   IDIPOL = 3
   LDIPOL = .TRUE.
   ISTART = 1
   LHFCALC = .TRUE.
   GGA = PE
   IVDW = 21
   VDW_SR = 0.96
   HFRCUT = -1
   ENCUT = 520
   PREC = Normal
   PRECFOCK = Normal
   LASPH = .TRUE.
   LREAL = Auto
   ISPIN = 1
   NELM = 200
   NELMIN = 8
   NCORE = 1
   KPAR = 1
   LWAVE = .FALSE.
   LCHARG = .FALSE.

 POTCAR:    PAW_PBE Mg_pv 13Apr2007
 POTCAR:    PAW_PBE O 08Apr2002
 POTCAR:    PAW_PBE Mg_pv 13Apr2007
   VRHFIN =Mg: p6s2

   TITEL  = PAW_PBE Mg_pv 13Apr2007
   POMASS =   24.305; ZVAL   =    8.000    mass and valenz
   ENMAX  =  403.929; ENMIN  =  302.947 eV

   TITEL  = PAW_PBE O 08Apr2002
   POMASS =   16.000; ZVAL   =    6.000    mass and valenz
   ENMAX  =  400.000; ENMIN  =  300.000 eV

 Optimization of the real space projectors (new method)

 maximal supplied QI-value         = 18.90
 optimisation between [QCUT,QGAM] = [ 11.53, 23.24] = [ 37.21,151.29] Ry
 Optimized for a Real-space Cutoff    1.21 Angstroem

   l    n(q)    QCUT    max X(q) W(low)/X(q) W(high)/X(q)  e(spline)
   1      8    11.527     2.974    0.16E-03    0.13E-03    0.98E-07
   1      8    11.527     4.279    0.42E-03    0.30E-03    0.22E-06
   0      8    11.527    16.381    0.13E-03    0.20E-03    0.72E-07
   0      8    11.527     5.611    0.88E-04    0.13E-03    0.50E-07
   2      7    11.527     4.652    0.25E-03    0.73E-04    0.51E-07
 Optimization of the real space projectors (new method)

 maximal supplied QI-value         = 24.76
 optimisation between [QCUT,QGAM] = [ 11.64, 23.27] = [ 37.91,151.63] Ry
 Optimized for a Real-space Cutoff    1.04 Angstroem

   l    n(q)    QCUT    max X(q) W(low)/X(q) W(high)/X(q)  e(spline)
   0      7    11.635    20.381    0.14E-03    0.49E-03    0.18E-06
   0      7    11.635    15.268    0.16E-03    0.52E-03    0.19E-06
   1      7    11.635     5.964    0.30E-03    0.44E-03    0.22E-06
   1      7    11.635     5.382    0.27E-03    0.34E-03    0.19E-06
  PAW_PBE Mg_pv 13Apr2007               :
  PAW_PBE O 08Apr2002                   :

 POSCAR: Mg  O
  positions in direct lattice
 exchange correlation table for  LEXCH =        8
   RHO(1)=    0.500       N(1)  =     2000
   RHO(2)=  100.500       N(2)  =     4000

 ion  position               nearest neighbor table
   1  0.124  0.874  0.207-  33 2.11  35 2.11  36 2.11  43 2.11  52 2.11
   2  0.374  0.124  0.207-  34 2.11  35 2.11  36 2.11  44 2.11  51 2.11
   3  0.124  0.124  0.331-  35 2.11  34 2.11  33 2.11  41 2.11  50 2.11  39 2.12
   4  0.374  0.874  0.331-  36 2.11  34 2.11  33 2.11  42 2.11  49 2.11  40 2.12
   5  0.124  0.874  0.456-  47 2.11  40 2.11  56 2.11  39 2.11  33 2.12  37 2.15
   6  0.374  0.124  0.456-  55 2.11  48 2.11  40 2.11  39 2.11  34 2.12  38 2.15
   7  0.124  0.124  0.580-  37 2.11  38 2.11  45 2.11  54 2.11  39 2.11
   8  0.374  0.875  0.579-  40 2.11  38 2.11  37 2.11  46 2.11  53 2.11
   9  0.124  0.374  0.207-  41 2.11  35 2.11  43 2.11  44 2.11  60 2.11
  10  0.374  0.624  0.207-  42 2.11  36 2.11  43 2.11  44 2.11  59 2.11
  11  0.124  0.624  0.331-  43 2.11  41 2.11  42 2.11  33 2.11  58 2.11  47 2.12
  12  0.374  0.374  0.331-  44 2.11  41 2.11  42 2.11  34 2.11  57 2.11  48 2.12
  13  0.124  0.374  0.456-  47 2.11  48 2.11  64 2.11  39 2.11  41 2.12  45 2.15
  14  0.375  0.624  0.456-  63 2.11  48 2.11  40 2.11  47 2.11  42 2.13  46 2.15
  15  0.124  0.624  0.580-  46 2.10  62 2.10  47 2.11  45 2.11  37 2.11
  16  0.374  0.374  0.579-  48 2.11  45 2.11  38 2.11  46 2.11  61 2.11
  17  0.624  0.874  0.207-  49 2.11  36 2.11  51 2.11  52 2.11  59 2.11
  18  0.874  0.124  0.207-  50 2.11  35 2.11  51 2.11  52 2.11  60 2.11
  19  0.624  0.124  0.331-  51 2.11  49 2.11  50 2.11  34 2.11  57 2.11  55 2.12
  20  0.874  0.874  0.331-  52 2.11  49 2.11  50 2.11  33 2.11  58 2.11  56 2.12
  21  0.624  0.874  0.456-  63 2.11  56 2.11  40 2.11  55 2.11  49 2.13  53 2.15
  22  0.874  0.124  0.456-  55 2.11  56 2.11  64 2.11  39 2.11  50 2.12  54 2.15
  23  0.624  0.124  0.580-  53 2.10  61 2.10  55 2.11  38 2.11  54 2.11
  24  0.875  0.875  0.579-  56 2.11  54 2.11  37 2.11  53 2.11  62 2.11
  25  0.624  0.374  0.207-  57 2.11  51 2.11  44 2.11  59 2.11  60 2.11
  26  0.874  0.624  0.207-  58 2.11  52 2.11  43 2.11  59 2.11  60 2.11
  27  0.624  0.624  0.331-  59 2.11  49 2.11  57 2.11  58 2.11  42 2.11  63 2.13
  28  0.874  0.374  0.331-  60 2.11  50 2.11  57 2.11  58 2.11  41 2.11  64 2.12
  29  0.624  0.375  0.456-  63 2.11  48 2.11  64 2.11  55 2.11  57 2.13  61 2.15
  30  0.874  0.624  0.456-  63 2.11  56 2.11  64 2.11  47 2.11  58 2.13  62 2.15
  31  0.624  0.624  0.582-  46 2.12  53 2.12  61 2.12  62 2.12  63 2.14
  32  0.875  0.374  0.579-  64 2.11  54 2.11  45 2.11  62 2.11  61 2.11
  33  0.124  0.874  0.331-   1 2.11   3 2.11   4 2.11  11 2.11  20 2.11   5 2.12
  34  0.374  0.124  0.331-   2 2.11   3 2.11   4 2.11  12 2.11  19 2.11   6 2.12
  35  0.124  0.124  0.207-   3 2.11   2 2.11   1 2.11   9 2.11  18 2.11
  36  0.374  0.874  0.207-   4 2.11   2 2.11   1 2.11  10 2.11  17 2.11
  37  0.124  0.875  0.583-   7 2.11   8 2.11  24 2.11  15 2.11   5 2.15
  38  0.374  0.124  0.583-   7 2.11   8 2.11  16 2.11  23 2.11   6 2.15
  39  0.124  0.124  0.456-   7 2.11   6 2.11   5 2.11  13 2.11  22 2.11   3 2.12
  40  0.374  0.874  0.456-   8 2.11   6 2.11   5 2.11  14 2.11  21 2.11   4 2.12
  41  0.124  0.374  0.331-   9 2.11   3 2.11  11 2.11  12 2.11  28 2.11  13 2.12
  42  0.374  0.624  0.331-  10 2.11   4 2.11  11 2.11  12 2.11  27 2.11  14 2.13
  43  0.124  0.624  0.207-  11 2.11   9 2.11  10 2.11   1 2.11  26 2.11
  44  0.374  0.374  0.207-  12 2.11   9 2.11  10 2.11   2 2.11  25 2.11
  45  0.124  0.374  0.583-   7 2.11  16 2.11  32 2.11  15 2.11  13 2.15
  46  0.373  0.624  0.582-  15 2.10   8 2.11  16 2.11  31 2.12  14 2.15
  47  0.124  0.624  0.456-  15 2.11  13 2.11   5 2.11  14 2.11  30 2.11  11 2.12
  48  0.374  0.374  0.456-  16 2.11  13 2.11   6 2.11  14 2.11  29 2.11  12 2.12
  49  0.624  0.874  0.331-  17 2.11   4 2.11  19 2.11  20 2.11  27 2.11  21 2.13
  50  0.874  0.124  0.331-  18 2.11   3 2.11  19 2.11  20 2.11  28 2.11  22 2.12
  51  0.624  0.124  0.207-  19 2.11  17 2.11  18 2.11   2 2.11  25 2.11
  52  0.874  0.874  0.207-  20 2.11  17 2.11  18 2.11   1 2.11  26 2.11
  53  0.624  0.876  0.582-  23 2.10   8 2.11  24 2.11  31 2.12  21 2.15
  54  0.875  0.124  0.583-   7 2.11  24 2.11  32 2.11  23 2.11  22 2.15
  55  0.624  0.124  0.456-  23 2.11  22 2.11   6 2.11  21 2.11  29 2.11  19 2.12
  56  0.874  0.874  0.456-  24 2.11  22 2.11   5 2.11  21 2.11  30 2.11  20 2.12
  57  0.624  0.374  0.331-  25 2.11  19 2.11  12 2.11  27 2.11  28 2.11  29 2.13
  58  0.874  0.624  0.331-  26 2.11  20 2.11  11 2.11  27 2.11  28 2.11  30 2.13
  59  0.624  0.624  0.207-  27 2.11  17 2.11  25 2.11  26 2.11  10 2.11
  60  0.874  0.374  0.207-  28 2.11  18 2.11  25 2.11  26 2.11   9 2.11
  61  0.624  0.373  0.582-  23 2.10  16 2.11  32 2.11  31 2.12  29 2.15
  62  0.876  0.624  0.582-  15 2.10  24 2.11  32 2.11  31 2.12  30 2.15
  63  0.624  0.624  0.456-  14 2.11  21 2.11  29 2.11  30 2.11  27 2.13  31 2.14
  64  0.874  0.374  0.456-  32 2.11  22 2.11  13 2.11  30 2.11  29 2.11  28 2.12

IMPORTANT INFORMATION: All symmetrisations will be switched off!
NOSYMM: (Re-)initialisation of all symmetry stuff for point group C_1.

                                     Primitive cell

  volume of cell :    1211.2538

  direct lattice vectors                    reciprocal lattice vectors
     8.440984654  0.000000000  0.000000000     0.118469591  0.000000000  0.000000000
     0.000000000  8.440984654  0.000000000     0.000000000  0.118469591  0.000000000
     0.000000000  0.000000000 17.000000000     0.000000000  0.000000000  0.058823529

  length of vectors
     8.440984654  8.440984654 17.000000000     0.118469591  0.118469591  0.058823529

  position of ions in fractional coordinates (direct lattice)
     0.124411355  0.874411355  0.206882870
     0.374411355  0.124411355  0.206882870
     0.124411355  0.124411355  0.331014998
     0.374411355  0.874411355  0.331014998
     0.124411355  0.874350623  0.455922972
     0.374472087  0.124411355  0.455922972
     0.124411355  0.124411355  0.579719137
     0.374269682  0.874553028  0.579498600
     0.124411355  0.374411355  0.206882870
     0.374411355  0.624411355  0.206882870
     0.124411355  0.624411355  0.331014998
     0.374411355  0.374411355  0.331014998
     0.124411355  0.374472087  0.455922972
     0.374789734  0.624411355  0.456093975
     0.124411355  0.624411355  0.579555984
     0.374269682  0.374269682  0.579498600
     0.624411355  0.874411355  0.206882870
     0.874411355  0.124411355  0.206882870
     0.624411355  0.124411355  0.331014998
     0.874411355  0.874411355  0.331014998
     0.624411355  0.874032976  0.456093975
     0.874350623  0.124411355  0.455922972
     0.624411355  0.124411355  0.579555984
     0.874553028  0.874553028  0.579498600
     0.624411355  0.374411355  0.206882870
     0.874411355  0.624411355  0.206882870
     0.624411355  0.624411355  0.331014998
     0.874411355  0.374411355  0.331014998
     0.624411355  0.374789734  0.456093975
     0.874032976  0.624411355  0.456093975
     0.624411355  0.624411355  0.582067590
     0.874553028  0.374269682  0.579498600
     0.124411355  0.874411355  0.331014998
     0.374411355  0.124411355  0.331014998
     0.124411355  0.124411355  0.206882870
     0.374411355  0.874411355  0.206882870
     0.124411355  0.874629888  0.582522179
     0.374192822  0.124411355  0.582522179
     0.124411355  0.124411355  0.455579988
     0.374357125  0.874465584  0.455641750
     0.124411355  0.374411355  0.331014998
     0.374411355  0.624411355  0.331014998
     0.124411355  0.624411355  0.206882870
     0.374411355  0.374411355  0.206882870
     0.124411355  0.374192822  0.582522179
     0.373234064  0.624411355  0.582401242
     0.124411355  0.624411355  0.455520732
     0.374357125  0.374357125  0.455641750
     0.624411355  0.874411355  0.331014998
     0.874411355  0.124411355  0.331014998
     0.624411355  0.124411355  0.206882870
     0.874411355  0.874411355  0.206882870
     0.624411355  0.875588645  0.582401242
     0.874629888  0.124411355  0.582522179
     0.624411355  0.124411355  0.455520732
     0.874465584  0.874465584  0.455641750
     0.624411355  0.374411355  0.331014998
     0.874411355  0.624411355  0.331014998
     0.624411355  0.624411355  0.206882870
     0.874411355  0.374411355  0.206882870
     0.624411355  0.373234064  0.582401242
     0.875588645  0.624411355  0.582401242
     0.624411355  0.624411355  0.456108822
     0.874465584  0.374357125  0.455641750

  ion indices of the primitive-cell ions
   primitive index   ion index
                 1           1
                 2           2
                 3           3
                 4           4
                 5           5
                 6           6
[...]
   O         197.449          4.875         19.211          3.55765428
   O         197.331          4.875         19.206          3.55659401
   O         191.077          4.849         18.899          3.49977737
   O         191.839          4.852         18.936          3.50675216
   O         241.861          5.043         21.262          3.93749081
   O         242.711          5.046         21.300          3.94440513
   O         237.682          5.028         21.078          3.90332551
   O         237.553          5.028         21.072          3.90226030
   O         197.449          4.875         19.211          3.55765431
   O         197.428          4.875         19.210          3.55746786
   O         192.457          4.855         18.967          3.51239525
   O         191.313          4.850         18.910          3.50193638
   O         241.861          5.043         21.262          3.93749166
   O         242.592          5.046         21.295          3.94343801
   O         237.675          5.028         21.078          3.90326906
   O         237.682          5.028         21.078          3.90332507
   O         197.370          4.875         19.207          3.55694340
   O         197.446          4.875         19.211          3.55762873
   O         191.839          4.852         18.936          3.50675276
   O         192.457          4.855         18.967          3.51239474
   O         241.275          5.041         21.237          3.93271781
   O         242.653          5.046         21.297          3.94393135

  vdW correction parametrized for the method /H0    þ

  IVDW =  21
  VDW_RADIUS =    50.000 A
  VDW_IDAMPF =  0
  VDW_S6 =     1.000
  VDW_SR =     0.960
  VDW_D =    20.000
  LVDW_ONECELL = F F F
  LVDW_SAMETYPE T T
  LVDW_EWALD = F

  Number of pair interactions contributing to vdW energy:  892088
  Edisp (eV):   -3.88251

 VOLUME and BASIS-vectors are now :
  energy-cutoff  :      520.00
  volume of cell :     1211.25
      direct lattice vectors                 reciprocal lattice vectors
     8.440984654  0.000000000  0.000000000     0.118469591  0.000000000  0.000000000
     0.000000000  8.440984654  0.000000000     0.000000000  0.118469591  0.000000000
     0.000000000  0.000000000 17.000000000     0.000000000  0.000000000  0.058823529

  length of vectors
     8.440984654  8.440984654 17.000000000     0.118469591  0.118469591  0.058823529

 FORCES acting on ions
    electron-ion (+dipol)            ewald-force                    non-local-force                 convergence-correction
   0.309E-03 0.759E-01 0.172E+04   0.182E-13 -.748E-01 -.171E+04   -.143E-02 -.196E-02 -.676E+01   -.307E-05 -.117E-04 -.161E+00
   -.753E-01 0.309E-03 0.172E+04   0.748E-01 0.488E-14 -.171E+04   -.896E-03 -.144E-02 -.676E+01   0.146E-05 0.279E-05 -.161E+00
   0.277E-03 0.272E-03 0.568E+03   -.995E-13 -.213E-13 -.568E+03   -.225E-02 -.225E-02 0.434E+00   -.399E-05 -.280E-05 -.991E-01
   -.439E+00 0.440E+00 0.567E+03   0.441E+00 -.441E+00 -.568E+03   -.273E-02 -.176E-02 0.467E+00   -.119E-04 0.981E-05 -.991E-01
   0.264E-03 0.275E+00 -.574E+03   -.183E-12 -.271E+00 0.575E+03   -.246E-02 -.383E-03 -.179E+00   -.830E-06 -.128E-04 -.406E-03
   -.274E+00 0.272E-03 -.574E+03   0.271E+00 -.995E-13 0.575E+03   -.431E-02 -.221E-02 -.179E+00   0.163E-04 -.630E-05 -.400E-03
   0.264E-03 0.272E-03 -.171E+04   0.249E-13 0.178E-13 0.170E+04   -.152E-03 -.153E-03 0.566E+01   0.520E-06 -.674E-05 0.976E-01
   -.137E+01 0.137E+01 -.171E+04   0.121E+01 -.121E+01 0.170E+04   0.122E+00 -.124E+00 0.572E+01   -.219E-04 0.319E-04 0.975E-01
   0.314E-03 -.753E-01 0.172E+04   0.586E-13 0.748E-01 -.171E+04   -.144E-02 -.904E-03 -.676E+01   -.199E-05 0.803E-05 -.161E+00
   -.114E+00 0.311E-03 0.172E+04   0.115E+00 0.577E-14 -.171E+04   -.224E-02 -.140E-02 -.676E+01   -.101E-04 0.550E-05 -.161E+00
   0.274E-03 0.275E-03 0.568E+03   0.107E-13 -.462E-13 -.568E+03   -.225E-02 -.226E-02 0.414E+00   -.101E-05 0.148E-05 -.991E-01
   -.439E+00 -.439E+00 0.567E+03   0.441E+00 0.441E+00 -.568E+03   -.273E-02 -.273E-02 0.467E+00   -.105E-04 -.706E-05 -.991E-01
   0.270E-03 -.274E+00 -.574E+03   -.114E-12 0.271E+00 0.575E+03   -.222E-02 -.430E-02 -.179E+00   0.118E-06 0.230E-04 -.403E-03
   -.164E+01 0.283E-03 -.576E+03   0.172E+01 -.515E-13 0.576E+03   -.750E-01 -.195E-02 -.236E+00   -.970E-04 -.419E-05 -.240E-03
   0.248E-03 0.292E-03 -.171E+04   -.167E-12 -.497E-13 0.170E+04   -.745E-03 -.690E-03 0.564E+01   0.259E-05 -.671E-05 0.975E-01
   -.137E+01 -.137E+01 -.171E+04   0.121E+01 0.121E+01 0.170E+04   0.122E+00 0.122E+00 0.572E+01   -.225E-04 -.211E-04 0.975E-01
   0.305E-03 0.115E+00 0.172E+04   0.200E-13 -.115E+00 -.171E+04   -.141E-02 -.662E-03 -.676E+01   0.103E-04 -.130E-05 -.161E+00
   0.759E-01 0.308E-03 0.172E+04   -.748E-01 0.888E-15 -.171E+04   -.196E-02 -.143E-02 -.676E+01   -.808E-05 0.704E-06 -.161E+00
   0.274E-03 0.273E-03 0.568E+03   0.142E-13 0.107E-13 -.568E+03   -.226E-02 -.225E-02 0.414E+00   0.519E-05 -.250E-05 -.991E-01
   0.440E+00 0.440E+00 0.567E+03   -.441E+00 -.441E+00 -.568E+03   -.176E-02 -.176E-02 0.467E+00   0.835E-05 0.101E-04 -.991E-01
   0.275E-03 0.164E+01 -.576E+03   -.147E-12 -.172E+01 0.576E+03   -.224E-02 0.714E-01 -.236E+00   -.141E-05 0.955E-04 -.260E-03
   0.275E+00 0.265E-03 -.574E+03   -.271E+00 -.853E-13 0.575E+03   -.365E-03 -.246E-02 -.179E+00   -.117E-04 -.140E-05 -.414E-03
   0.294E-03 0.252E-03 -.171E+04   -.853E-13 0.711E-14 0.170E+04   -.689E-03 -.746E-03 0.564E+01   -.943E-05 -.471E-06 0.975E-01
   0.137E+01 0.137E+01 -.171E+04   -.121E+01 -.121E+01 0.170E+04   -.124E+00 -.124E+00 0.572E+01   0.299E-04 0.301E-04 0.975E-01
   0.312E-03 -.114E+00 0.172E+04   0.107E-13 0.115E+00 -.171E+04   -.141E-02 -.224E-02 -.676E+01   0.976E-05 -.421E-05 -.161E+00
   0.115E+00 0.309E-03 0.172E+04   -.115E+00 0.187E-13 -.171E+04   -.664E-03 -.140E-02 -.676E+01   0.285E-05 0.272E-05 -.161E+00
   0.276E-03 0.275E-03 0.566E+03   -.320E-13 0.355E-13 -.566E+03   -.224E-02 -.224E-02 0.558E+00   0.354E-05 -.344E-06 -.991E-01
   0.440E+00 -.439E+00 0.567E+03   -.441E+00 0.441E+00 -.568E+03   -.176E-02 -.274E-02 0.467E+00   0.846E-05 -.933E-05 -.991E-01
   0.281E-03 -.164E+01 -.576E+03   -.171E-12 0.172E+01 0.576E+03   -.195E-02 -.750E-01 -.236E+00   -.713E-06 -.909E-04 -.255E-03
   0.164E+01 0.281E-03 -.576E+03   -.172E+01 0.000E+00 0.576E+03   0.714E-01 -.224E-02 -.236E+00   0.950E-04 -.663E-05 -.255E-03
   0.346E-03 0.343E-03 -.172E+04   -.110E-12 -.639E-13 0.171E+04   -.112E-02 -.112E-02 0.606E+01   -.622E-05 -.384E-05 0.997E-01
   0.137E+01 -.137E+01 -.171E+04   -.121E+01 0.121E+01 0.170E+04   -.124E+00 0.122E+00 0.572E+01   0.256E-04 -.215E-04 0.975E-01
   0.299E-04 0.175E+00 0.425E+03   -.790E-13 -.177E+00 -.425E+03   -.160E-02 -.483E-04 -.985E-01   -.611E-05 -.145E-05 -.779E-01
   -.175E+00 0.305E-04 0.425E+03   0.177E+00 -.115E-13 -.425E+03   -.314E-02 -.160E-02 -.985E-01   -.842E-06 -.399E-06 -.779E-01
   0.104E-04 0.140E-04 0.129E+04   -.488E-13 -.271E-13 -.130E+04   -.863E-03 -.871E-03 0.306E+01   -.663E-05 0.770E-06 -.124E+00
   -.721E-01 0.721E-01 0.129E+04   0.719E-01 -.719E-01 -.130E+04   -.700E-03 -.103E-02 0.306E+01   0.368E-05 -.506E-05 -.124E+00
   -.246E-04 0.423E+00 -.130E+04   0.142E-13 -.450E+00 0.130E+04   0.776E-02 0.213E-01 -.459E+01   0.138E-05 -.360E-04 0.734E-01
   -.423E+00 0.109E-04 -.130E+04   0.450E+00 -.115E-13 0.130E+04   -.774E-02 0.580E-02 -.459E+01   0.342E-04 -.552E-06 0.734E-01
   0.499E-04 0.507E-04 -.426E+03   -.782E-13 -.426E-13 0.426E+03   -.114E-03 -.114E-03 0.215E+00   -.463E-05 -.508E-05 -.594E-02
   -.698E+00 0.698E+00 -.426E+03   0.687E+00 -.687E+00 0.425E+03   0.143E-01 -.181E-01 0.307E+00   -.233E-04 0.309E-04 -.591E-02
   0.274E-04 -.175E+00 0.425E+03   -.497E-13 0.177E+00 -.425E+03   -.160E-02 -.314E-02 -.985E-01   -.601E-06 0.159E-05 -.779E-01
   -.416E+00 0.314E-04 0.425E+03   0.384E+00 0.373E-13 -.424E+03   0.348E-01 -.161E-02 -.110E+00   -.358E-04 -.331E-05 -.779E-01
   0.124E-04 0.299E-05 0.129E+04   -.147E-13 -.262E-13 -.130E+04   -.859E-03 -.848E-03 0.306E+01   -.106E-05 -.272E-06 -.124E+00
   -.721E-01 -.720E-01 0.129E+04   0.719E-01 0.719E-01 -.130E+04   -.702E-03 -.701E-03 0.306E+01   0.179E-05 0.414E-05 -.124E+00
   -.167E-04 -.423E+00 -.130E+04   -.355E-13 0.450E+00 0.130E+04   0.582E-02 -.775E-02 -.459E+01   -.452E-05 0.368E-04 0.734E-01
   -.309E+01 0.354E-04 -.130E+04   0.301E+01 0.488E-13 0.130E+04   0.190E+00 0.741E-02 -.430E+01   -.125E-03 -.147E-06 0.733E-01
   0.382E-04 0.453E-04 -.425E+03   0.426E-13 0.711E-14 0.425E+03   -.356E-04 -.269E-04 0.285E+00   -.655E-06 -.578E-06 -.595E-02
   -.698E+00 -.698E+00 -.426E+03   0.687E+00 0.687E+00 0.425E+03   0.153E-01 0.153E-01 0.309E+00   -.213E-04 -.214E-04 -.592E-02
   0.238E-04 0.416E+00 0.425E+03   -.444E-13 -.384E+00 -.424E+03   -.161E-02 -.380E-01 -.110E+00   0.862E-05 0.364E-04 -.779E-01
   0.175E+00 0.216E-04 0.425E+03   -.177E+00 0.142E-13 -.425E+03   -.512E-04 -.159E-02 -.985E-01   0.902E-06 -.342E-05 -.779E-01
   -.151E-05 0.526E-05 0.129E+04   -.386E-13 0.444E-15 -.130E+04   -.847E-03 -.859E-03 0.306E+01   0.154E-05 0.411E-05 -.124E+00
   0.721E-01 0.721E-01 0.129E+04   -.719E-01 -.719E-01 -.130E+04   -.102E-02 -.102E-02 0.306E+01   -.334E-05 -.755E-05 -.124E+00
   0.217E-04 0.309E+01 -.130E+04   0.444E-13 -.301E+01 0.130E+04   0.506E-02 -.187E+00 -.430E+01   -.148E-05 0.131E-03 0.733E-01
   0.423E+00 -.207E-04 -.130E+04   -.450E+00 0.426E-13 0.130E+04   0.213E-01 0.775E-02 -.459E+01   -.375E-04 -.541E-06 0.734E-01
   0.469E-04 0.368E-04 -.425E+03   -.426E-13 -.711E-14 0.425E+03   -.262E-04 -.322E-04 0.285E+00   -.216E-05 -.179E-05 -.600E-02
   0.698E+00 0.698E+00 -.426E+03   -.687E+00 -.687E+00 0.425E+03   -.191E-01 -.191E-01 0.306E+00   0.283E-04 0.293E-04 -.591E-02
   0.263E-04 -.416E+00 0.425E+03   0.213E-13 0.384E+00 -.424E+03   -.160E-02 0.348E-01 -.110E+00   0.169E-05 -.305E-04 -.779E-01
   0.416E+00 0.248E-04 0.425E+03   -.384E+00 0.426E-13 -.424E+03   -.380E-01 -.160E-02 -.110E+00   0.340E-04 0.140E-05 -.779E-01
   0.192E-05 -.807E-06 0.129E+04   0.133E-13 0.520E-13 -.130E+04   -.840E-03 -.835E-03 0.306E+01   0.889E-05 0.374E-05 -.124E+00
   0.721E-01 -.721E-01 0.129E+04   -.719E-01 0.719E-01 -.130E+04   -.102E-02 -.693E-03 0.306E+01   -.660E-05 -.126E-05 -.124E+00
   0.297E-04 -.309E+01 -.130E+04   -.284E-13 0.301E+01 0.130E+04   0.742E-02 0.190E+00 -.430E+01   -.307E-05 -.126E-03 0.733E-01
   0.309E+01 0.337E-05 -.130E+04   -.301E+01 0.426E-13 0.130E+04   -.187E+00 0.508E-02 -.430E+01   0.134E-03 -.686E-05 0.733E-01
   0.224E-04 0.225E-04 -.433E+03   0.711E-14 0.284E-13 0.434E+03   -.169E-02 -.169E-02 -.989E-01   -.876E-06 -.279E-05 -.568E-02
   0.698E+00 -.698E+00 -.426E+03   -.687E+00 0.687E+00 0.425E+03   -.181E-01 0.143E-01 0.307E+00   0.242E-04 -.254E-04 -.591E-02
   0.977E-02 0.976E-02 0.222E+02   0.296E-12 -.320E-12 0.114E-11   -.402E-01 -.402E-01 -.162E+02   -.477E-05 -.151E-06 -.237E+01

 POSITION                                       TOTAL-FORCE (eV/Angst)
      1.05015      7.38089      3.51701        -0.000830     -0.000622      0.554602
      3.16040      1.05015      3.51701        -0.001047     -0.000836      0.554614
      1.05015      1.05015      5.62725        -0.001725     -0.001726      0.030393
      3.16040      7.38089      5.62725        -0.001083     -0.002350      0.029171
      1.05015      7.38038      7.75069        -0.001636      0.004113      0.043591
      3.16091      1.05015      7.75069        -0.007241     -0.001465      0.043486
      1.05015      1.05015      9.85523        -0.000702     -0.000702     -0.149906
      3.15920      7.38209      9.85148        -0.027309      0.026038     -0.140872
      1.05015      3.16040      3.51701        -0.000834     -0.001048      0.554614
      3.16040      5.27065      3.51701        -0.000690     -0.000794      0.554221
      1.05015      5.27065      5.62725        -0.001724     -0.001722      0.035879
      3.16040      3.16040      5.62725        -0.001078     -0.001078      0.029189
      1.05015      3.16091      7.75069        -0.001463     -0.007228      0.043477
      3.16359      5.27065      7.75360        -0.008658     -0.001501      0.035108
      1.05015      5.27065      9.85245        -0.000650     -0.000566     -0.134635
      3.15920      3.15920      9.85148        -0.027532     -0.027533     -0.140645
      5.27065      7.38089      3.51701        -0.000800     -0.001016      0.554179
      7.38089      1.05015      3.51701        -0.000622     -0.000830      0.554601
      5.27065      1.05015      5.62725        -0.001720     -0.001723      0.035879
      7.38089      7.38089      5.62725        -0.002354     -0.002355      0.029210
      5.27065      7.37770      7.75360        -0.001843      0.005369      0.035368
      7.38038      1.05015      7.75069         0.004127     -0.001633      0.043594
      5.27065      1.05015      9.85245        -0.000566     -0.000650     -0.134637
      7.38209      7.38209      9.85148         0.026263      0.026264     -0.140796
      5.27065      3.16040      3.51701        -0.000794     -0.000690      0.554222
      7.38089      5.27065      3.51701        -0.001017     -0.000798      0.554179
      5.27065      5.27065      5.62725        -0.001714     -0.001714      0.038133
      7.38089      3.16040      5.62725        -0.002353     -0.001083      0.029171
      5.27065      3.16359      7.75360        -0.001499     -0.008657      0.035108
      7.37770      5.27065      7.75360         0.005372     -0.001843      0.035366
      5.27065      5.27065      9.89515        -0.000308     -0.000305     -0.430822
      7.38209      3.15920      9.85148         0.026039     -0.027309     -0.140874
      1.05015      7.38089      5.62725        -0.000372      0.000342      0.053588
      3.16040      1.05015      5.62725        -0.001114     -0.000379      0.053590
      1.05015      1.05015      3.51701         0.000071      0.000073     -0.432201
      3.16040      7.38089      3.51701         0.000172     -0.000022     -0.431611
      1.05015      7.38274      9.90288         0.007056     -0.004872     -0.145782
      3.15856      1.05015      9.90288         0.017359      0.005448     -0.147025
      1.05015      1.05015      7.74486         0.000868      0.000869      0.021039
      3.15994      7.38135      7.74591         0.008137     -0.009339      0.023711
      1.05015      3.16040      5.62725        -0.000375     -0.001113      0.053588
      3.16040      5.27065      5.62725         0.011145     -0.000401      0.064425
      1.05015      5.27065      3.51701         0.000082      0.000088     -0.431824
      3.16040      3.16040      3.51701         0.000167      0.000173     -0.431593
      1.05015      3.15856      9.90288         0.005443      0.017356     -0.147032
      3.15046      5.27065      9.90082         0.150663      0.006871     -0.059974
      1.05015      5.27065      7.74385         0.000922      0.000914      0.034454
      3.15994      3.15994      7.74591         0.008974      0.008973      0.024623
      5.27065      7.38089      5.62725        -0.000402     -0.011920      0.064408
      7.38089      1.05015      5.62725         0.000338     -0.000375      0.053585
      5.27065      1.05015      3.51701         0.000087      0.000081     -0.431827
      7.38089      7.38089      3.51701        -0.000017     -0.000022     -0.431605
      5.27065      7.39083      9.90082         0.004879     -0.146757     -0.058344
      7.38274      1.05015      9.90288        -0.004874      0.007055     -0.145782
      5.27065      1.05015      7.74385         0.000915      0.000924      0.034488
      7.38135      7.38135      7.74591        -0.010180     -0.010181      0.022778
      5.27065      3.16040      5.62725        -0.000398      0.011145      0.064427
      7.38089      5.27065      5.62725        -0.011924     -0.000402      0.064409
      5.27065      5.27065      3.51701         0.000104      0.000101     -0.431720
      7.38089      3.16040      3.51701        -0.000024      0.000172     -0.431610
      5.27065      3.15046      9.90082         0.006866      0.150658     -0.059977
      7.39083      5.27065      9.90082        -0.146755      0.004880     -0.058352
      5.27065      5.27065      7.75385        -0.000485     -0.000485      0.025269
      7.38135      3.15994      7.74591        -0.009337      0.008140      0.023711
    total drift:                               -0.052517     -0.052517      0.512486

  FREE ENERGIE OF THE ION-ELECTRON SYSTEM (eV)
  free  energy   TOTEN  =      -467.38667790 eV

  energy  without entropy=     -467.38667790  energy(sigma->0) =     -467.38667790