 vasp.6.4.2 20Jul23 (build Feb 22 2024 13:53:45) complex
 executed on              LinuxNV date 2024.08.27  16:29:25
 OpenACC runtime initialized ...    4 GPUs detected

 INCAR:
   SYSTEM = Oxide-Surface
   ISMEAR = 0
   SIGMA = 0.05
   EDIFF = 1E-5
   ALGO = Normal
   IBRION = -1
   NSW = 0
   ISYM = 0
   DIPOL = 0.5 0.5 0.5
   IDIPOL = 3
   LDIPOL = .TRUE.
   ISTART = 0
   LHFCALC = .FALSE.
   GGA = PE
   IVDW = 21
   VDW_SR = 0.96
   HFRCUT = -1
   ENCUT = 1000
   PREC = Normal
   PRECFOCK = Normal
   LASPH = .TRUE.
   LREAL = Auto
   ISPIN = 1
   NELM = 200
   NELMIN = 8
   NCORE = 1
   KPAR = 1
   LWAVE = .FALSE.
   LCHARG = .FALSE.

 POTCAR:    PAW_PBE Mg_sv 12Apr2007
 POTCAR:    PAW_PBE O_h 06Feb2004
 POTCAR:    PAW_PBE Mg_sv 12Apr2007
   VRHFIN =Mg: p6s2

   TITEL  = PAW_PBE Mg_sv 12Apr2007
   POMASS =   24.305; ZVAL   =   10.000    mass and valenz
   ENMAX  =  495.223; ENMIN  =  371.417 eV

   TITEL  = PAW_PBE O_h 06Feb2004
   POMASS =   16.000; ZVAL   =    6.000    mass and valenz
   ENMAX  =  700.000; ENMIN  =  500.000 eV

 Optimization of the real space projectors (new method)

 maximal supplied QI-value         = 22.11
 optimisation between [QCUT,QGAM] = [ 16.14, 32.28] = [ 72.95,291.79] Ry
 Optimized for a Real-space Cutoff    0.98 Angstroem

   l    n(q)    QCUT    max X(q) W(low)/X(q) W(high)/X(q)  e(spline)
   0      9    16.140     8.730    0.14E-04    0.12E-04    0.27E-07
   0      9    16.140     8.910    0.19E-04    0.17E-04    0.41E-07
   1      9    16.140     2.513    0.16E-04    0.28E-04    0.54E-07
   1      9    16.140     3.341    0.27E-04    0.13E-03    0.17E-06
   2      9    16.140     3.683    0.18E-03    0.21E-03    0.81E-07
 Optimization of the real space projectors (new method)

 maximal supplied QI-value         = 34.20
 optimisation between [QCUT,QGAM] = [ 16.08, 32.15] = [ 72.37,289.48] Ry
 Optimized for a Real-space Cutoff    0.71 Angstroem

   l    n(q)    QCUT    max X(q) W(low)/X(q) W(high)/X(q)  e(spline)
   0      7    16.076   280.207    0.42E-03    0.69E-03    0.60E-07
   0      7    16.076   228.978    0.42E-03    0.69E-03    0.61E-07
   1      6    16.076    86.127    0.11E-03    0.66E-03    0.10E-06
   1      6    16.076    65.368    0.11E-03    0.65E-03    0.10E-06
  PAW_PBE Mg_sv 12Apr2007               :
  PAW_PBE O_h 06Feb2004                 :

 POSCAR: Mg  O
  positions in direct lattice
 exchange correlation table for  LEXCH =        8
   RHO(1)=    0.500       N(1)  =     2000
   RHO(2)=  100.500       N(2)  =     4000

 ion  position               nearest neighbor table
   1  0.124  0.874  0.207-
   2  0.374  0.124  0.207-
   3  0.124  0.124  0.331-
   4  0.374  0.874  0.331-
   5  0.124  0.874  0.456-
   6  0.374  0.124  0.456-
   7  0.124  0.124  0.580-
   8  0.374  0.875  0.579-
   9  0.124  0.374  0.207-
  10  0.374  0.624  0.207-
  11  0.124  0.624  0.331-
  12  0.374  0.374  0.331-
  13  0.124  0.374  0.456-
  14  0.375  0.624  0.456-
  15  0.124  0.624  0.580-
  16  0.374  0.374  0.579-
  17  0.624  0.874  0.207-
  18  0.874  0.124  0.207-
  19  0.624  0.124  0.331-
  20  0.874  0.874  0.331-
  21  0.624  0.874  0.456-
  22  0.874  0.124  0.456-
  23  0.624  0.124  0.580-
  24  0.875  0.875  0.579-
  25  0.624  0.374  0.207-
  26  0.874  0.624  0.207-
  27  0.624  0.624  0.331-
  28  0.874  0.374  0.331-
  29  0.624  0.375  0.456-
  30  0.874  0.624  0.456-
  31  0.624  0.624  0.582-
  32  0.875  0.374  0.579-
  33  0.124  0.874  0.331-
  34  0.374  0.124  0.331-
  35  0.124  0.124  0.207-
  36  0.374  0.874  0.207-
  37  0.124  0.875  0.583-
  38  0.374  0.124  0.583-
  39  0.124  0.124  0.456-
  40  0.374  0.874  0.456-
  41  0.124  0.374  0.331-
  42  0.374  0.624  0.331-
  43  0.124  0.624  0.207-
  44  0.374  0.374  0.207-
  45  0.124  0.374  0.583-
  46  0.373  0.624  0.582-
  47  0.124  0.624  0.456-
  48  0.374  0.374  0.456-
  49  0.624  0.874  0.331-
  50  0.874  0.124  0.331-
  51  0.624  0.124  0.207-
  52  0.874  0.874  0.207-
  53  0.624  0.876  0.582-
  54  0.875  0.124  0.583-
  55  0.624  0.124  0.456-
  56  0.874  0.874  0.456-
  57  0.624  0.374  0.331-
  58  0.874  0.624  0.331-
  59  0.624  0.624  0.207-
  60  0.874  0.374  0.207-
  61  0.624  0.373  0.582-
  62  0.876  0.624  0.582-
  63  0.624  0.624  0.456-
  64  0.874  0.374  0.456-

IMPORTANT INFORMATION: All symmetrisations will be switched off!
NOSYMM: (Re-)initialisation of all symmetry stuff for point group C_1.

                                     Primitive cell

  volume of cell :    1211.2538

  direct lattice vectors                    reciprocal lattice vectors
     8.440984654  0.000000000  0.000000000     0.118469591  0.000000000  0.000000000
     0.000000000  8.440984654  0.000000000     0.000000000  0.118469591  0.000000000
     0.000000000  0.000000000 17.000000000     0.000000000  0.000000000  0.058823529

  length of vectors
     8.440984654  8.440984654 17.000000000     0.118469591  0.118469591  0.058823529

  position of ions in fractional coordinates (direct lattice)
     0.124411355  0.874411355  0.206882870
     0.374411355  0.124411355  0.206882870
     0.124411355  0.124411355  0.331014998
     0.374411355  0.874411355  0.331014998
     0.124411355  0.874350623  0.455922972
     0.374472087  0.124411355  0.455922972
     0.124411355  0.124411355  0.579719137
     0.374269682  0.874553028  0.579498600
     0.124411355  0.374411355  0.206882870
     0.374411355  0.624411355  0.206882870
     0.124411355  0.624411355  0.331014998
     0.374411355  0.374411355  0.331014998
     0.124411355  0.374472087  0.455922972
     0.374789734  0.624411355  0.456093975
     0.124411355  0.624411355  0.579555984
     0.374269682  0.374269682  0.579498600
     0.624411355  0.874411355  0.206882870
     0.874411355  0.124411355  0.206882870
     0.624411355  0.124411355  0.331014998
     0.874411355  0.874411355  0.331014998
     0.624411355  0.874032976  0.456093975
     0.874350623  0.124411355  0.455922972
     0.624411355  0.124411355  0.579555984
     0.874553028  0.874553028  0.579498600
     0.624411355  0.374411355  0.206882870
     0.874411355  0.624411355  0.206882870
     0.624411355  0.624411355  0.331014998
     0.874411355  0.374411355  0.331014998
     0.624411355  0.374789734  0.456093975
     0.874032976  0.624411355  0.456093975
     0.624411355  0.624411355  0.582067590
     0.874553028  0.374269682  0.579498600
     0.124411355  0.874411355  0.331014998
     0.374411355  0.124411355  0.331014998
     0.124411355  0.124411355  0.206882870
     0.374411355  0.874411355  0.206882870
     0.124411355  0.874629888  0.582522179
     0.374192822  0.124411355  0.582522179
     0.124411355  0.124411355  0.455579988
     0.374357125  0.874465584  0.455641750
     0.124411355  0.374411355  0.331014998
     0.374411355  0.624411355  0.331014998
     0.124411355  0.624411355  0.206882870
     0.374411355  0.374411355  0.206882870
     0.124411355  0.374192822  0.582522179
     0.373234064  0.624411355  0.582401242
     0.124411355  0.624411355  0.455520732
     0.374357125  0.374357125  0.455641750
     0.624411355  0.874411355  0.331014998
     0.874411355  0.124411355  0.331014998
     0.624411355  0.124411355  0.206882870
     0.874411355  0.874411355  0.206882870
     0.624411355  0.875588645  0.582401242
     0.874629888  0.124411355  0.582522179
     0.624411355  0.124411355  0.455520732
     0.874465584  0.874465584  0.455641750
     0.624411355  0.374411355  0.331014998
     0.874411355  0.624411355  0.331014998
     0.624411355  0.624411355  0.206882870
     0.874411355  0.374411355  0.206882870
     0.624411355  0.373234064  0.582401242
     0.875588645  0.624411355  0.582401242
     0.624411355  0.624411355  0.456108822
     0.874465584  0.374357125  0.455641750

  ion indices of the primitive-cell ions
   primitive index   ion index
                 1           1
                 2           2
                 3           3
                 4           4
                 5           5
                 6           6
                 7           7
                 8           8
                 9           9
                10          10
                11          11
                12          12
                13          13
                14          14
                15          15
                16          16
                17          17
                18          18
                19          19
                20          20
                21          21
                22          22
                23          23
                24          24
                25          25
                26          26
                27          27
                28          28
                29          29
                30          30
                31          31
                32          32
                33          33
                34          34
                35          35
                36          36
                37          37
                38          38
                39          39
                40          40
                41          41
                42          42
                43          43
                44          44
                45          45
                46          46
                47          47
                48          48
                49          49
                50          50
                51          51
                52          52
                53          53
                54          54
                55          55
                56          56
                57          57
                58          58
                59          59
                60          60
                61          61
                62          62
                63          63
                64          64

 KPOINTS: pymatgen v2020.8.13 with grid density =

Automatic generation of k-mesh.
 Grid dimensions read from file:
 generate k-points for:    2    2    1

 Generating k-lattice:

  Cartesian coordinates                     Fractional coordinates (reciprocal lattice)
     0.059234796  0.000000000  0.000000000     0.500000000  0.000000000  0.000000000
     0.000000000  0.059234796  0.000000000     0.000000000  0.500000000  0.000000000
     0.000000000  0.000000000  0.058823529     0.000000000  0.000000000  1.000000000

  Length of vectors
     0.059234796  0.059234796  0.058823529

  Shift w.r.t. Gamma in fractional coordinates (k-lattice)
     0.000000000  0.000000000  0.000000000

 Subroutine IBZKPT returns following result:

 Found      4 irreducible k-points:

 Following reciprocal coordinates:
            Coordinates               Weight
  0.000000  0.000000  0.000000      1.000000
  0.500000  0.000000  0.000000      1.000000
  0.000000  0.500000  0.000000      1.000000
  0.500000  0.500000  0.000000      1.000000

 Following cartesian coordinates:
            Coordinates               Weight
  0.000000  0.000000  0.000000      1.000000
  0.059235  0.000000  0.000000      1.000000
  0.000000  0.059235  0.000000      1.000000
  0.059235  0.059235  0.000000      1.000000

 SYSTEM =  Oxide-Surface
 POSCAR =  Mg  O

  energy-cutoff  :     1000.00
[...]
   O         183.790          4.817         18.535          3.43239061
   O         167.290          4.743         17.683          3.27469735
   O         167.245          4.742         17.681          3.27425702
   O         162.406          4.719         17.423          3.22654360
   O         162.395          4.719         17.423          3.22643375
   O         187.175          4.832         18.705          3.46386070
   O         188.485          4.838         18.770          3.47596245

  vdW correction parametrized for the method Àw"    þ

  IVDW =  21
  VDW_RADIUS =    50.000 A
  VDW_IDAMPF =  0
  VDW_S6 =     1.000
  VDW_SR =     0.960
  VDW_D =    20.000
  LVDW_ONECELL = F F F
  LVDW_SAMETYPE T T
  LVDW_EWALD = F

  Number of pair interactions contributing to vdW energy:  892088
  Edisp (eV):   -3.59436

  FORCE on cell =-STRESS in cart. coord.  units (eV):
  Direction    XX          YY          ZZ          XY          YZ          ZX
  Alpha Z  1191.54525  1191.54525  1191.54525
  Ewald  112331.85202112331.85202************    -0.00000     0.00000    -0.00000
  Hartree128907.69818128907.69812************    -0.00032     0.00023     0.00023
  E(xc)   -3223.70639 -3223.70640 -3229.85522     0.00002     0.00000     0.00000
  Local  ************************251039.41302     0.00068    -0.00050    -0.00047
  n-local -5620.29854 -5620.29856 -5620.77546    -0.02724     0.00687     0.00686
  augment   724.09083   724.09083   714.66702     0.00257    -0.00034    -0.00034
  Kinetic 12492.96934 12492.96943 12510.25324    -0.00271     0.00099     0.00102
  Fock        0.00000     0.00000     0.00000     0.00000     0.00000     0.00000
  vdW        -5.09734    -5.09734    -3.47491     0.00000     0.00000     0.00000
  Total     -20.77703   -20.77687     4.21929    -0.02700     0.00724     0.00730
  in kB     -27.48266   -27.48245     5.58104    -0.03571     0.00958     0.00966

 VOLUME and BASIS-vectors are now :
  energy-cutoff  :     1000.00
  volume of cell :     1211.25
      direct lattice vectors                 reciprocal lattice vectors
     8.440984654  0.000000000  0.000000000     0.118469591  0.000000000  0.000000000
     0.000000000  8.440984654  0.000000000     0.000000000  0.118469591  0.000000000
     0.000000000  0.000000000 17.000000000     0.000000000  0.000000000  0.058823529

  length of vectors
     8.440984654  8.440984654 17.000000000     0.118469591  0.118469591  0.058823529

 FORCES acting on ions
    electron-ion (+dipol)            ewald-force                    non-local-force                 convergence-correction
   -.284E-03 0.109E+00 0.245E+04   -.178E-13 -.107E+00 -.244E+04   0.417E-02 -.410E-02 -.915E+01   0.448E-04 -.234E-04 -.194E-02
   -.107E+00 -.239E-03 0.245E+04   0.107E+00 -.213E-13 -.244E+04   -.247E-02 0.428E-02 -.915E+01   -.578E-04 0.537E-04 -.188E-02
   -.104E-02 -.110E-02 0.812E+03   -.355E-14 0.746E-13 -.812E+03   -.986E-03 -.107E-02 0.647E+00   0.494E-04 0.196E-03 -.390E-02
   -.613E+00 0.614E+00 0.811E+03   0.616E+00 -.616E+00 -.812E+03   -.272E-02 -.863E-05 0.689E+00   0.993E-04 0.220E-03 -.381E-02
   -.259E-03 0.410E+00 -.820E+03   0.107E-13 -.405E+00 0.820E+03   0.205E-02 -.186E-02 -.297E+00   -.106E-03 -.612E-04 -.545E-02
   -.409E+00 -.385E-03 -.820E+03   0.405E+00 0.817E-13 0.820E+03   -.600E-02 0.212E-02 -.297E+00   -.484E-04 0.119E-03 -.558E-02
   -.167E-03 -.131E-03 -.243E+04   0.426E-13 0.000E+00 0.242E+04   0.577E-03 0.459E-03 0.771E+01   0.302E-04 0.111E-03 -.182E-03
   -.170E+01 0.170E+01 -.243E+04   0.151E+01 -.151E+01 0.242E+04   0.166E+00 -.177E+00 0.778E+01   0.216E-03 -.132E-03 -.205E-03
   -.304E-03 -.107E+00 0.245E+04   0.302E-13 0.107E+00 -.244E+04   0.418E-02 -.256E-02 -.915E+01   0.176E-03 0.123E-03 -.178E-02
   -.150E+00 -.454E-04 0.245E+04   0.153E+00 0.222E-13 -.244E+04   -.504E-02 0.431E-02 -.915E+01   -.872E-04 -.170E-03 -.201E-02
   -.993E-03 -.791E-03 0.811E+03   -.107E-12 0.000E+00 -.812E+03   -.102E-02 -.965E-03 0.622E+00   0.479E-04 -.217E-03 -.390E-02
   -.613E+00 -.613E+00 0.811E+03   0.616E+00 0.616E+00 -.812E+03   -.254E-02 -.267E-02 0.689E+00   -.322E-03 -.102E-03 -.388E-02
   -.403E-03 -.409E+00 -.820E+03   0.853E-13 0.405E+00 0.820E+03   0.208E-02 -.588E-02 -.297E+00   0.182E-03 -.252E-03 -.543E-02
   -.240E+01 -.124E-03 -.822E+03   0.250E+01 -.497E-13 0.822E+03   -.110E+00 0.130E-02 -.367E+00   0.728E-04 -.257E-03 -.574E-02
   -.754E-04 -.261E-03 -.243E+04   -.142E-13 -.426E-13 0.242E+04   0.114E-02 0.129E-02 0.767E+01   0.279E-04 0.273E-04 0.455E-03
   -.170E+01 -.170E+01 -.243E+04   0.151E+01 0.151E+01 0.242E+04   0.165E+00 0.165E+00 0.778E+01   0.119E-03 0.733E-04 -.822E-03
   0.982E-05 0.152E+00 0.245E+04   -.168E-12 -.153E+00 -.244E+04   0.416E-02 -.165E-02 -.915E+01   -.236E-03 -.321E-04 -.188E-02
   0.109E+00 -.299E-03 0.245E+04   -.107E+00 -.302E-13 -.244E+04   -.426E-02 0.416E-02 -.915E+01   0.849E-05 0.533E-04 -.184E-02
   -.890E-03 -.944E-03 0.811E+03   -.185E-12 0.107E-13 -.812E+03   -.101E-02 -.937E-03 0.622E+00   -.649E-04 -.100E-03 -.354E-02
   0.614E+00 0.614E+00 0.811E+03   -.616E+00 -.616E+00 -.812E+03   0.194E-04 0.125E-05 0.689E+00   0.444E-04 0.933E-04 -.375E-02
   -.417E-03 0.240E+01 -.822E+03   0.959E-13 -.250E+01 0.822E+03   0.116E-02 0.105E+00 -.369E+00   0.731E-04 0.421E-04 -.596E-02
   0.410E+00 -.320E-03 -.820E+03   -.405E+00 0.568E-13 0.820E+03   -.193E-02 0.190E-02 -.297E+00   -.122E-04 0.108E-03 -.530E-02
   -.216E-03 -.305E-04 -.243E+04   -.121E-12 -.355E-14 0.242E+04   0.120E-02 0.118E-02 0.767E+01   0.693E-04 -.666E-04 0.588E-03
   0.170E+01 0.170E+01 -.243E+04   -.151E+01 -.151E+01 0.242E+04   -.176E+00 -.176E+00 0.779E+01   -.633E-04 -.253E-04 -.754E-03
   -.139E-03 -.150E+00 0.245E+04   -.117E-12 0.153E+00 -.244E+04   0.419E-02 -.523E-02 -.915E+01   -.592E-05 0.207E-03 -.178E-02
   0.152E+00 0.127E-04 0.245E+04   -.153E+00 -.551E-13 -.244E+04   -.173E-02 0.415E-02 -.915E+01   -.106E-04 -.224E-03 -.208E-02
   -.976E-03 -.923E-03 0.809E+03   -.114E-12 -.178E-13 -.810E+03   -.996E-03 -.105E-02 0.812E+00   -.289E-05 -.162E-05 -.325E-02
   0.614E+00 -.613E+00 0.811E+03   -.616E+00 0.616E+00 -.812E+03   -.366E-05 -.264E-02 0.689E+00   0.115E-03 -.845E-04 -.411E-02
   -.129E-03 -.240E+01 -.822E+03   -.171E-12 0.250E+01 0.822E+03   0.133E-02 -.110E+00 -.367E+00   -.283E-03 0.696E-04 -.577E-02
   0.240E+01 -.446E-03 -.822E+03   -.250E+01 -.284E-13 0.822E+03   0.105E+00 0.116E-02 -.369E+00   -.631E-04 0.105E-03 -.575E-02
   -.151E-02 -.159E-02 -.245E+04   -.142E-13 -.391E-13 0.244E+04   -.252E-03 -.311E-03 0.826E+01   -.287E-03 -.145E-03 -.243E-02
   0.170E+01 -.170E+01 -.243E+04   -.151E+01 0.151E+01 0.242E+04   -.177E+00 0.166E+00 0.778E+01   -.123E-03 -.134E-03 -.445E-03
   0.292E-03 0.208E+00 0.486E+03   0.622E-14 -.209E+00 -.486E+03   -.169E-02 0.729E-02 -.847E-01   0.179E-04 -.754E-04 0.131E-01
   -.209E+00 0.399E-03 0.486E+03   0.209E+00 -.115E-13 -.486E+03   0.370E-02 -.167E-02 -.848E-01   0.217E-03 -.108E-03 0.132E-01
   0.797E-03 0.881E-03 0.148E+04   0.799E-14 -.129E-13 -.149E+04   -.145E-02 -.153E-02 0.262E+01   0.193E-04 0.419E-05 0.168E-02
   -.804E-01 0.782E-01 0.148E+04   0.792E-01 -.792E-01 -.149E+04   0.158E-02 0.154E-02 0.262E+01   -.107E-04 -.160E-03 0.166E-02
   0.722E-03 0.553E+00 -.149E+04   -.711E-13 -.568E+00 0.150E+04   -.150E-02 0.199E-02 -.476E+01   -.590E-04 -.188E-03 0.968E-02
   -.554E+00 0.511E-03 -.149E+04   0.568E+00 -.115E-13 0.150E+04   -.302E-02 -.231E-02 -.476E+01   0.156E-03 0.917E-04 0.937E-02
   0.816E-04 0.116E-03 -.486E+03   0.355E-13 -.142E-13 0.486E+03   -.315E-02 -.319E-02 0.237E+00   0.120E-03 0.119E-03 0.162E-01
   -.798E+00 0.796E+00 -.486E+03   0.780E+00 -.780E+00 0.485E+03   0.219E-01 -.278E-01 0.342E+00   0.177E-03 0.111E-03 0.165E-01
   0.276E-03 -.209E+00 0.486E+03   -.497E-13 0.209E+00 -.486E+03   -.171E-02 0.369E-02 -.847E-01   0.536E-04 0.168E-03 0.130E-01
   -.420E+00 0.328E-03 0.485E+03   0.383E+00 -.195E-13 -.485E+03   0.530E-01 -.167E-02 -.875E-01   -.182E-03 -.353E-04 0.132E-01
   0.796E-03 0.817E-03 0.148E+04   -.147E-13 -.546E-13 -.149E+04   -.153E-02 -.140E-02 0.262E+01   0.901E-04 -.358E-04 0.177E-02
   -.804E-01 -.806E-01 0.148E+04   0.792E-01 0.792E-01 -.149E+04   0.167E-02 0.154E-02 0.262E+01   -.940E-04 0.163E-03 0.170E-02
   0.494E-03 -.554E+00 -.149E+04   -.121E-12 0.568E+00 0.150E+04   -.234E-02 -.300E-02 -.476E+01   0.130E-03 0.125E-03 0.958E-02
   -.358E+01 0.461E-03 -.149E+04   0.340E+01 -.799E-14 0.149E+04   0.323E+00 -.198E-02 -.437E+01   0.306E-03 -.278E-04 0.981E-02
   0.152E-03 0.172E-03 -.485E+03   0.995E-13 -.213E-13 0.485E+03   -.317E-02 -.310E-02 0.331E+00   0.631E-04 0.365E-07 0.164E-01
   -.798E+00 -.797E+00 -.486E+03   0.780E+00 0.780E+00 0.485E+03   0.221E-01 0.221E-01 0.342E+00   0.698E-04 -.200E-04 0.169E-01
   0.448E-03 0.420E+00 0.485E+03   0.409E-13 -.383E+00 -.485E+03   -.167E-02 -.420E-01 -.876E-01   -.148E-03 0.276E-03 0.133E-01
   0.208E+00 0.322E-03 0.486E+03   -.209E+00 -.142E-13 -.486E+03   0.730E-02 -.168E-02 -.847E-01   -.215E-03 -.310E-04 0.130E-01
   0.832E-03 0.766E-03 0.148E+04   0.103E-12 0.444E-15 -.149E+04   -.149E-02 -.146E-02 0.262E+01   0.150E-04 0.582E-04 0.178E-02
   0.780E-01 0.780E-01 0.148E+04   -.792E-01 -.792E-01 -.149E+04   0.151E-02 0.151E-02 0.262E+01   0.112E-03 0.132E-03 0.171E-02
   0.861E-03 0.358E+01 -.149E+04   0.160E-13 -.340E+01 0.149E+04   -.457E-03 -.322E+00 -.437E+01   -.203E-04 -.136E-03 0.978E-02
   0.553E+00 0.704E-03 -.149E+04   -.568E+00 0.426E-13 0.150E+04   0.203E-02 -.149E-02 -.476E+01   -.144E-03 -.491E-04 0.951E-02
   0.242E-03 0.284E-03 -.485E+03   0.142E-13 0.782E-13 0.485E+03   -.312E-02 -.314E-02 0.331E+00   -.572E-04 -.890E-04 0.160E-01
   0.796E+00 0.796E+00 -.486E+03   -.780E+00 -.780E+00 0.485E+03   -.260E-01 -.261E-01 0.341E+00   -.169E-03 0.252E-04 0.168E-01
   0.242E-03 -.420E+00 0.485E+03   0.107E-12 0.383E+00 -.485E+03   -.170E-02 0.530E-01 -.876E-01   0.614E-04 -.190E-03 0.132E-01
   0.420E+00 0.349E-03 0.485E+03   -.383E+00 0.426E-13 -.485E+03   -.420E-01 -.168E-02 -.876E-01   0.987E-04 -.483E-04 0.133E-01
   0.838E-03 0.899E-03 0.148E+04   0.702E-13 -.488E-14 -.149E+04   -.142E-02 -.145E-02 0.262E+01   -.496E-04 -.722E-04 0.162E-02
   0.781E-01 -.805E-01 0.148E+04   -.792E-01 0.792E-01 -.149E+04   0.148E-02 0.163E-02 0.262E+01   0.109E-05 0.360E-04 0.160E-02
   0.565E-03 -.358E+01 -.149E+04   0.000E+00 0.340E+01 0.149E+04   -.196E-02 0.323E+00 -.437E+01   -.145E-03 0.121E-03 0.987E-02
   0.358E+01 0.838E-03 -.149E+04   -.340E+01 -.142E-13 0.149E+04   -.322E+00 -.509E-03 -.437E+01   -.212E-03 0.465E-04 0.101E-01
   0.490E-03 0.368E-03 -.495E+03   0.121E-12 0.284E-13 0.496E+03   -.105E-03 -.117E-03 -.872E-01   -.865E-04 0.413E-04 0.168E-01
   0.796E+00 -.797E+00 -.486E+03   -.780E+00 0.780E+00 0.485E+03   -.278E-01 0.219E-01 0.342E+00   0.355E-04 -.789E-04 0.169E-01
   0.184E-02 0.189E-02 0.219E+02   -.800E-12 0.247E-12 0.165E-11   -.422E-01 -.420E-01 -.221E+02   -.245E-03 -.252E-03 0.235E+00

 POSITION                                       TOTAL-FORCE (eV/Angst)
      1.05015      7.38089      3.51701         0.004562     -0.001658      0.334949
      3.16040      1.05015      3.51701        -0.002191      0.004730      0.334949
      1.05015      1.05015      5.62725        -0.001340     -0.001339      0.038234
      3.16040      7.38089      5.62725         0.000818     -0.000797      0.031102
      1.05015      7.38038      7.75069         0.002324      0.003905      0.049887
      3.16091      1.05015      7.75069        -0.009127      0.002481      0.049750
      1.05015      1.05015      9.85523         0.001074      0.001070      0.025394
      3.15920      7.38209      9.85148        -0.026763      0.019016      0.033855
      1.05015      3.16040      3.51701         0.004681     -0.002171      0.334891
      3.16040      5.27065      3.51701        -0.001750      0.004724      0.334704
      1.05015      5.27065      5.62725        -0.001330     -0.001343      0.042851
      3.16040      3.16040      5.62725         0.000807      0.000801      0.031083
      1.05015      3.16091      7.75069         0.002493     -0.009137      0.049786
      3.16359      5.27065      7.75360        -0.008391      0.001552      0.041901
      1.05015      5.27065      9.85245         0.001724      0.001684      0.039143
      3.15920      3.15920      9.85148        -0.027189     -0.027187      0.033370
      5.27065      7.38089      3.51701         0.004569     -0.002235      0.334732
      7.38089      1.05015      3.51701        -0.001785      0.004543      0.334957
      5.27065      1.05015      5.62725        -0.001329     -0.001350      0.042864
      7.38089      7.38089      5.62725        -0.000792     -0.000804      0.031114
      5.27065      7.37770      7.75360         0.001455      0.005263      0.040676
      7.38038      1.05015      7.75069         0.003897      0.002315      0.049893
      5.27065      1.05015      9.85245         0.001688      0.001711      0.039138
      7.38209      7.38209      9.85148         0.019462      0.019463      0.035424
      5.27065      3.16040      3.51701         0.004676     -0.001756      0.334693
      7.38089      5.27065      3.51701        -0.002276      0.004569      0.334694
      5.27065      5.27065      5.62725        -0.001340     -0.001345      0.046315
      7.38089      3.16040      5.62725        -0.000801      0.000803      0.031105
      5.27065      3.16359      7.75360         0.001554     -0.008404      0.041908
      7.37770      5.27065      7.75360         0.005255      0.001454      0.040602
      5.27065      5.27065      9.89515        -0.001414     -0.001413     -0.256447
      7.38209      3.15920      9.85148         0.019018     -0.026774      0.033862
      1.05015      7.38089      5.62725        -0.000749      0.006408      0.065212
      3.16040      1.05015      5.62725         0.005238     -0.000746      0.065196
      1.05015      1.05015      3.51701        -0.000000     -0.000015     -0.516780
      3.16040      7.38089      3.51701         0.001059      0.000972     -0.522209
      1.05015      7.38274      9.90288        -0.000198     -0.012166     -0.009349
      3.15856      1.05015      9.90288         0.011502     -0.001080     -0.010585
      1.05015      1.05015      7.74486        -0.002314     -0.002326     -0.004362
      3.15994      7.38135      7.74591         0.005664     -0.011766      0.002067
      1.05015      3.16040      5.62725        -0.000750      0.005232      0.065221
      3.16040      5.27065      5.62725         0.016127     -0.000749      0.076108
      1.05015      5.27065      3.51701        -0.000014      0.000008     -0.516384
      3.16040      3.16040      3.51701         0.001076      0.001040     -0.522214
      1.05015      3.15856      9.90288        -0.001080      0.011502     -0.010565
      3.15046      5.27065      9.90082         0.138249     -0.000916      0.065468
      1.05015      5.27065      7.74385        -0.002318     -0.002296      0.010243
      3.15994      3.15994      7.74591         0.005793      0.005792      0.002015
      5.27065      7.38089      5.62725        -0.000739     -0.004480      0.076091
      7.38089      1.05015      5.62725         0.006418     -0.000754      0.065222
      5.27065      1.05015      3.51701        -0.000005     -0.000009     -0.516397
      7.38089      7.38089      3.51701         0.000955      0.000949     -0.522192
      5.27065      7.39083      9.90082         0.001019     -0.136710      0.070292
      7.38274      1.05015      9.90288        -0.012161     -0.000206     -0.009344
      5.27065      1.05015      7.74385        -0.002301     -0.002317      0.010282
      7.38135      7.38135      7.74591        -0.010016     -0.010033      0.001196
      5.27065      3.16040      5.62725        -0.000758      0.016114      0.076093
      7.38089      5.27065      5.62725        -0.004464     -0.000745      0.076085
      5.27065      5.27065      3.51701         0.000003      0.000004     -0.516837
      7.38089      3.16040      3.51701         0.000958      0.001054     -0.522208
      5.27065      3.15046      9.90082        -0.000903      0.138254      0.065477
      7.39083      5.27065      9.90082        -0.136703      0.001006      0.070281
      5.27065      5.27065      7.75385         0.000933      0.000923      0.013460
      7.38135      3.15994      7.74591        -0.011762      0.005681      0.002035
    total drift:                               -0.040602     -0.040383      0.041611

  FREE ENERGIE OF THE ION-ELECTRON SYSTEM (eV)
  free  energy   TOTEN  =      -376.21890088 eV

  energy  without entropy=     -376.21890088  energy(sigma->0) =     -376.21890088