 vasp.6.3.0 20Jan22 (build Apr  1 2022 16:44:48) complex
 executed on        HPECrayEX_GCC date 2022.10.09  22:03:16

 INCAR:
   SYSTEM = MgO-rocksalt
   ISMEAR = 0
   SIGMA = 0.05
   EDIFF = 1E-9
   ALGO = ALL
   ISTART = 0
   IBRION = 2
   NSW = 1000
   ISYM = 0
   ISIF = 2
   EDIFFG = -0.01
   DIPOL = 0.5 0.5 0.5
   IDIPOL = 3
   LDIPOL = .TRUE.
   LHFCALC = .TRUE.
   GGA = B5
   AEXX = 0.2
   AGGAX = 0.72
   AGGAC = 0.81
   ALDAC = 0.19
   IVDW = 1
   VDW_S6 = 1.05
   VDW_C6 = 1.75 0.14 0.63 0.70
   VDW_R0 = 1.452 1.001 1.243 1.342
   ENCUT = 600
   PREC = Accurate
   LASPH = .TRUE.
   LREAL = .FALSE.
   ISPIN = 1
   NELM = 200
   NELMIN = 8
   NCORE = 8
   KPAR = 1
   LWAVE = .FALSE.
   LCHARG = .FALSE.

 POTCAR:    PAW_PBE C 08Apr2002
 POTCAR:    PAW_PBE H 15Jun2001
 POTCAR:    PAW_PBE Mg_pv 13Apr2007
 POTCAR:    PAW_PBE O 08Apr2002
 POTCAR:    PAW_PBE C 08Apr2002
   VRHFIN =C: s2p2

   TITEL  = PAW_PBE C 08Apr2002
   POMASS =   12.011; ZVAL   =    4.000    mass and valenz
   ENMAX  =  400.000; ENMIN  =  300.000 eV

   TITEL  = PAW_PBE H 15Jun2001
   POMASS =    1.000; ZVAL   =    1.000    mass and valenz
   ENMAX  =  250.000; ENMIN  =  200.000 eV

   TITEL  = PAW_PBE Mg_pv 13Apr2007
   POMASS =   24.305; ZVAL   =    8.000    mass and valenz
   ENMAX  =  403.929; ENMIN  =  302.947 eV

   TITEL  = PAW_PBE O 08Apr2002
   POMASS =   16.000; ZVAL   =    6.000    mass and valenz
   ENMAX  =  400.000; ENMIN  =  300.000 eV

  PAW_PBE C 08Apr2002                   :
  PAW_PBE H 15Jun2001                   :
  PAW_PBE Mg_pv 13Apr2007               :
  PAW_PBE O 08Apr2002                   :

 POSCAR:  C  H Mg  O
  positions in direct lattice
  velocities in cartesian coordinates
 exchange correlation table for  LEXCH =       12
   RHO(1)=    0.500       N(1)  =     2000
   RHO(2)=  100.500       N(2)  =     4000

 ion  position               nearest neighbor table
   1  0.500  0.500  0.791-   3 1.09   2 1.09   4 1.09   5 1.09
   2  0.500  0.606  0.820-   1 1.09
   3  0.500  0.394  0.820-   1 1.09
   4  0.607  0.500  0.762-   1 1.09
   5  0.393  0.500  0.762-   1 1.09
   6  0.250  0.000  0.352-  40 2.10  41 2.10  48 2.10  57 2.10  38 2.10
   7  0.500  0.250  0.352-  40 2.10  41 2.10  49 2.10  56 2.10  39 2.10
   8  0.250  0.250  0.451-  38 2.10  39 2.10  46 2.10  55 2.10  40 2.10  44 2.10
   9  0.500  0.000  0.451-  38 2.10  39 2.10  47 2.10  54 2.10  41 2.10  45 2.10
  10  0.250  0.000  0.550-  45 2.10  61 2.10  44 2.10  52 2.10  38 2.11  42 2.13
  11  0.500  0.250  0.550-  53 2.10  44 2.10  60 2.10  45 2.10  39 2.11  43 2.12
  12  0.250  0.250  0.648-  44 2.09  42 2.10  43 2.10  59 2.10  50 2.10
  13  0.500  1.000  0.648-  45 2.09  51 2.10  43 2.10  42 2.10  58 2.10
  14  0.250  0.500  0.352-  40 2.10  48 2.10  49 2.10  65 2.10  46 2.10
  15  0.500  0.750  0.352-  41 2.10  48 2.10  49 2.10  64 2.10  47 2.10
  16  0.250  0.750  0.451-  38 2.10  46 2.10  47 2.10  63 2.10  48 2.10  52 2.10
  17  0.500  0.500  0.451-  39 2.10  46 2.10  47 2.10  62 2.10  49 2.10  53 2.11
  18  0.250  0.500  0.550-  53 2.10  44 2.10  52 2.10  69 2.10  46 2.11  50 2.13
  19  0.500  0.750  0.550-  53 2.10  52 2.10  68 2.10  45 2.10  47 2.11  51 2.12
  20  0.250  0.750  0.648-  52 2.09  42 2.10  51 2.10  67 2.10  50 2.10
  21  0.500  0.500  0.648-  66 2.10  50 2.10  51 2.10  43 2.10  53 2.10
  22  0.750  0.000  0.352-  41 2.10  56 2.10  57 2.10  64 2.10  54 2.10
  23  0.000  0.250  0.352-  40 2.10  56 2.10  57 2.10  65 2.10  55 2.10
  24  0.750  0.250  0.451-  39 2.10  54 2.10  55 2.10  62 2.10  56 2.10  60 2.10
  25  0.000  0.000  0.451-  38 2.10  54 2.10  55 2.10  63 2.10  57 2.10  61 2.10
  26  0.750  0.000  0.550-  45 2.10  61 2.10  60 2.10  68 2.10  54 2.11  58 2.13
  27  1.000  0.250  0.550-  60 2.10  44 2.10  69 2.10  61 2.10  55 2.11  59 2.13
  28  0.750  0.250  0.648-  60 2.09  58 2.10  43 2.10  59 2.10  66 2.10
  29  0.000  1.000  0.648-  61 2.09  67 2.10  59 2.10  42 2.10  58 2.10
  30  0.750  0.500  0.352-  49 2.10  56 2.10  64 2.10  65 2.10  62 2.10
  31  0.000  0.750  0.352-  48 2.10  57 2.10  64 2.10  65 2.10  63 2.10
  32  0.750  0.750  0.451-  47 2.10  54 2.10  62 2.10  63 2.10  64 2.10  68 2.10
  33  0.000  0.500  0.451-  46 2.10  55 2.10  62 2.10  63 2.10  65 2.10  69 2.11
  34  0.750  0.500  0.550-  53 2.10  60 2.10  68 2.10  69 2.10  62 2.11  66 2.13
  35  1.000  0.750  0.550-  68 2.10  52 2.10  69 2.10  61 2.10  63 2.11  67 2.13
  36  0.750  0.750  0.648-  68 2.09  58 2.10  51 2.10  67 2.10  66 2.10
  37  1.000  0.500  0.648-  69 2.09  50 2.10  66 2.10  67 2.10  59 2.10
  38  0.250  0.000  0.451-   8 2.10   9 2.10  16 2.10  25 2.10   6 2.10  10 2.11
  39  0.500  0.250  0.451-   8 2.10   9 2.10  17 2.10  24 2.10   7 2.10  11 2.11
  40  0.250  0.250  0.352-   6 2.10   7 2.10  14 2.10  23 2.10   8 2.10
  41  0.500  0.000  0.352-   6 2.10   7 2.10  15 2.10  22 2.10   9 2.10
  42  0.250  0.000  0.650-  12 2.10  20 2.10  29 2.10  13 2.10  10 2.13
  43  0.500  0.250  0.650-  13 2.10  28 2.10  12 2.10  21 2.10  11 2.12
  44  0.250  0.250  0.549-  12 2.09  27 2.10  18 2.10  10 2.10  11 2.10   8 2.10
  45  0.500  0.000  0.549-  13 2.09  10 2.10  26 2.10  11 2.10  19 2.10   9 2.10
  46  0.250  0.500  0.451-   8 2.10  16 2.10  17 2.10  33 2.10  14 2.10  18 2.11
  47  0.500  0.750  0.451-   9 2.10  16 2.10  17 2.10  32 2.10  15 2.10  19 2.11
  48  0.250  0.750  0.352-   6 2.10  14 2.10  15 2.10  31 2.10  16 2.10
  49  0.500  0.500  0.352-   7 2.10  14 2.10  15 2.10  30 2.10  17 2.10
  50  0.250  0.500  0.650-  37 2.10  12 2.10  20 2.10  21 2.10  18 2.13
  51  0.500  0.750  0.650-  13 2.10  36 2.10  20 2.10  21 2.10  19 2.12
  52  0.250  0.750  0.549-  20 2.09  35 2.10  18 2.10  10 2.10  19 2.10  16 2.10
  53  0.500  0.500  0.550-  11 2.10  19 2.10  18 2.10  34 2.10  21 2.10  17 2.11
  54  0.750  0.000  0.451-   9 2.10  24 2.10  25 2.10  32 2.10  22 2.10  26 2.11
  55  0.000  0.250  0.451-   8 2.10  24 2.10  25 2.10  33 2.10  23 2.10  27 2.11
  56  0.750  0.250  0.352-   7 2.10  22 2.10  23 2.10  30 2.10  24 2.10
  57  0.000  0.000  0.352-   6 2.10  22 2.10  23 2.10  31 2.10  25 2.10
  58  0.750  0.000  0.650-  28 2.10  36 2.10  29 2.10  13 2.10  26 2.13
  59  1.000  0.250  0.650-  29 2.10  12 2.10  28 2.10  37 2.10  27 2.13
  60  0.750  0.250  0.549-  28 2.09  27 2.10  34 2.10  26 2.10  11 2.10  24 2.10
  61  0.000  1.000  0.549-  29 2.09  10 2.10  26 2.10  35 2.10  27 2.10  25 2.10
  62  0.750  0.500  0.451-  17 2.10  24 2.10  32 2.10  33 2.10  30 2.10  34 2.11
  63  0.000  0.750  0.451-  16 2.10  25 2.10  32 2.10  33 2.10  31 2.10  35 2.11
  64  0.750  0.750  0.352-  15 2.10  22 2.10  30 2.10  31 2.10  32 2.10
  65  0.000  0.500  0.352-  14 2.10  23 2.10  30 2.10  31 2.10  33 2.10
  66  0.750  0.500  0.650-  37 2.10  28 2.10  36 2.10  21 2.10  34 2.13
  67  1.000  0.750  0.650-  29 2.10  36 2.10  20 2.10  37 2.10  35 2.13
  68  0.750  0.750  0.549-  36 2.09  35 2.10  34 2.10  26 2.10  19 2.10  32 2.10
  69  1.000  0.500  0.550-  37 2.09  35 2.10  27 2.10  34 2.10  18 2.10  33 2.11

IMPORTANT INFORMATION: All symmetrisations will be switched off!
NOSYMM: (Re-)initialisation of all symmetry stuff for point group C_1.

                                     Primitive cell

  volume of cell :    1504.9259

  direct lattice vectors                    reciprocal lattice vectors
     8.404861995  0.000000000  0.000000000     0.118978753  0.000000000  0.000000000
     0.000000000  8.404861995  0.000000000     0.000000000  0.118978753  0.000000000
     0.000000000  0.000000000 21.303646496     0.000000000  0.000000000  0.046940321

  length of vectors
     8.404861995  8.404861995 21.303646496     0.118978753  0.118978753  0.046940321

  position of ions in fractional coordinates (direct lattice)
     0.500008200  0.499987128  0.791018886
     0.499999492  0.606192779  0.820389814
     0.499999463  0.393819714  0.820387013
     0.606918589  0.500001390  0.761875566
     0.393074916  0.500001316  0.761874318
     0.250000000  0.000000000  0.352052406
     0.500000000  0.250000000  0.352052406
     0.250000000  0.250000000  0.450684135
     0.500000000  0.000000000  0.450684135
     0.250016758  0.000000022  0.549722075
     0.499999961  0.250168378  0.549855289
     0.250033081  0.249769183  0.647549817
     0.499999830  0.999999901  0.647553282
     0.250000000  0.500000000  0.352052406
     0.500000000  0.750000000  0.352052406
     0.250000000  0.750000000  0.450684135
     0.500000000  0.500000000  0.450684135
     0.250153244  0.499999851  0.549863318
     0.499999985  0.749831580  0.549855213
     0.250032970  0.750230717  0.647549842
     0.500000033  0.500000012  0.648424411
     0.750000000  0.000000000  0.352052406
     0.000000000  0.250000000  0.352052406
     0.750000000  0.250000000  0.450684135
     0.000000000  0.000000000  0.450684135
     0.749983207  0.000000061  0.549722024
     0.999999974  0.250036654  0.549759814
     0.749966698  0.249769367  0.647549851
     0.000000076  0.999999807  0.647624491
     0.750000000  0.500000000  0.352052406
     0.000000000  0.750000000  0.352052406
     0.750000000  0.750000000  0.450684135
     0.000000000  0.500000000  0.450684135
     0.749846732  0.499999858  0.549863353
     0.999999981  0.749963333  0.549759763
     0.749966962  0.750230606  0.647549848
     0.999999988  0.500000024  0.647596435
     0.250000000  0.000000000  0.450684135
     0.500000000  0.250000000  0.450684135
     0.250000000  0.250000000  0.352052406
     0.500000000  0.000000000  0.352052406
     0.249973421  0.000000122  0.649692888
     0.499999982  0.249678392  0.649529271
     0.249946060  0.250022393  0.549485718
     0.499999844  0.000000005  0.549445890
     0.250000000  0.500000000  0.450684135
     0.500000000  0.750000000  0.450684135
     0.250000000  0.750000000  0.352052406
     0.500000000  0.500000000  0.352052406
     0.249710275  0.499999728  0.649873683
     0.500000050  0.750321602  0.649529061
     0.249945935  0.749977528  0.549485615
     0.499999982  0.499999965  0.549638594
     0.750000000  0.000000000  0.450684135
     0.000000000  0.250000000  0.450684135
     0.750000000  0.250000000  0.352052406
     0.000000000  0.000000000  0.352052406
     0.750026693  0.000000039  0.649692835
     0.999999903  0.249962248  0.649757474
     0.750053949  0.250022528  0.549485679
     0.000000033  0.999999902  0.549470439
     0.750000000  0.500000000  0.450684135
     0.000000000  0.750000000  0.450684135
     0.750000000  0.750000000  0.352052406
     0.000000000  0.500000000  0.352052406
     0.750289690  0.499999811  0.649873734
     0.999999793  0.750037626  0.649757342
     0.750054069  0.749977395  0.549485601
     0.999999915  0.500000078  0.549502345

  ion indices of the primitive-cell ions
   primitive index   ion index
                 1           1
                 2           2
                 3           3
                 4           4
                 5           5
                 6           6
                 7           7
                 8           8
                 9           9
                10          10
                11          11
                12          12
                13          13
                14          14
[...]
   2.10099211  0.00000102 13.84082761
   4.20243085  2.09851243 13.83734198
   2.10076214  2.10140371 11.70604949
   4.20242968  0.00000004 11.70520101
   2.10121550  4.20243100  9.60121550
   4.20243100  6.30364650  9.60121550
   2.10121550  6.30364650  7.50000000
   4.20243100  4.20243100  7.50000000
   2.09878040  4.20242871 13.84467920
   4.20243142  6.30634952 13.83733751
   2.10076109  6.30345763 11.70604730
   4.20243084  4.20243070 11.70930630
   6.30364650  0.00000000  9.60121550
   0.00000000  2.10121550  9.60121550
   6.30364650  2.10121550  7.50000000
   0.00000000  0.00000000  7.50000000
   6.30387085  0.00000033 13.84082649
   8.40486118  2.10089820 13.84220353
   6.30409993  2.10140484 11.70604866
   0.00000028  8.40486117 11.70572400
   6.30364650  4.20243100  9.60121550
   0.00000000  6.30364650  9.60121550
   6.30364650  6.30364650  7.50000000
   0.00000000  4.20243100  7.50000000
   6.30608130  4.20242941 13.84468030
   8.40486026  6.30396274 13.84220071
   6.30410094  6.30345651 11.70604699
   8.40486128  4.20243165 11.70640371

--------------------------------------- Iteration      FINAL  ---------------------------------------

--------------------OUTCAR has been truncated-------------------------

[...]

--------------------OUTCAR has been truncated-------------------------

  Number of pair interactions contributing to vdW energy:  847421
  Edisp (eV):   -5.35177

  FORCE on cell =-STRESS in cart. coord.  units (eV):
  Direction    XX          YY          ZZ          XY          YZ          ZX
  Alpha Z   908.88125   908.88125   908.88125
  Ewald  160963.41162160960.18418************     0.00002    -0.01349    -0.00530
  Hartree171201.70311171199.87597************     0.00001    -0.00054     0.00006
  E(xc)   -2024.40762 -2024.43650 -2027.62342     0.00000    -0.00005    -0.00002
  Local  ************************342197.13547    -0.00002     0.00939     0.00322
  n-local -1184.86896 -1184.84587 -1207.25044     0.00000     0.00036     0.00016
  augment   896.86948   896.87151   886.65822    -0.00000     0.00004     0.00002
  Kinetic  7442.95521  7442.99360  7480.39657    -0.00003     0.00042     0.00018
  Fock    -2003.41376 -2003.41255 -2000.19324    -0.00000     0.00005     0.00002
  vdW        -7.61593    -7.60953    -6.59111     0.00000     0.00002     0.00001
  Total     -30.76594   -30.72523    -2.15773    -0.00002    -0.00380    -0.00166
  in kB     -32.75409   -32.71075    -2.29717    -0.00002    -0.00405    -0.00177

 VOLUME and BASIS-vectors are now :
  energy-cutoff  :      600.00
  volume of cell :     1504.93
      direct lattice vectors                 reciprocal lattice vectors
     8.404861995  0.000000000  0.000000000     0.118978753  0.000000000  0.000000000
     0.000000000  8.404861995  0.000000000     0.000000000  0.118978753  0.000000000
     0.000000000  0.000000000 21.303646496     0.000000000  0.000000000  0.046940321

  length of vectors
     8.404861995  8.404861995 21.303646496     0.118978753  0.118978753  0.046940321

 FORCES acting on ions:
    Electron-Ion                     Ewald-Force                    Non-Local-Force
   0.242E-02 -.496E-02 -.960E+03   -.394E-02 0.823E-02 0.961E+03   -.181E-02 0.381E-02 -.526E-01
   0.159E-02 -.433E+02 -.238E+03   -.173E-02 0.480E+02 0.241E+03   0.231E-03 -.458E+01 -.320E+01
   0.161E-02 0.433E+02 -.238E+03   -.175E-02 -.480E+02 0.241E+03   0.235E-03 0.458E+01 -.320E+01
   -.436E+02 -.404E-02 -.243E+03   0.484E+02 0.433E-02 0.239E+03   -.466E+01 -.596E-03 0.309E+01
   0.436E+02 -.403E-02 -.243E+03   -.484E+02 0.432E-02 0.239E+03   0.466E+01 -.594E-03 0.309E+01
   0.131E+00 0.112E-04 0.210E+04   -.130E+00 -.935E-05 -.209E+04   -.635E-03 -.120E-05 -.641E+01
   -.650E-05 0.112E+00 0.210E+04   0.790E-05 -.110E+00 -.209E+04   -.869E-06 -.118E-02 -.642E+01
   0.522E+00 0.442E+00 0.719E+03   -.516E+00 -.430E+00 -.719E+03   -.317E-02 -.727E-02 0.395E+00
   0.160E-03 0.324E-04 0.719E+03   -.151E-03 -.272E-04 -.719E+03   -.666E-05 -.302E-05 0.358E+00
   0.249E+01 0.198E-03 -.658E+03   -.248E+01 -.168E-03 0.658E+03   -.746E-02 -.212E-04 -.188E+00
   0.284E-03 0.390E+01 -.652E+03   -.278E-03 -.385E+01 0.652E+03   -.110E-04 -.398E-01 -.350E+00
   0.152E+02 0.152E+02 -.202E+04   -.152E+02 -.153E+02 0.201E+04   -.122E-01 0.807E-01 0.554E+01
   0.977E-03 0.752E-04 -.203E+04   -.102E-02 -.105E-04 0.202E+04   -.765E-06 -.188E-04 0.552E+01
   0.141E+00 -.122E-04 0.210E+04   -.139E+00 0.104E-04 -.209E+04   -.108E-02 0.119E-05 -.641E+01
   -.856E-05 -.112E+00 0.210E+04   0.993E-05 0.110E+00 -.209E+04   -.848E-06 0.118E-02 -.642E+01
   0.522E+00 -.442E+00 0.719E+03   -.516E+00 0.430E+00 -.719E+03   -.318E-02 0.727E-02 0.395E+00
   -.286E-03 -.979E-04 0.720E+03   0.307E-03 0.895E-04 -.720E+03   -.117E-04 0.561E-05 0.424E+00
   0.407E+01 -.207E-03 -.653E+03   -.403E+01 0.192E-03 0.653E+03   -.398E-01 0.113E-04 -.206E+00
   0.218E-03 -.390E+01 -.652E+03   -.213E-03 0.385E+01 0.652E+03   -.969E-05 0.398E-01 -.350E+00
   0.152E+02 -.152E+02 -.202E+04   -.152E+02 0.153E+02 0.201E+04   -.122E-01 -.806E-01 0.554E+01
   -.804E-03 -.813E-03 -.197E+04   0.769E-03 0.723E-03 0.196E+04   0.440E-04 0.512E-04 0.546E+01
   -.131E+00 0.135E-04 0.210E+04   0.130E+00 -.114E-04 -.209E+04   0.635E-03 -.137E-05 -.641E+01
   0.564E-05 0.103E+00 0.210E+04   -.722E-05 -.102E+00 -.209E+04   0.103E-05 -.727E-03 -.641E+01
   -.522E+00 0.441E+00 0.719E+03   0.516E+00 -.430E+00 -.719E+03   0.317E-02 -.727E-02 0.395E+00
   0.404E-04 0.106E-03 0.718E+03   -.560E-04 -.844E-04 -.718E+03   0.967E-05 -.143E-04 0.392E+00
   -.249E+01 0.284E-03 -.658E+03   0.248E+01 -.253E-03 0.658E+03   0.754E-02 -.224E-04 -.188E+00
   -.185E-03 0.233E+01 -.658E+03   0.201E-03 -.233E+01 0.658E+03   -.116E-04 -.845E-02 -.196E+00
   -.152E+02 0.152E+02 -.202E+04   0.152E+02 -.153E+02 0.201E+04   0.122E-01 0.807E-01 0.554E+01
   -.537E-03 0.146E-02 -.204E+04   0.607E-03 -.150E-02 0.203E+04   -.260E-04 -.169E-04 0.551E+01
   -.141E+00 -.145E-04 0.210E+04   0.139E+00 0.124E-04 -.209E+04   0.108E-02 0.143E-05 -.641E+01
   0.796E-05 -.103E+00 0.210E+04   -.924E-05 0.102E+00 -.209E+04   0.766E-06 0.727E-03 -.641E+01
   -.522E+00 -.441E+00 0.719E+03   0.516E+00 0.430E+00 -.719E+03   0.318E-02 0.727E-02 0.395E+00
   0.106E-04 -.120E-03 0.718E+03   -.126E-04 0.916E-04 -.719E+03   0.284E-05 0.184E-04 0.393E+00
   -.407E+01 -.272E-03 -.653E+03   0.403E+01 0.254E-03 0.653E+03   0.397E-01 0.139E-04 -.206E+00
   -.150E-03 -.234E+01 -.658E+03   0.165E-03 0.233E+01 0.658E+03   -.974E-05 0.845E-02 -.197E+00
   -.152E+02 -.152E+02 -.202E+04   0.152E+02 0.153E+02 0.201E+04   0.122E-01 -.806E-01 0.554E+01
   -.329E-04 -.106E-02 -.203E+04   0.238E-04 0.113E-02 0.202E+04   0.284E-05 -.134E-04 0.551E+01
   0.418E+00 0.337E-04 0.538E+03   -.412E+00 -.226E-04 -.538E+03   -.720E-02 -.129E-04 -.700E-01
   0.960E-05 0.385E+00 0.539E+03   -.923E-05 -.396E+00 -.539E+03   -.946E-06 0.131E-01 -.983E-01
   0.101E+00 0.802E-01 0.158E+04   -.994E-01 -.787E-01 -.158E+04   -.155E-02 -.189E-02 0.312E+01
   0.483E-05 0.882E-05 0.158E+04   -.306E-05 -.691E-05 -.158E+04   -.223E-05 -.194E-05 0.312E+01
   0.608E+01 0.264E-03 -.155E+04   -.606E+01 -.270E-03 0.155E+04   -.992E-02 0.158E-04 -.456E+01
   0.447E-04 0.196E+02 -.152E+04   -.512E-04 -.195E+02 0.153E+04   0.123E-04 -.882E-01 -.463E+01
   0.234E+01 0.223E+01 -.485E+03   -.232E+01 -.223E+01 0.485E+03   -.126E-01 -.195E-02 0.312E+00
   0.990E-03 0.874E-05 -.486E+03   -.105E-02 0.233E-04 0.485E+03   0.372E-04 -.398E-04 0.285E+00
   0.486E+00 -.579E-04 0.539E+03   -.493E+00 0.572E-04 -.539E+03   0.822E-02 0.613E-06 -.950E-01
   -.299E-05 -.385E+00 0.539E+03   0.299E-05 0.395E+00 -.539E+03   0.134E-06 -.131E-01 -.983E-01
   0.101E+00 -.802E-01 0.158E+04   -.994E-01 0.787E-01 -.158E+04   -.155E-02 0.189E-02 0.312E+01
   -.188E-04 -.935E-05 0.158E+04   0.200E-04 0.826E-05 -.158E+04   -.166E-05 0.160E-05 0.311E+01
   0.201E+02 -.365E-03 -.152E+04   -.201E+02 0.352E-03 0.153E+04   -.597E-01 0.119E-05 -.455E+01
   -.454E-04 -.196E+02 -.152E+04   0.386E-04 0.195E+02 0.153E+04   0.155E-04 0.882E-01 -.463E+01
   0.234E+01 -.223E+01 -.485E+03   -.232E+01 0.223E+01 0.485E+03   -.126E-01 0.197E-02 0.312E+00
   -.107E-02 -.341E-03 -.482E+03   0.116E-02 0.349E-03 0.482E+03   -.781E-04 0.557E-05 0.116E+00
   -.418E+00 0.497E-04 0.538E+03   0.412E+00 -.397E-04 -.538E+03   0.719E-02 -.122E-04 -.700E-01
   0.198E-05 0.317E+00 0.538E+03   -.458E-05 -.316E+00 -.538E+03   0.312E-05 -.219E-02 -.794E-01
   -.101E+00 0.802E-01 0.158E+04   0.994E-01 -.787E-01 -.158E+04   0.155E-02 -.189E-02 0.312E+01
   -.267E-06 0.115E-04 0.158E+04   -.168E-05 -.835E-05 -.158E+04   0.201E-05 -.385E-05 0.312E+01
   -.608E+01 0.434E-03 -.155E+04   0.606E+01 -.444E-03 0.155E+04   0.993E-02 0.159E-04 -.456E+01
   -.205E-03 0.631E+01 -.155E+04   0.220E-03 -.629E+01 0.155E+04   -.197E-04 -.226E-01 -.457E+01
   -.234E+01 0.223E+01 -.485E+03   0.232E+01 -.223E+01 0.485E+03   0.126E-01 -.195E-02 0.312E+00
   0.131E-03 0.635E-03 -.490E+03   -.167E-03 -.650E-03 0.489E+03   0.274E-04 0.259E-05 0.272E+00
   -.486E+00 -.715E-04 0.539E+03   0.493E+00 0.709E-04 -.539E+03   -.818E-02 0.132E-05 -.950E-01
   0.150E-04 -.318E+00 0.538E+03   -.181E-04 0.316E+00 -.538E+03   0.388E-05 0.218E-02 -.793E-01
   -.101E+00 -.802E-01 0.158E+04   0.994E-01 0.787E-01 -.158E+04   0.155E-02 0.189E-02 0.312E+01
   0.111E-04 -.116E-04 0.158E+04   -.130E-04 0.837E-05 -.158E+04   0.251E-05 0.357E-05 0.312E+01
   -.201E+02 -.407E-03 -.152E+04   0.201E+02 0.392E-03 0.153E+04   0.597E-01 0.651E-05 -.455E+01
   -.159E-03 -.631E+01 -.155E+04   0.181E-03 0.629E+01 0.155E+04   -.259E-04 0.226E-01 -.457E+01
   -.234E+01 -.223E+01 -.485E+03   0.232E+01 0.223E+01 0.485E+03   0.126E-01 0.197E-02 0.312E+00
   -.759E-03 -.567E-03 -.486E+03   0.853E-03 0.577E-03 0.486E+03   -.832E-04 0.509E-05 0.308E+00
   0.281E-02 -.622E-02 0.185E+02   0.249E-12 -.926E-13 -.540E-11   -.277E-02 0.552E-02 -.163E+02

 POSITION                                       TOTAL-FORCE (eV/Angst)
      4.20247      4.20235     16.85211        -0.003403      0.007233      0.001642
      4.20243      5.09526     17.47772         0.000108     -0.004551      0.001615
      4.20243      3.30971     17.47766         0.000108     -0.002439      0.006100
      5.10100      4.20244     16.23094        -0.001709     -0.000328      0.005318
      3.30381      4.20244     16.23092         0.004848     -0.000324      0.007252
      2.10122      0.00000      7.50000         0.000290      0.000006      0.405318
      4.20243      2.10122      7.50000         0.000002      0.000480      0.406644
      2.10122      2.10122      9.60122         0.001937      0.003358      0.032128
      4.20243      0.00000      9.60122         0.000004      0.000007      0.034272
      2.10158     -0.00000     11.71115        -0.001689      0.000012      0.004276
      4.20243      2.10256     11.71387        -0.000004      0.000431      0.002828
      2.10165      2.09916     13.79523        -0.003536      0.002136      0.002164
      4.20243      8.40486     13.79541        -0.000046      0.000057      0.001718
      2.10122      4.20243      7.50000         0.000453      0.000005      0.406432
      4.20243      6.30365      7.50000         0.000002     -0.000468      0.406644
      2.10122      6.30365      9.60122         0.001941     -0.003350      0.032124
      4.20243      4.20243      9.60122         0.000010      0.000004      0.039430
      2.10264      4.20243     11.71398        -0.000548      0.000003      0.004028
      4.20243      6.30231     11.71387        -0.000004     -0.000434      0.002808
      2.10165      6.30571     13.79523        -0.003663     -0.002106      0.002208
      4.20243      4.20243     13.81355         0.000012     -0.000027      0.004402
      6.30365      0.00000      7.50000        -0.000287      0.000006      0.405320
      0.00000      2.10122      7.50000         0.000001      0.000312      0.405618
      6.30365      2.10122      9.60122        -0.001932      0.003358      0.032128
      0.00000      0.00000      9.60122        -0.000003      0.000011      0.030287
      6.30328     -0.00000     11.71115         0.001732      0.000011      0.004219
      0.00000      2.10154     11.71183         0.000005     -0.000852      0.004846
      6.30321      2.09915     13.79523         0.003506      0.002217      0.002206
     -0.00000      0.00000     13.79716         0.000050     -0.000061      0.002369
      6.30365      4.20243      7.50000        -0.000449      0.000005      0.406433
      0.00000      6.30365      7.50000         0.000001     -0.000301      0.405615
      6.30365      6.30365      9.60122        -0.001937     -0.003350      0.032125
      0.00000      4.20243      9.60122         0.000003     -0.000002      0.036051
      6.30223      4.20243     11.71398         0.000489      0.000003      0.004013
      0.00000      6.30332     11.71183         0.000005      0.000863      0.004881
      6.30321      6.30571     13.79523         0.003640     -0.002175      0.002234
      0.00000      4.20243     13.79634        -0.000006      0.000064      0.004356
      2.10122      0.00000      9.60122        -0.002647      0.000002      0.044375
      4.20243      2.10122      9.60122         0.000001      0.004246      0.048791
      2.10122      2.10122      7.50000        -0.000511     -0.000634     -0.494047
      4.20243      0.00000      7.50000         0.000001      0.000005     -0.494047
      2.10046     -0.00000     13.84121         0.004301      0.000018      0.000207
      4.20243      2.09908     13.83791         0.000010     -0.003630     -0.001377
      2.10040      2.10139     11.70646         0.002189     -0.000233     -0.001530
      4.20243      0.00000     11.70498        -0.000014     -0.000008      0.001814
      2.10122      4.20243      9.60122         0.002305      0.000006      0.050403
      4.20243      6.30365      9.60122         0.000002     -0.004237      0.048795
      2.10122      6.30365      7.50000        -0.000512      0.000644     -0.494047
      4.20243      4.20243      7.50000         0.000001      0.000006     -0.494824
      2.09901      4.20243     13.84531        -0.000839     -0.000007     -0.000398
      4.20243      6.30578     13.83791         0.000013      0.003636     -0.001392
      2.10040      6.30347     11.70646         0.002179      0.000252     -0.001536
      4.20243      4.20243     11.70987         0.000011      0.000020     -0.003144
      6.30365      0.00000      9.60122         0.002650      0.000002      0.044374
      0.00000      2.10122      9.60122         0.000003     -0.000683      0.044533
      6.30365      2.10122      7.50000         0.000514     -0.000634     -0.494049
      0.00000      0.00000      7.50000         0.000002      0.000004     -0.493341
      6.30440     -0.00000     13.84121        -0.004285      0.000014      0.000229
      8.40486      2.10066     13.84216        -0.000005      0.001049     -0.000344
      6.30446      2.10139     11.70646        -0.002170     -0.000223     -0.001518
      0.00000      0.00000     11.70642        -0.000004     -0.000008     -0.002987
      6.30365      4.20243      9.60122        -0.002295      0.000006      0.050410
      0.00000      6.30365      9.60122         0.000003      0.000691      0.044540
      6.30365      6.30365      7.50000         0.000516      0.000644     -0.494046
      0.00000      4.20243      7.50000         0.000003      0.000006     -0.493898
      6.30585      4.20243     13.84531         0.000828     -0.000003     -0.000378
      0.00000      6.30420     13.84216        -0.000006     -0.001036     -0.000369
      6.30446      6.30347     11.70646        -0.002179      0.000244     -0.001539
      0.00000      4.20243     11.70689         0.000003      0.000022     -0.001712
    total drift:                               -0.000123     -0.000386     -0.023396

  FREE ENERGIE OF THE ION-ELECTRON SYSTEM (eV)
  free  energy   TOTEN  =      -466.32173827 eV

  energy  without entropy=     -466.32173827  energy(sigma->0) =     -466.32173827

 d Force = 0.1438272E-04[-0.110E-04, 0.398E-04]  d Energy = 0.1784613E-04-0.346E-05
 d Force = 0.5551462E+01[ 0.555E+01, 0.555E+01]  d Ewald  = 0.5551462E+01 0.594E-08

 Conjugate gradient step on ions:
 trial-energy change:   -0.000018  1 .order   -0.000014   -0.000040    0.000011
  (g-gl).g = 0.530E-04      g.g   = 0.568E-04  gl.gl    = 0.714E-04
 g(Force)  = 0.568E-04   g(Stress)= 0.000E+00 ortho     = 0.374E-05
 gamma     =   0.74341
 trial     =   0.66789
 opt step  =   0.56002  (harmonic =   0.52303) maximal distance =0.00034522
 next E    =  -466.321739   (d E  =  -0.00002)

 reached required accuracy - stopping structural energy minimisation