 vasp.6.3.0 20Jan22 (build Apr  1 2022 16:44:48) complex
 executed on        HPECrayEX_GCC date 2022.11.01  20:44:52

 INCAR:
   SYSTEM = MgO-rocksalt
   ISMEAR = 0
   SIGMA = 0.05
   EDIFF = 1E-7
   ALGO = ALL
   ISTART = 0
   IBRION = 2
   NSW = 1000
   ISYM = 0
   ISIF = 2
   EDIFFG = -0.01
   DIPOL = 0.5 0.5 0.5
   IDIPOL = 3
   LDIPOL = .TRUE.
   GGA = RE
   IVDW = 13
   VDW_S8 = 1.7468
   VDW_A1 = 0.5363
   VDW_A2 = 3.0726
   ENCUT = 600
   PREC = Accurate
   LASPH = .TRUE.
   LREAL = .FALSE.
   ISPIN = 1
   NELM = 200
   NELMIN = 8
   NCORE = 8
   KPAR = 1
   LWAVE = .FALSE.
   LCHARG = .FALSE.

 POTCAR:    PAW_PBE C 08Apr2002
 POTCAR:    PAW_PBE O 08Apr2002
 POTCAR:    PAW_PBE H 15Jun2001
 POTCAR:    PAW_PBE Mg_pv 13Apr2007
 POTCAR:    PAW_PBE O 08Apr2002
 POTCAR:    PAW_PBE C 08Apr2002
   VRHFIN =C: s2p2

   TITEL  = PAW_PBE C 08Apr2002
   POMASS =   12.011; ZVAL   =    4.000    mass and valenz
   ENMAX  =  400.000; ENMIN  =  300.000 eV

[...]

   TITEL  = PAW_PBE H 15Jun2001
   POMASS =    1.000; ZVAL   =    1.000    mass and valenz
   ENMAX  =  250.000; ENMIN  =  200.000 eV

   TITEL  = PAW_PBE Mg_pv 13Apr2007
   POMASS =   24.305; ZVAL   =    8.000    mass and valenz
   ENMAX  =  403.929; ENMIN  =  302.947 eV

   TITEL  = PAW_PBE O 08Apr2002
   POMASS =   16.000; ZVAL   =    6.000    mass and valenz
   ENMAX  =  400.000; ENMIN  =  300.000 eV

  PAW_PBE C 08Apr2002                   :
  PAW_PBE O 08Apr2002                   :
  PAW_PBE H 15Jun2001                   :
  PAW_PBE Mg_pv 13Apr2007               :
  PAW_PBE O 08Apr2002                   :

 POSCAR:  C  O  H Mg  O
  positions in direct lattice
|           W    W    AA    RRRRR   N    N  II  N    N   GGGG   !!!           |
|           W    W   A  A   R    R  NN   N  II  NN   N  G    G  !!!           |
|           W    W  A    A  R    R  N N  N  II  N N  N  G       !!!           |
|           W WW W  AAAAAA  RRRRR   N  N N  II  N  N N  G  GGG   !            |
|           WW  WW  A    A  R   R   N   NN  II  N   NN  G    G                |
|           W    W  A    A  R    R  N    N  II  N    N   GGGG   !!!           |
|     Specifying the vdW parameters                                           |
|     VDW_S8 = 1.747                                                          |
|     VDW_A1 = 0.536                                                          |
|     VDW_A2 = 3.073                                                          |
|     in the INCAR file will overwrite the defaults for revpbe. Please        |
|     make sure that is what you intended.                                    |

 ion  position               nearest neighbor table
   1  0.500  0.955  0.773-   3 1.10   6 1.10   5 1.10   2 1.44
   2  0.500  0.785  0.772-   4 0.97   1 1.44
   3  0.500  0.992  0.822-   1 1.10
   4  0.500  0.750  0.729-   2 0.97
   5  0.606  0.005  0.750-   1 1.10
   6  0.394  0.005  0.750-   1 1.10
   7  0.000  0.750  0.352-  39 2.11  41 2.11  42 2.11  49 2.11  58 2.11
   8  0.250  0.000  0.352-  40 2.11  41 2.11  42 2.11  50 2.11  57 2.11
   9  0.000  0.000  0.451-  41 2.11  40 2.11  39 2.11  47 2.11  56 2.11  45 2.12
  10  0.250  0.750  0.451-  42 2.11  40 2.11  39 2.11  48 2.11  55 2.11  46 2.12
  11  0.000  0.750  0.550-  45 2.11  46 2.11  53 2.11  62 2.11  39 2.13  43 2.15
  12  0.250  0.000  0.550-  45 2.11  46 2.11  54 2.11  61 2.11  40 2.13  44 2.15
  13  0.000  0.000  0.649-  43 2.11  44 2.11  51 2.11  60 2.11  45 2.11
  14  0.250  0.750  0.649-  43 2.11  44 2.11  52 2.11  59 2.11  46 2.11
  15  0.000  0.250  0.352-  47 2.11  41 2.11  49 2.11  50 2.11  66 2.11
  16  0.250  0.500  0.352-  48 2.11  42 2.11  49 2.11  50 2.11  65 2.11
  17  0.000  0.500  0.451-  49 2.11  47 2.11  48 2.11  39 2.11  64 2.11  53 2.12
  18  0.250  0.250  0.451-  50 2.11  47 2.11  48 2.11  40 2.11  63 2.11  54 2.12
  19  0.000  0.250  0.550-  45 2.11  53 2.11  54 2.11  70 2.11  47 2.13  51 2.15
  20  0.250  0.500  0.550-  46 2.11  53 2.11  54 2.11  69 2.11  48 2.13  52 2.15
  21  0.000  0.500  0.649-  43 2.11  51 2.11  52 2.11  68 2.11  53 2.11
  22  0.250  0.250  0.649-  44 2.11  51 2.11  52 2.11  67 2.11  54 2.11
  23  0.500  0.750  0.352-  55 2.11  42 2.11  57 2.11  58 2.11  65 2.11
  24  0.750  0.000  0.352-  56 2.11  41 2.11  57 2.11  58 2.11  66 2.11
  25  0.500  0.000  0.451-  57 2.11  55 2.11  56 2.11  40 2.11  63 2.11  61 2.12
  26  0.750  0.750  0.451-  58 2.11  55 2.11  56 2.11  39 2.11  64 2.11  62 2.12
  27  0.500  0.750  0.550-  46 2.11  61 2.11  62 2.11  69 2.11  55 2.13  59 2.15
  28  0.750  0.000  0.550-  45 2.11  61 2.11  62 2.11  70 2.11  56 2.13  60 2.15
  29  0.500  0.000  0.649-  44 2.11  59 2.11  60 2.11  67 2.11  61 2.11
  30  0.750  0.750  0.649-  43 2.11  59 2.11  60 2.11  68 2.11  62 2.11
  31  0.500  0.250  0.352-  63 2.11  57 2.11  50 2.11  65 2.11  66 2.11
  32  0.750  0.500  0.352-  64 2.11  58 2.11  49 2.11  65 2.11  66 2.11
  33  0.500  0.500  0.451-  65 2.11  55 2.11  63 2.11  64 2.11  48 2.11  69 2.12
  34  0.750  0.250  0.451-  66 2.11  56 2.11  63 2.11  64 2.11  47 2.11  70 2.12
  35  0.500  0.250  0.550-  54 2.11  61 2.11  69 2.11  70 2.11  63 2.13  67 2.15
  36  0.750  0.500  0.550-  53 2.11  62 2.11  69 2.11  70 2.11  64 2.13  68 2.15
  37  0.500  0.500  0.649-  52 2.11  59 2.11  67 2.11  68 2.11  69 2.11
  38  0.750  0.250  0.649-  51 2.11  60 2.11  67 2.11  68 2.11  70 2.11
  39  0.000  0.750  0.451-   7 2.11   9 2.11  10 2.11  17 2.11  26 2.11  11 2.13
  40  0.250  0.000  0.451-   8 2.11   9 2.11  10 2.11  18 2.11  25 2.11  12 2.13
  41  0.000  0.000  0.352-   9 2.11   8 2.11   7 2.11  15 2.11  24 2.11
  42  0.250  0.750  0.352-  10 2.11   8 2.11   7 2.11  16 2.11  23 2.11
  43  0.000  0.750  0.651-  13 2.11  14 2.11  21 2.11  30 2.11  11 2.15
  44  0.250  0.000  0.651-  13 2.11  14 2.11  22 2.11  29 2.11  12 2.15
  45  0.000  0.000  0.550-  11 2.11  12 2.11  19 2.11  28 2.11  13 2.11   9 2.12
  46  0.250  0.750  0.550-  11 2.11  12 2.11  20 2.11  27 2.11  14 2.11  10 2.12
  47  0.000  0.250  0.451-  15 2.11   9 2.11  17 2.11  18 2.11  34 2.11  19 2.13
  48  0.250  0.500  0.451-  16 2.11  10 2.11  17 2.11  18 2.11  33 2.11  20 2.13
  49  0.000  0.500  0.352-  17 2.11  15 2.11  16 2.11   7 2.11  32 2.11
  50  0.250  0.250  0.352-  18 2.11  15 2.11  16 2.11   8 2.11  31 2.11
  51  0.000  0.250  0.651-  13 2.11  21 2.11  22 2.11  38 2.11  19 2.15
  52  0.250  0.500  0.651-  14 2.11  21 2.11  22 2.11  37 2.11  20 2.15
  53  0.000  0.500  0.550-  11 2.11  19 2.11  20 2.11  36 2.11  21 2.11  17 2.12
  54  0.250  0.250  0.550-  12 2.11  19 2.11  20 2.11  35 2.11  22 2.11  18 2.12
  55  0.500  0.750  0.451-  23 2.11  10 2.11  25 2.11  26 2.11  33 2.11  27 2.13
  56  0.750  0.000  0.451-  24 2.11   9 2.11  25 2.11  26 2.11  34 2.11  28 2.13
  57  0.500  0.000  0.352-  25 2.11  23 2.11  24 2.11   8 2.11  31 2.11
  58  0.750  0.750  0.352-  26 2.11  23 2.11  24 2.11   7 2.11  32 2.11
  59  0.500  0.750  0.651-  14 2.11  29 2.11  30 2.11  37 2.11  27 2.15
  60  0.750  0.000  0.651-  13 2.11  29 2.11  30 2.11  38 2.11  28 2.15
  61  0.500  0.000  0.550-  12 2.11  27 2.11  28 2.11  35 2.11  29 2.11  25 2.12
  62  0.750  0.750  0.550-  11 2.11  27 2.11  28 2.11  36 2.11  30 2.11  26 2.12
  63  0.500  0.250  0.451-  31 2.11  25 2.11  18 2.11  33 2.11  34 2.11  35 2.13
  64  0.750  0.500  0.451-  32 2.11  26 2.11  17 2.11  33 2.11  34 2.11  36 2.13
  65  0.500  0.500  0.352-  33 2.11  23 2.11  31 2.11  32 2.11  16 2.11
  66  0.750  0.250  0.352-  34 2.11  24 2.11  31 2.11  32 2.11  15 2.11
  67  0.500  0.250  0.651-  22 2.11  29 2.11  37 2.11  38 2.11  35 2.15
  68  0.750  0.500  0.651-  21 2.11  30 2.11  37 2.11  38 2.11  36 2.15
  69  0.500  0.500  0.550-  20 2.11  27 2.11  35 2.11  36 2.11  37 2.11  33 2.12
  70  0.750  0.250  0.550-  19 2.11  28 2.11  35 2.11  36 2.11  38 2.11  34 2.12

IMPORTANT INFORMATION: All symmetrisations will be switched off!
NOSYMM: (Re-)initialisation of all symmetry stuff for point group C_1.

                                     Primitive cell

  volume of cell :    1519.8199

  direct lattice vectors                    reciprocal lattice vectors
     8.440984654  0.000000000  0.000000000     0.118469591  0.000000000  0.000000000
     0.000000000  8.440984654  0.000000000     0.000000000  0.118469591  0.000000000
     0.000000000  0.000000000 21.330738491     0.000000000  0.000000000  0.046880702

  length of vectors
     8.440984654  8.440984654 21.330738491     0.118469591  0.118469591  0.046880702

  position of ions in fractional coordinates (direct lattice)
     0.499999997  0.955273305  0.772514025
     0.499999994  0.784922560  0.772234639
     0.499999998  0.991853684  0.821882038
     0.500000000  0.750000000  0.728828289
     0.606495230  0.004740842  0.749710987
     0.393504771  0.004740845  0.749710988
     0.000000000  0.750000000  0.351605267
     0.250000000  0.000000000  0.351605267
     0.000000000  0.000000000  0.450535089
     0.250000000  0.750000000  0.450535089
     0.000000000  0.750000000  0.550171424
     0.250000000  0.000000000  0.550171424
     0.000000000  0.000000000  0.648861363
     0.250000000  0.750000000  0.648861363
     0.000000000  0.250000000  0.351605267
     0.250000000  0.500000000  0.351605267
     0.000000000  0.500000000  0.450535089
     0.250000000  0.250000000  0.450535089
     0.000000000  0.250000000  0.550171424
     0.250000000  0.500000000  0.550171424
     0.000000000  0.500000000  0.648861363
     0.250000000  0.250000000  0.648861363
     0.500000000  0.750000000  0.351605267
     0.750000000  0.000000000  0.351605267
     0.500000000  0.000000000  0.450535089
     0.750000000  0.750000000  0.450535089
     0.500000000  0.750000000  0.550171424
     0.750000000  0.000000000  0.550171424
     0.500000000  0.000000000  0.648861363
     0.750000000  0.750000000  0.648861363
     0.500000000  0.250000000  0.351605267
     0.750000000  0.500000000  0.351605267
     0.500000000  0.500000000  0.450535089
     0.750000000  0.250000000  0.450535089
     0.500000000  0.250000000  0.550171424
     0.750000000  0.500000000  0.550171424
     0.500000000  0.500000000  0.648861363
     0.750000000  0.250000000  0.648861363
     0.000000000  0.750000000  0.450535089
     0.250000000  0.000000000  0.450535089
     0.000000000  0.000000000  0.351605267
     0.250000000  0.750000000  0.351605267
     0.000000000  0.750000000  0.651006323
     0.250000000  0.000000000  0.651006323
     0.000000000  0.000000000  0.549890244
     0.250000000  0.750000000  0.549890244
     0.000000000  0.250000000  0.450535089
     0.250000000  0.500000000  0.450535089
     0.000000000  0.500000000  0.351605267
     0.250000000  0.250000000  0.351605267
     0.000000000  0.250000000  0.651006323
     0.250000000  0.500000000  0.651006323
     0.000000000  0.500000000  0.549890244
     0.250000000  0.250000000  0.549890244
     0.500000000  0.750000000  0.450535089
     0.750000000  0.000000000  0.450535089
     0.500000000  0.000000000  0.351605267
     0.750000000  0.750000000  0.351605267
     0.500000000  0.750000000  0.651006323
     0.750000000  0.000000000  0.651006323
     0.500000000  0.000000000  0.549890244
     0.750000000  0.750000000  0.549890244
[...]
   6.33073849  2.11024616  9.61024616
   4.22049233  2.11024616 11.73556278
   6.33073849  4.22049233 11.73556278
   4.22049233  4.22049233 13.84069205
   6.33073849  2.11024616 13.84069205
   0.00000000  6.33073849  9.61024616
   2.11024616  0.00000000  9.61024616
   0.00000000  0.00000000  7.50000000
   2.11024616  6.33073849  7.50000000
   0.00000000  6.33073849 13.88644563
   2.11024616  0.00000000 13.88644563
   0.00000000  0.00000000 11.72956500
   2.11024616  6.33073849 11.72956500
   0.00000000  2.11024616  9.61024616
   2.11024616  4.22049233  9.61024616
   0.00000000  4.22049233  7.50000000
   2.11024616  2.11024616  7.50000000
   0.00000000  2.11024616 13.88644563
   2.11024616  4.22049233 13.88644563
   0.00000000  4.22049233 11.72956500
   2.11024616  2.11024616 11.72956500
   4.22049233  6.33073849  9.61024616
   6.33073849  0.00000000  9.61024616
   4.22049233  0.00000000  7.50000000
   6.33073849  6.33073849  7.50000000
   4.22049233  6.33073849 13.88644563
   6.33073849  0.00000000 13.88644563
   4.22049233  0.00000000 11.72956500
   6.33073849  6.33073849 11.72956500
   4.22049233  2.11024616  9.61024616
   6.33073849  4.22049233  9.61024616
   4.22049233  4.22049233  7.50000000
   6.33073849  2.11024616  7.50000000
   4.22049233  2.11024616 13.88644563
   6.33073849  4.22049233 13.88644563
   4.22049233  4.22049233 11.72956500
   6.33073849  2.11024616 11.72956500

--------------------------------------- Iteration      FINAL  ---------------------------------------

--------------------OUTCAR has been truncated-------------------------

[...]

--------------------OUTCAR has been truncated-------------------------

  FORCE on cell =-STRESS in cart. coord.  units (eV):
  Direction    XX          YY          ZZ          XY          YZ          ZX
  Alpha Z   918.85614   918.85614   918.85614
  Ewald  157254.82263157531.22172************    -0.01518    80.96613     0.00294
  Hartree167638.75756167805.01226************    -0.00419    43.26609    -0.00108
  E(xc)   -2523.76434 -2523.24152 -2530.80692    -0.00002     0.17035    -0.00000
  Local  ************************334596.11981     0.01621  -117.81607    -0.00021
  n-local -2835.62878 -2832.42212 -2856.96758     0.00003     1.13828    -0.00020
  augment  1054.54215  1052.77917  1043.44629     0.00012    -0.51830     0.00001
  Kinetic  7558.34638  7536.90404  7574.97886     0.00145    -7.35243    -0.00016
  Fock        0.00000     0.00000     0.00000     0.00000     0.00000     0.00000
  vdW       -21.80731   -21.85373   -17.10871     0.00001    -0.03685    -0.00000
  Total     -26.19568   -26.10337    -1.90294    -0.00157    -0.18281     0.00129
  in kB     -27.61520   -27.51788    -2.00606    -0.00165    -0.19271     0.00136

 VOLUME and BASIS-vectors are now :
  energy-cutoff  :      600.00
  volume of cell :     1519.82
      direct lattice vectors                 reciprocal lattice vectors
     8.440984654  0.000000000  0.000000000     0.118469591  0.000000000  0.000000000
     0.000000000  8.440984654  0.000000000     0.000000000  0.118469591  0.000000000
     0.000000000  0.000000000 21.330738491     0.000000000  0.000000000  0.046880702

  length of vectors
     8.440984654  8.440984654 21.330738491     0.118469591  0.118469591  0.046880702

 FORCES acting on ions:
    Electron-Ion                     Ewald-Force                    Non-Local-Force
   0.359E-02 -.118E+03 -.971E+03   -.167E-02 0.123E+03 0.973E+03   0.268E-02 -.461E+01 -.165E+01
   -.602E-02 0.167E+03 -.152E+04   0.840E-02 -.201E+03 0.154E+04   -.276E-02 0.344E+02 -.262E+02
   -.277E-02 -.154E+02 -.243E+03   0.296E-02 0.158E+02 0.248E+03   -.431E-03 -.421E+00 -.565E+01
   -.943E-04 0.187E+02 -.214E+03   0.681E-04 -.194E+02 0.207E+03   0.131E-04 0.677E+00 0.725E+01
   -.484E+02 -.385E+02 -.237E+03   0.529E+02 0.410E+02 0.235E+03   -.445E+01 -.257E+01 0.176E+01
   0.484E+02 -.385E+02 -.237E+03   -.529E+02 0.410E+02 0.235E+03   0.445E+01 -.257E+01 0.176E+01
   -.126E-05 0.153E+00 0.209E+04   0.130E-05 -.153E+00 -.208E+04   -.393E-07 0.313E-03 -.715E+01
   0.323E+00 -.162E+00 0.209E+04   -.326E+00 0.164E+00 -.208E+04   0.214E-02 -.111E-02 -.716E+01
   -.244E-04 -.636E+00 0.730E+03   0.259E-04 0.664E+00 -.730E+03   -.114E-05 -.201E-01 0.491E+00
   0.164E+01 0.706E+00 0.730E+03   -.163E+01 -.701E+00 -.731E+03   -.984E-02 -.360E-02 0.584E+00
   -.559E-05 0.234E+01 -.616E+03   0.332E-05 -.235E+01 0.616E+03   0.788E-06 0.235E-02 -.321E+00
   0.713E+01 -.411E+01 -.612E+03   -.717E+01 0.409E+01 0.612E+03   0.369E-01 0.152E-01 -.354E+00
   0.346E-03 -.114E+02 -.197E+04   -.422E-03 0.115E+02 0.197E+04   0.518E-04 -.110E+00 0.615E+01
   0.396E+02 0.143E+02 -.193E+04   -.406E+02 -.144E+02 0.193E+04   0.977E+00 0.785E-01 0.624E+01
   -.292E-05 -.151E+00 0.209E+04   0.301E-05 0.152E+00 -.208E+04   -.718E-07 -.848E-03 -.717E+01
   0.307E+00 0.163E+00 0.209E+04   -.310E+00 -.163E+00 -.208E+04   0.214E-02 0.591E-03 -.717E+01
   -.755E-05 0.635E+00 0.728E+03   0.785E-05 -.653E+00 -.729E+03   -.231E-06 0.128E-01 0.488E+00
   0.129E+01 -.670E+00 0.730E+03   -.133E+01 0.676E+00 -.730E+03   0.247E-01 -.366E-02 0.480E+00
   -.535E-05 -.216E+01 -.623E+03   0.365E-05 0.218E+01 0.624E+03   -.263E-06 -.143E-01 -.267E+00
   0.549E+01 0.406E+01 -.617E+03   -.551E+01 -.404E+01 0.618E+03   0.211E-01 -.139E-01 -.475E+00
   -.300E-05 0.112E+02 -.198E+04   -.309E-06 -.113E+02 0.198E+04   0.382E-05 0.102E+00 0.616E+01
   0.196E+02 -.126E+02 -.197E+04   -.197E+02 0.126E+02 0.197E+04   0.135E+00 -.762E-01 0.617E+01
   0.124E-05 0.168E+00 0.209E+04   -.130E-05 -.169E+00 -.208E+04   0.516E-07 0.186E-03 -.715E+01
   -.323E+00 -.162E+00 0.209E+04   0.326E+00 0.164E+00 -.208E+04   -.214E-02 -.111E-02 -.716E+01
   0.240E-04 -.961E+00 0.732E+03   -.257E-04 0.949E+00 -.732E+03   0.124E-05 0.111E-01 0.577E+00
   -.164E+01 0.706E+00 0.730E+03   0.163E+01 -.701E+00 -.731E+03   0.984E-02 -.360E-02 0.584E+00
   -.648E-05 0.379E+01 -.605E+03   0.938E-05 -.383E+01 0.605E+03   -.105E-05 0.353E-01 0.647E+00
   -.713E+01 -.411E+01 -.612E+03   0.717E+01 0.409E+01 0.612E+03   -.369E-01 0.152E-01 -.354E+00
   -.417E-03 -.330E+02 -.189E+04   0.551E-03 0.341E+02 0.188E+04   -.859E-04 -.115E+01 0.624E+01
   -.396E+02 0.143E+02 -.193E+04   0.406E+02 -.144E+02 0.193E+04   -.977E+00 0.785E-01 0.624E+01
   0.306E-05 -.166E+00 0.209E+04   -.316E-05 0.167E+00 -.208E+04   0.761E-07 -.108E-02 -.714E+01
   -.307E+00 0.163E+00 0.209E+04   0.310E+00 -.163E+00 -.208E+04   -.214E-02 0.591E-03 -.717E+01
   0.115E-04 0.985E+00 0.730E+03   -.118E-04 -.953E+00 -.731E+03   0.228E-06 -.236E-01 0.563E+00
   -.129E+01 -.670E+00 0.730E+03   0.133E+01 0.676E+00 -.730E+03   -.247E-01 -.366E-02 0.480E+00
   0.299E-04 -.375E+01 -.610E+03   -.274E-04 0.378E+01 0.611E+03   -.113E-05 -.349E-01 -.304E+00
   -.549E+01 0.406E+01 -.617E+03   0.551E+01 -.404E+01 0.618E+03   -.211E-01 -.139E-01 -.475E+00
   -.249E-04 0.281E+02 -.194E+04   0.241E-04 -.291E+02 0.194E+04   -.768E-06 0.106E+01 0.627E+01
   -.196E+02 -.126E+02 -.197E+04   0.197E+02 0.126E+02 0.197E+04   -.135E+00 -.761E-01 0.617E+01
   0.118E-05 0.463E+00 0.547E+03   -.130E-05 -.471E+00 -.547E+03   0.512E-08 0.108E-01 -.705E-01
   0.101E+01 -.487E+00 0.547E+03   -.102E+01 0.496E+00 -.547E+03   0.197E-01 -.136E-01 -.128E+00
   -.253E-05 -.112E+00 0.157E+04   0.265E-05 0.115E+00 -.157E+04   -.190E-06 -.508E-02 0.340E+01
   0.252E+00 0.120E+00 0.157E+04   -.253E+00 -.121E+00 -.157E+04   0.131E-02 0.115E-02 0.341E+01
   0.109E-03 0.581E+01 -.150E+04   -.127E-03 -.581E+01 0.150E+04   0.287E-04 0.780E-03 -.495E+01
   0.296E+02 -.167E+02 -.147E+04   -.296E+02 0.167E+02 0.148E+04   -.225E-01 0.217E-01 -.501E+01
   0.290E-05 -.264E+01 -.459E+03   -.176E-04 0.267E+01 0.458E+03   0.213E-04 -.244E-01 0.208E+00
   0.516E+01 0.227E+01 -.454E+03   -.521E+01 -.228E+01 0.454E+03   0.465E-01 0.583E-02 0.196E+00
   -.813E-05 -.416E+00 0.546E+03   0.746E-05 0.409E+00 -.546E+03   0.839E-06 0.900E-02 -.128E+00
   0.908E+00 0.509E+00 0.546E+03   -.921E+00 -.532E+00 -.546E+03   0.183E-01 0.327E-01 -.135E+00
   -.118E-05 0.110E+00 0.157E+04   0.121E-05 -.114E+00 -.157E+04   -.513E-07 0.572E-02 0.340E+01
   0.226E+00 -.120E+00 0.157E+04   -.232E+00 0.121E+00 -.157E+04   0.787E-02 -.564E-03 0.340E+01
   0.344E-04 -.570E+01 -.151E+04   -.554E-04 0.572E+01 0.151E+04   0.309E-04 -.140E-01 -.495E+01
   0.177E+02 0.154E+02 -.149E+04   -.177E+02 -.154E+02 0.150E+04   -.110E-02 -.237E-01 -.503E+01
   -.184E-04 0.248E+01 -.462E+03   0.167E-04 -.250E+01 0.461E+03   0.213E-05 0.127E-01 0.161E+00
   0.426E+01 -.223E+01 -.458E+03   -.427E+01 0.224E+01 0.458E+03   0.900E-02 -.136E-01 0.188E+00
   -.217E-05 0.547E+00 0.549E+03   0.256E-05 -.559E+00 -.549E+03   -.386E-06 0.167E-01 -.675E-01
   -.101E+01 -.487E+00 0.547E+03   0.102E+01 0.496E+00 -.547E+03   -.197E-01 -.136E-01 -.128E+00
   0.256E-05 -.138E+00 0.157E+04   -.267E-05 0.137E+00 -.157E+04   0.184E-06 0.174E-02 0.341E+01
   -.252E+00 0.120E+00 0.157E+04   0.253E+00 -.121E+00 -.157E+04   -.131E-02 0.115E-02 0.341E+01
   -.230E-03 0.199E+02 -.140E+04   0.248E-03 -.200E+02 0.141E+04   -.257E-04 0.367E-01 -.162E+01
   -.296E+02 -.167E+02 -.147E+04   0.296E+02 0.167E+02 0.148E+04   0.226E-01 0.217E-01 -.501E+01
   -.117E-04 -.333E+01 -.448E+03   0.263E-04 0.338E+01 0.447E+03   -.210E-04 -.428E-01 0.362E+00
   -.516E+01 0.227E+01 -.454E+03   0.521E+01 -.228E+01 0.454E+03   -.465E-01 0.581E-02 0.196E+00
   0.114E-04 -.500E+00 0.548E+03   -.106E-04 0.487E+00 -.548E+03   -.956E-06 0.161E-01 -.414E-01
   -.908E+00 0.509E+00 0.546E+03   0.921E+00 -.532E+00 -.546E+03   -.183E-01 0.327E-01 -.135E+00
   0.128E-05 0.136E+00 0.157E+04   -.132E-05 -.136E+00 -.157E+04   0.555E-07 -.547E-03 0.341E+01
   -.226E+00 -.120E+00 0.157E+04   0.232E+00 0.121E+00 -.157E+04   -.787E-02 -.564E-03 0.340E+01
   -.551E-04 -.159E+02 -.148E+04   0.947E-04 0.160E+02 0.149E+04   -.554E-04 -.407E-01 -.501E+01
   -.177E+02 0.154E+02 -.149E+04   0.177E+02 -.154E+02 0.150E+04   0.110E-02 -.237E-01 -.503E+01
   0.355E-04 0.329E+01 -.455E+03   -.341E-04 -.333E+01 0.455E+03   -.272E-05 0.349E-01 0.242E+00
   -.426E+01 -.223E+01 -.458E+03   0.427E+01 0.224E+01 0.458E+03   -.900E-02 -.136E-01 0.188E+00
   -.131E-02 -.248E+02 0.365E+02   0.135E-12 -.462E-12 -.114E-12   0.129E-02 0.249E+02 -.365E+02

 POSITION                                       TOTAL-FORCE (eV/Angst)
      4.22043      7.82838     16.95096         0.004558     -0.000007      0.008105
      4.22050      6.44070     16.60891        -0.000370     -0.004789     -0.002621
      4.22050      7.91035     18.04637        -0.000238     -0.001855     -0.004603
      4.22049      6.38391     15.60921        -0.000013     -0.003846     -0.002186
      5.12083     -0.08803     16.57298        -0.003322     -0.001101     -0.000894
      3.32021     -0.08806     16.57301        -0.000669      0.000644     -0.002373
      0.00000      6.33074      7.50000         0.000000     -0.000206      0.336492
      2.11025      0.00000      7.50000        -0.000858      0.000394      0.339343
      0.00000      0.00000      9.61025         0.000001      0.008340      0.082963
      2.11025      6.33074      9.61025         0.001202      0.001327      0.084292
      0.00000      6.33198     11.73461        -0.000001     -0.003569      0.000487
      2.10945      0.00087     11.73666        -0.002276     -0.000360      0.001712
      0.00000      0.00461     13.84244        -0.000024      0.000114      0.001309
      2.09123      6.33102     13.84884         0.000630     -0.001901     -0.000024
      0.00000      2.11025      7.50000         0.000000      0.000213      0.341605
      2.11025      4.22049      7.50000        -0.000849     -0.000415      0.339491
      0.00000      4.22049      9.61025         0.000000     -0.004471      0.086043
      2.11025      2.11025      9.61025        -0.009753      0.002137      0.084084
      0.00000      2.11186     11.73503        -0.000002     -0.000394     -0.003868
      2.10964      4.22231     11.73735         0.000001     -0.001607     -0.001247
     -0.00000      4.21999     13.84499         0.000001     -0.004460      0.001586
      2.10718      2.11362     13.84239        -0.001937     -0.000753      0.002177
      4.22049      6.33074      7.50000         0.000000     -0.000199      0.336882
      6.33074      0.00000      7.50000         0.000859      0.000394      0.339343
      4.22049      0.00000      9.61025        -0.000000     -0.001091      0.078549
      6.33074      6.33074      9.61025        -0.001201      0.001327      0.084294
      4.22049      6.33178     11.73255         0.000002      0.000255      0.003489
      6.33154      0.00087     11.73666         0.002276     -0.000361      0.001732
      4.22049      0.02779     13.83594         0.000049     -0.000031      0.001176
      6.34975      6.33102     13.84884        -0.000632     -0.001870     -0.000009
      4.22049      2.11025      7.50000         0.000000      0.000276      0.335485
      6.33074      4.22049      7.50000         0.000849     -0.000415      0.339491
      4.22049      4.22049      9.61025         0.000000      0.007718      0.080108
      6.33074      2.11025      9.61025         0.009754      0.002137      0.084085
      4.22049      2.11312     11.73176         0.000002      0.000594      0.001105
      6.33134      4.22231     11.73735        -0.000000     -0.001608     -0.001249
      4.22049      4.20227     13.84342        -0.000001      0.001109      0.000005
      6.33381      2.11362     13.84239         0.001932     -0.000784      0.002204
      0.00000      6.33074      9.61025         0.000000      0.002566      0.088528
      2.11025      0.00000      9.61025         0.006330     -0.004553      0.080153
      0.00000      0.00000      7.50000         0.000000     -0.001499     -0.501646
      2.11025      6.33074      7.50000         0.000348      0.000256     -0.499884
     -0.00000      6.33325     13.87992         0.000010     -0.001117      0.000026
      2.11229      0.00034     13.88198        -0.001706     -0.000260     -0.002062
     -0.00000      0.00038     11.72858         0.000007      0.000998      0.002510
      2.11422      6.33271     11.73353        -0.004668     -0.001698     -0.003997
      0.00000      2.11025      9.61025         0.000000      0.001922      0.072021
      2.11025      4.22049      9.61025         0.005755      0.009051      0.081644
      0.00000      4.22049      7.50000         0.000000      0.001560     -0.501837
      2.11025      2.11025      7.50000         0.002242     -0.000215     -0.501315
     -0.00000      2.11142     13.88227         0.000010      0.001359     -0.000822
      2.11229      4.22371     13.87713        -0.000429     -0.002579      0.001285
      0.00000      4.22237     11.72900         0.000001      0.001452     -0.003634
      2.11093      2.11084     11.72830        -0.000695      0.000215     -0.000584
      4.22049      6.33074      9.61025         0.000000      0.004546      0.076991
      6.33074      0.00000      9.61025        -0.006329     -0.004554      0.080151
      4.22049      0.00000      7.50000         0.000000      0.000474     -0.499396
      6.33074      6.33074      7.50000        -0.000347      0.000256     -0.499884
      4.22049      6.33439     13.90462        -0.000008     -0.002851      0.000242
      6.32869      0.00034     13.88198         0.001732     -0.000261     -0.002119
      4.22049     -0.00203     11.73159        -0.000006      0.003203     -0.001435
      6.32676      6.33271     11.73353         0.004669     -0.001704     -0.004006
      4.22049      2.11025      9.61025         0.000000      0.003327      0.083099
      6.33074      4.22049      9.61025        -0.005755      0.009051      0.081644
      4.22049      4.22049      7.50000         0.000000     -0.000238     -0.499580
      6.33074      2.11025      7.50000        -0.002241     -0.000215     -0.501314
      4.22049      2.11328     13.87608        -0.000015     -0.001924     -0.001655
      6.32870      4.22371     13.87713         0.000428     -0.002576      0.001285
      4.22049      4.22622     11.73174        -0.000001     -0.005098     -0.002379
      6.33005      2.11084     11.72830         0.000696      0.000222     -0.000590
    total drift:                               -0.000022      0.005010      0.006598

  FREE ENERGIE OF THE ION-ELECTRON SYSTEM (eV)
  free  energy   TOTEN  =      -401.93442109 eV

  energy  without entropy=     -401.93442109  energy(sigma->0) =     -401.93442109

 d Force = 0.1029462E-04[ 0.775E-05, 0.128E-04]  d Energy = 0.1131629E-04-0.102E-05
 d Force =-0.2091753E+01[-0.209E+01,-0.209E+01]  d Ewald  =-0.2091752E+01-0.617E-06

 reached required accuracy - stopping structural energy minimisation