 vasp.6.3.0 20Jan22 (build Apr  1 2022 16:44:48) complex
 executed on        HPECrayEX_GCC date 2022.11.13  07:39:30

 INCAR:
   SYSTEM = MgO-rocksalt
   ISMEAR = 0
   SIGMA = 0.05
   EDIFF = 1E-6
   ALGO = ALL
   ISTART = 0
   IBRION = -1
   NSW = 0
   ISYM = 0
   DIPOL = 0.5 0.5 0.5
   IDIPOL = 3
   LDIPOL = .TRUE.
   LHFCALC = .TRUE.
   GGA = B5
   AEXX = 0.2
   AGGAX = 0.72
   AGGAC = 0.81
   ALDAC = 0.19
   IVDW = 1
   VDW_S6 = 1.05
   VDW_C6 = 0.63 0.70
   VDW_R0 = 1.243 1.342
   ENCUT = 600
   PREC = Accurate
   LASPH = .TRUE.
   LREAL = .FALSE.
   ISPIN = 1
   NELM = 200
   NELMIN = 8
   NCORE = 8
   KPAR = 1
   LWAVE = .FALSE.
   LCHARG = .FALSE.

 POTCAR:    PAW_PBE Mg_pv 13Apr2007
 POTCAR:    PAW_PBE O 08Apr2002
 POTCAR:    PAW_PBE Mg_pv 13Apr2007
   VRHFIN =Mg: p6s2

   TITEL  = PAW_PBE Mg_pv 13Apr2007
   POMASS =   24.305; ZVAL   =    8.000    mass and valenz
   ENMAX  =  403.929; ENMIN  =  302.947 eV

   TITEL  = PAW_PBE O 08Apr2002
   POMASS =   16.000; ZVAL   =    6.000    mass and valenz
   ENMAX  =  400.000; ENMIN  =  300.000 eV

  PAW_PBE Mg_pv 13Apr2007               :
  PAW_PBE O 08Apr2002                   :

 POSCAR: Mg  O
  positions in direct lattice
 exchange correlation table for  LEXCH =       12
   RHO(1)=    0.500       N(1)  =     2000
   RHO(2)=  100.500       N(2)  =     4000

 ion  position               nearest neighbor table
   1  0.000  0.750  0.350-  33 2.14  35 2.14  36 2.14  43 2.14  52 2.14
   2  0.250  0.000  0.350-  34 2.14  35 2.14  36 2.14  44 2.14  51 2.14
   3  0.000  0.000  0.450-  39 2.13  35 2.14  33 2.14  34 2.14  41 2.14  50 2.14
   4  0.250  0.750  0.450-  36 2.14  34 2.14  33 2.14  42 2.14  49 2.14  40 2.15
   5  1.000  0.750  0.549-  33 2.12  47 2.13  39 2.13  56 2.16  40 2.16  37 2.16
   6  0.252  0.001  0.551-  55 2.12  38 2.12  48 2.13  40 2.14  39 2.16  34 2.16
   7  0.000  0.003  0.649-  45 2.11  38 2.12  54 2.12  39 2.13  37 2.16
   8  0.236  0.750  0.648-  37 2.02  40 2.09  46 2.13  38 2.13
   9  0.000  0.250  0.350-  41 2.14  35 2.14  43 2.14  44 2.14  60 2.14
  10  0.250  0.500  0.350-  42 2.14  36 2.14  43 2.14  44 2.14  59 2.14
  11  0.000  0.500  0.450-  47 2.13  43 2.14  42 2.14  33 2.14  41 2.14  58 2.14
  12  0.250  0.250  0.450-  44 2.14  41 2.14  42 2.14  34 2.14  57 2.14  48 2.14
  13  0.000  0.250  0.550-  41 2.13  47 2.14  39 2.14  48 2.14  64 2.14  45 2.16
  14  0.252  0.499  0.551-  63 2.12  46 2.12  48 2.13  40 2.14  47 2.16  42 2.16
  15  0.000  0.497  0.649-  45 2.11  46 2.12  62 2.12  47 2.13  37 2.16
  16  0.247  0.250  0.650-  45 2.11  48 2.13  46 2.15  38 2.15  61 2.16
  17  0.500  0.750  0.350-  49 2.14  36 2.14  51 2.14  52 2.14  59 2.14
  18  0.750  0.000  0.350-  50 2.14  35 2.14  51 2.14  52 2.14  60 2.14
  19  0.500  0.000  0.450-  51 2.14  49 2.14  50 2.14  34 2.14  57 2.14  55 2.16
  20  0.750  0.750  0.450-  52 2.14  49 2.14  50 2.14  33 2.14  58 2.14  56 2.15
  21  0.500  0.750  0.548-  49 2.09  56 2.12  40 2.12  55 2.12  63 2.12
  22  0.748  0.001  0.551-  55 2.12  54 2.12  64 2.13  56 2.14  39 2.16  50 2.16
  23  0.500  0.012  0.660-  61 2.04  38 2.17  54 2.17  53 2.24
  24  0.764  0.750  0.648-  37 2.02  56 2.09  62 2.13  54 2.13
  25  0.500  0.250  0.350-  57 2.14  51 2.14  44 2.14  59 2.14  60 2.14
  26  0.750  0.500  0.350-  58 2.14  52 2.14  43 2.14  59 2.14  60 2.14
  27  0.500  0.500  0.450-  59 2.14  49 2.14  57 2.14  58 2.14  42 2.14  63 2.16
  28  0.750  0.250  0.450-  60 2.14  50 2.14  57 2.14  58 2.14  41 2.14  64 2.14
  29  0.500  0.250  0.551-  48 2.13  64 2.13  55 2.16  63 2.16  61 2.17  57 2.17
  30  0.748  0.499  0.551-  63 2.12  62 2.12  64 2.13  56 2.14  47 2.16  58 2.16
  31  0.500  0.488  0.660-  61 2.04  46 2.17  62 2.17  53 2.24
  32  0.753  0.250  0.650-  45 2.11  64 2.13  62 2.15  54 2.15  61 2.16
  33  0.000  0.750  0.450-   5 2.12   1 2.14   4 2.14   3 2.14  11 2.14  20 2.14
  34  0.250  0.000  0.450-   2 2.14   3 2.14   4 2.14  12 2.14  19 2.14   6 2.16
  35  0.000  0.000  0.350-   3 2.14   2 2.14   1 2.14   9 2.14  18 2.14
  36  0.250  0.750  0.350-   4 2.14   2 2.14   1 2.14  10 2.14  17 2.14
  37  0.000  0.750  0.650-  24 2.02   8 2.02   5 2.16   7 2.16  15 2.16
  38  0.248  0.999  0.650-   7 2.12   6 2.12   8 2.13  16 2.15  23 2.17
  39  0.000  0.999  0.550-   3 2.13   5 2.13   7 2.13  13 2.14   6 2.16  22 2.16
  40  0.252  0.750  0.551-   8 2.09  21 2.12   6 2.14  14 2.14   4 2.15   5 2.16
  41  0.000  0.250  0.450-  13 2.13   9 2.14  11 2.14  12 2.14   3 2.14  28 2.14
  42  0.250  0.500  0.450-  10 2.14   4 2.14  11 2.14  12 2.14  27 2.14  14 2.16
  43  0.000  0.500  0.350-  11 2.14   9 2.14  10 2.14   1 2.14  26 2.14
  44  0.250  0.250  0.350-  12 2.14   9 2.14  10 2.14   2 2.14  25 2.14
  45  0.000  0.250  0.651-  16 2.11  32 2.11   7 2.11  15 2.11  13 2.16
  46  0.248  0.501  0.650-  15 2.12  14 2.12   8 2.13  16 2.15  31 2.17
  47  0.000  0.501  0.550-  11 2.13   5 2.13  15 2.13  13 2.14  14 2.16  30 2.16
  48  0.251  0.250  0.550-  16 2.13   6 2.13  14 2.13  29 2.13  13 2.14  12 2.14
  49  0.500  0.750  0.450-  21 2.09  17 2.14  19 2.14  20 2.14   4 2.14  27 2.14
  50  0.750  0.000  0.450-  18 2.14   3 2.14  19 2.14  20 2.14  28 2.14  22 2.16
  51  0.500  0.000  0.350-  19 2.14  17 2.14  18 2.14   2 2.14  25 2.14
  52  0.750  0.750  0.350-  20 2.14  17 2.14  18 2.14   1 2.14  26 2.14
  53  0.500  0.750  0.656-  23 2.24  31 2.24
  54  0.752  0.999  0.650-   7 2.12  22 2.12  24 2.13  32 2.15  23 2.17
  55  0.500  0.998  0.551-   6 2.12  22 2.12  21 2.12  29 2.16  19 2.16
  56  0.748  0.750  0.551-  24 2.09  21 2.12  22 2.14  30 2.14  20 2.15   5 2.16
  57  0.500  0.250  0.450-  25 2.14  19 2.14  12 2.14  27 2.14  28 2.14  29 2.17
  58  0.750  0.500  0.450-  26 2.14  20 2.14  11 2.14  27 2.14  28 2.14  30 2.16
  59  0.500  0.500  0.350-  27 2.14  17 2.14  25 2.14  26 2.14  10 2.14
  60  0.750  0.250  0.350-  28 2.14  18 2.14  25 2.14  26 2.14   9 2.14
  61  0.500  0.250  0.653-  23 2.04  31 2.04  16 2.16  32 2.16  29 2.17
  62  0.752  0.501  0.650-  15 2.12  30 2.12  24 2.13  32 2.15  31 2.17
  63  0.500  0.502  0.551-  14 2.12  30 2.12  21 2.12  29 2.16  27 2.16
  64  0.749  0.250  0.550-  32 2.13  22 2.13  30 2.13  29 2.13  13 2.14  28 2.14

IMPORTANT INFORMATION: All symmetrisations will be switched off!
NOSYMM: (Re-)initialisation of all symmetry stuff for point group C_1.

                                     Primitive cell

  volume of cell :    1563.6717

  direct lattice vectors                    reciprocal lattice vectors
     8.546113626  0.000000000  0.000000000     0.117012252  0.000000000  0.000000000
     0.000000000  8.546113626  0.000000000     0.000000000  0.117012252  0.000000000
     0.000000000  0.000000000 21.409585219     0.000000000  0.000000000  0.046708051

  length of vectors
     8.546113626  8.546113626 21.409585219     0.117012252  0.117012252  0.046708051

  position of ions in fractional coordinates (direct lattice)
     0.000000000  0.750000000  0.350310383
     0.250000000  0.000000000  0.350310383
     0.000000000  0.000000000  0.450103461
     0.250000000  0.750000000  0.450103461
     0.999999996  0.749999995  0.548934327
     0.252435121  0.000799322  0.551117351
     0.000000018  0.002694637  0.649174680
     0.236130573  0.749999923  0.647909678
     0.000000000  0.250000000  0.350310383
     0.250000000  0.500000000  0.350310383
     0.000000000  0.500000000  0.450103461
     0.250000000  0.250000000  0.450103461
     0.000000006  0.250000048  0.549757535
     0.252435106  0.499200687  0.551117401
     0.000000013  0.497305443  0.649174743
     0.247095179  0.250000020  0.649618847
     0.500000000  0.750000000  0.350310383
     0.750000000  0.000000000  0.350310383
     0.500000000  0.000000000  0.450103461
     0.750000000  0.750000000  0.450103461
     0.500000006  0.750000003  0.547825157
     0.747564865  0.000799317  0.551117381
     0.499999993  0.011658846  0.659893261
     0.763869454  0.749999933  0.647909717
     0.500000000  0.250000000  0.350310383
     0.750000000  0.500000000  0.350310383
     0.500000000  0.500000000  0.450103461
     0.750000000  0.250000000  0.450103461
     0.499999993  0.249999915  0.551456911
     0.747564900  0.499200696  0.551117424
     0.499999986  0.488341060  0.659893135
     0.752904818  0.250000023  0.649618834
     0.000000000  0.750000000  0.450103461
     0.250000000  0.000000000  0.450103461
     0.000000000  0.000000000  0.350310383
     0.250000000  0.750000000  0.350310383
     0.000000011  0.750000041  0.649751932
     0.247664923  0.998716189  0.650325631
     0.000000011  0.999496689  0.549535961
     0.252444442  0.750000066  0.550535273
     0.000000000  0.250000000  0.450103461
     0.250000000  0.500000000  0.450103461
     0.000000000  0.500000000  0.350310383
     0.250000000  0.250000000  0.350310383
     0.000000006  0.250000036  0.650512231
     0.247664723  0.501283682  0.650325546
     0.000000003  0.500503339  0.549535961
     0.250733516  0.249999975  0.550229632
     0.500000000  0.750000000  0.450103461
     0.750000000  0.000000000  0.450103461
     0.500000000  0.000000000  0.350310383
     0.750000000  0.750000000  0.350310383
     0.499999975  0.750000428  0.656241119
     0.752335083  0.998716161  0.650325629
     0.499999993  0.997697958  0.551167804
     0.747555556  0.750000068  0.550535284
     0.500000000  0.250000000  0.450103461
     0.750000000  0.500000000  0.450103461
     0.500000000  0.500000000  0.350310383
     0.750000000  0.250000000  0.350310383
     0.499999998  0.249999847  0.652708309
     0.752335277  0.501283712  0.650325548
     0.499999993  0.502301880  0.551167779
     0.749266477  0.249999978  0.550229652

  ion indices of the primitive-cell ions
   primitive index   ion index
                 1           1
                 2           2
                 3           3
                 4           4
                 5           5
                 6           6
                 7           7
                 8           8
                 9           9
                10          10
                11          11
                12          12
                13          13
                14          14
                15          15
                16          16
                17          17
                18          18
                19          19
                20          20
                21          21
                22          22
                23          23
                24          24
                25          25
                26          26
                27          27
                28          28
                29          29
                30          30
                31          31
                32          32
                33          33
                34          34
                35          35
                36          36
                37          37
                38          38
                39          39
                40          40
                41          41
                42          42
                43          43
                44          44
                45          45
                46          46
                47          47
[...]
   0.25000000  0.50000000  0.45010346
   0.00000000  0.50000000  0.35031038
   0.25000000  0.25000000  0.35031038
   0.00000001  0.25000004  0.65051223
   0.24766472  0.50128368  0.65032555
   0.00000000  0.50050334  0.54953596
   0.25073352  0.24999997  0.55022963
   0.50000000  0.75000000  0.45010346
   0.75000000  0.00000000  0.45010346
   0.50000000  0.00000000  0.35031038
   0.75000000  0.75000000  0.35031038
   0.49999997  0.75000043  0.65624112
   0.75233508  0.99871616  0.65032563
   0.49999999  0.99769796  0.55116780
   0.74755556  0.75000007  0.55053528
   0.50000000  0.25000000  0.45010346
   0.75000000  0.50000000  0.45010346
   0.50000000  0.50000000  0.35031038
   0.75000000  0.25000000  0.35031038
   0.50000000  0.24999985  0.65270831
   0.75233528  0.50128371  0.65032555
   0.49999999  0.50230188  0.55116778
   0.74926648  0.24999998  0.55022965

 position of ions in cartesian coordinates  (Angst):
   0.00000000  6.40958522  7.50000000
   2.13652841  0.00000000  7.50000000
   0.00000000  0.00000000  9.63652841
   2.13652841  6.40958522  9.63652841
   8.54611359  6.40958518 11.75245626
   2.15733923  0.00683109 11.79919389
   0.00000015  0.02302867 13.89856063
   2.01799870  6.40958456 13.87147746
   0.00000000  2.13652841  7.50000000
   2.13652841  4.27305681  7.50000000
   0.00000000  4.27305681  9.63652841
   2.13652841  2.13652841  9.63652841
   0.00000005  2.13652881 11.77008080
   2.15733910  4.26622580 11.79919496
   0.00000011  4.25002882 13.89856197
   2.11170347  2.13652858 13.90807007
   4.27305681  6.40958522  7.50000000
   6.40958522  0.00000000  7.50000000
   4.27305681  0.00000000  9.63652841
   6.40958522  6.40958522  9.63652841
   4.27305686  6.40958525 11.72870938
   6.38877428  0.00683105 11.79919453
   4.27305675  0.09963782 14.12804101
   6.52811515  6.40958465 13.87147831
   4.27305681  2.13652841  7.50000000
   6.40958522  4.27305681  7.50000000
   4.27305681  4.27305681  9.63652841
   6.40958522  2.13652841  9.63652841
   4.27305675  2.13652768 11.80646373
   6.38877458  4.26622587 11.79919546
   4.27305669  4.17341819 14.12803831
   6.43441013  2.13652860 13.90806978
   0.00000000  6.40958522  9.63652841
   2.13652841  0.00000000  9.63652841
   0.00000000  0.00000000  7.50000000
   2.13652841  6.40958522  7.50000000
   0.00000009  6.40958557 13.91091937
   2.11657257  8.53514203 13.92320202
   0.00000010  8.54181227 11.76533698
   2.15741888  6.40958578 11.78673184
   0.00000000  2.13652841  9.63652841
   2.13652841  4.27305681  9.63652841
   0.00000000  4.27305681  7.50000000
   2.13652841  2.13652841  7.50000000
   0.00000005  2.13652871 13.92719705
   2.11657086  4.28402731 13.92320021
   0.00000002  4.27735840 11.76533698
   2.14279712  2.13652819 11.78018819
   4.27305681  6.40958522  9.63652841
   6.40958522  0.00000000  9.63652841
   4.27305681  0.00000000  7.50000000
   6.40958522  6.40958522  7.50000000
   4.27305660  6.40958888 14.04985017
   6.42954110  8.53514180 13.92320198
   4.27305676  8.52644012 11.80027407
   6.38869473  6.40958580 11.78673207
   4.27305681  2.13652841  9.63652841
   6.40958522  4.27305681  9.63652841
   4.27305681  4.27305681  7.50000000
   6.40958522  2.13652841  7.50000000
   4.27305680  2.13652710 13.97421416
   6.42954276  4.28402757 13.92320023
   4.27305675  4.29272895 11.80027353
   6.40331645  2.13652822 11.78018862

--------------------------------------- Iteration      FINAL  ---------------------------------------

--------------------OUTCAR has been truncated-------------------------

[...]

--------------------OUTCAR has been truncated-------------------------

  DFT-D2 method for vdW energy calculation

  Parameters of vdW forcefield:
         C6(Jnm^6/mol)     R0(A)
   Mg       0.630          1.243
   O        0.700          1.342

  vdW correction parametrized for the method Aùþ      

  IVDW =   1
  VDW_RADIUS =    50.000 A
  VDW_S6 =     1.050
  VDW_SR =     1.000
  VDW_D =    20.000
  LVDW_EWALD = F

  Number of pair interactions contributing to vdW energy:  705098
  Edisp (eV):   -4.82266

 VOLUME and BASIS-vectors are now :
  energy-cutoff  :      600.00
  volume of cell :     1563.67
      direct lattice vectors                 reciprocal lattice vectors
     8.546113626  0.000000000  0.000000000     0.117012252  0.000000000  0.000000000
     0.000000000  8.546113626  0.000000000     0.000000000  0.117012252  0.000000000
     0.000000000  0.000000000 21.409585219     0.000000000  0.000000000  0.046708051

  length of vectors
     8.546113626  8.546113626 21.409585219     0.117012252  0.117012252  0.046708051

 FORCES acting on ions:
    Electron-Ion                     Ewald-Force                    Non-Local-Force
   0.102E-04 0.104E-04 0.201E+04   -.964E-05 -.108E-04 -.200E+04   0.336E-06 -.459E-06 -.626E+01
   -.643E+00 -.272E+00 0.200E+04   0.660E+00 0.292E+00 -.200E+04   -.112E-01 -.130E-01 -.637E+01
   0.562E-04 -.686E+00 0.666E+03   -.580E-04 0.723E+00 -.666E+03   0.150E-05 -.227E-01 0.235E+00
   -.115E+01 0.917E-04 0.661E+03   0.117E+01 -.933E-04 -.662E+03   -.157E-01 0.145E-05 0.477E+00
   0.505E-04 -.299E-04 -.640E+03   -.507E-04 0.318E-04 0.639E+03   0.340E-06 0.294E-05 0.543E+00
   -.103E+02 0.325E+01 -.672E+03   0.115E+02 -.364E+01 0.672E+03   -.971E+00 0.192E+00 -.681E+00
   0.388E-04 0.287E+01 -.199E+04   -.302E-04 -.221E+01 0.198E+04   -.104E-04 -.652E+00 0.596E+01
   -.539E+02 0.184E-03 -.197E+04   0.545E+02 -.131E-03 0.196E+04   0.877E+00 -.352E-04 0.576E+01
   0.131E-04 -.706E-05 0.201E+04   -.111E-04 0.101E-04 -.200E+04   -.233E-06 -.286E-05 -.628E+01
   -.643E+00 0.272E+00 0.200E+04   0.660E+00 -.292E+00 -.200E+04   -.112E-01 0.130E-01 -.637E+01
   0.436E-04 0.686E+00 0.666E+03   -.444E-04 -.723E+00 -.666E+03   -.229E-06 0.227E-01 0.235E+00
   -.373E+01 -.703E-04 0.662E+03   0.394E+01 0.733E-04 -.662E+03   -.137E+00 -.287E-05 0.595E+00
   0.618E-04 0.974E-04 -.652E+03   -.578E-04 -.957E-04 0.652E+03   -.561E-05 -.626E-05 0.335E+00
   -.103E+02 -.325E+01 -.672E+03   0.115E+02 0.364E+01 0.672E+03   -.971E+00 -.192E+00 -.681E+00
   0.384E-04 -.287E+01 -.199E+04   -.284E-04 0.221E+01 0.198E+04   -.726E-05 0.652E+00 0.596E+01
   -.747E+01 0.133E-03 -.198E+04   0.585E+01 -.152E-03 0.198E+04   0.131E+01 0.151E-04 0.631E+01
   -.806E-05 0.166E-04 0.200E+04   0.958E-05 -.156E-04 -.200E+04   -.498E-07 0.287E-06 -.628E+01
   0.643E+00 -.272E+00 0.200E+04   -.660E+00 0.292E+00 -.200E+04   0.112E-01 -.130E-01 -.637E+01
   -.501E-04 -.328E+01 0.657E+03   0.510E-04 0.351E+01 -.657E+03   -.257E-05 -.138E+00 0.353E+00
   0.115E+01 0.855E-04 0.661E+03   -.117E+01 -.861E-04 -.662E+03   0.157E-01 0.591E-06 0.477E+00
   -.429E-04 0.506E-03 -.683E+03   0.427E-04 -.449E-03 0.684E+03   -.348E-06 -.519E-04 0.340E+00
   0.103E+02 0.325E+01 -.672E+03   -.115E+02 -.364E+01 0.672E+03   0.971E+00 0.192E+00 -.681E+00
   -.261E-04 0.453E+02 -.206E+04   0.245E-04 -.471E+02 0.205E+04   0.698E-05 0.150E+00 0.671E+01
   0.539E+02 0.215E-03 -.197E+04   -.545E+02 -.159E-03 0.196E+04   -.877E+00 -.375E-04 0.576E+01
   -.119E-04 -.150E-04 0.200E+04   0.110E-04 0.146E-04 -.200E+04   -.975E-06 -.562E-06 -.638E+01
   0.643E+00 0.272E+00 0.200E+04   -.660E+00 -.292E+00 -.200E+04   0.112E-01 0.130E-01 -.637E+01
   -.477E-04 0.328E+01 0.657E+03   0.482E-04 -.351E+01 -.657E+03   -.116E-05 0.138E+00 0.353E+00
   0.373E+01 -.634E-04 0.662E+03   -.394E+01 0.656E-04 -.662E+03   0.137E+00 -.149E-05 0.595E+00
   -.372E-04 -.992E-04 -.680E+03   0.362E-04 0.818E-04 0.679E+03   0.511E-05 0.182E-04 0.648E+00
   0.103E+02 -.325E+01 -.672E+03   -.115E+02 0.364E+01 0.672E+03   0.971E+00 -.192E+00 -.681E+00
   -.480E-04 -.453E+02 -.206E+04   0.442E-04 0.471E+02 0.205E+04   -.104E-04 -.150E+00 0.671E+01
   0.747E+01 0.129E-03 -.198E+04   -.585E+01 -.148E-03 0.198E+04   -.131E+01 0.876E-05 0.631E+01
   0.287E-04 0.218E-04 0.502E+03   -.277E-04 -.232E-04 -.502E+03   -.564E-08 0.183E-05 0.281E+00
   -.198E+01 -.415E+00 0.494E+03   0.194E+01 0.400E+00 -.494E+03   0.356E-01 0.161E-01 -.300E+00
   0.899E-05 -.123E+00 0.151E+04   -.837E-05 0.134E+00 -.151E+04   0.287E-06 -.138E-01 0.316E+01
   -.355E+00 0.107E-04 0.151E+04   0.364E+00 -.110E-04 -.151E+04   -.109E-01 0.412E-06 0.317E+01
   -.149E-04 -.140E-03 -.150E+04   0.219E-04 0.164E-03 0.150E+04   -.315E-05 -.282E-04 -.378E+01
   -.163E+02 0.739E+01 -.150E+04   0.175E+02 -.868E+01 0.150E+04   -.116E+01 0.157E+01 -.288E+01
   0.668E-04 -.552E+00 -.485E+03   -.675E-04 0.411E+00 0.485E+03   0.106E-05 0.194E+00 0.579E+00
   -.119E+02 0.142E-03 -.499E+03   0.126E+02 -.129E-03 0.499E+03   -.101E+01 -.200E-04 0.164E+00
   0.394E-04 -.956E-05 0.500E+03   -.383E-04 0.836E-05 -.500E+03   -.904E-06 0.107E-05 0.171E+00
   -.198E+01 0.415E+00 0.494E+03   0.194E+01 -.400E+00 -.494E+03   0.356E-01 -.161E-01 -.300E+00
   0.922E-05 0.123E+00 0.151E+04   -.756E-05 -.134E+00 -.151E+04   -.258E-06 0.138E-01 0.316E+01
   -.584E+00 -.110E-04 0.151E+04   0.611E+00 0.104E-04 -.151E+04   -.335E-01 -.284E-06 0.314E+01
   0.400E-04 0.145E-03 -.150E+04   -.386E-04 -.142E-03 0.151E+04   -.525E-05 -.236E-05 -.367E+01
   -.163E+02 -.739E+01 -.150E+04   0.175E+02 0.868E+01 0.150E+04   -.116E+01 -.157E+01 -.288E+01
   0.306E-04 0.552E+00 -.485E+03   -.281E-04 -.411E+00 0.485E+03   -.168E-06 -.194E+00 0.579E+00
   -.568E+01 -.340E-04 -.492E+03   0.559E+01 0.350E-04 0.491E+03   0.597E-01 0.108E-05 0.904E+00
   -.269E-04 0.696E-04 0.501E+03   0.264E-04 -.652E-04 -.501E+03   -.342E-06 -.418E-05 0.259E+00
   0.198E+01 -.415E+00 0.494E+03   -.194E+01 0.400E+00 -.494E+03   -.356E-01 0.161E-01 -.300E+00
   -.787E-05 -.352E+00 0.150E+04   0.820E-05 0.381E+00 -.151E+04   -.756E-06 -.363E-01 0.313E+01
   0.355E+00 0.940E-05 0.151E+04   -.364E+00 -.103E-04 -.151E+04   0.109E-01 -.878E-07 0.317E+01
   -.538E-04 0.119E-02 -.151E+04   0.557E-04 -.118E-02 0.151E+04   -.332E-06 -.388E-04 -.204E+01
   0.163E+02 0.739E+01 -.150E+04   -.175E+02 -.868E+01 0.150E+04   0.116E+01 0.157E+01 -.288E+01
   -.248E-04 0.386E+01 -.532E+03   0.219E-04 -.462E+01 0.534E+03   0.250E-05 0.105E+01 -.210E+01
   0.119E+02 0.143E-03 -.499E+03   -.126E+02 -.130E-03 0.499E+03   0.101E+01 -.187E-04 0.164E+00
   -.380E-04 -.497E-04 0.491E+03   0.367E-04 0.529E-04 -.491E+03   0.536E-08 -.419E-05 -.282E+00
   0.198E+01 0.415E+00 0.494E+03   -.194E+01 -.400E+00 -.494E+03   -.356E-01 -.161E-01 -.300E+00
   -.770E-05 0.352E+00 0.150E+04   0.762E-05 -.381E+00 -.151E+04   -.191E-06 0.363E-01 0.313E+01
   0.584E+00 -.100E-04 0.151E+04   -.611E+00 0.968E-05 -.151E+04   0.335E-01 -.641E-06 0.314E+01
   -.225E-04 -.392E-03 -.149E+04   0.194E-04 0.374E-03 0.150E+04   -.154E-06 0.471E-04 -.140E+01
   0.163E+02 -.739E+01 -.150E+04   -.175E+02 0.868E+01 0.150E+04   0.116E+01 -.157E+01 -.288E+01
   -.495E-04 -.386E+01 -.532E+03   0.497E-04 0.462E+01 0.534E+03   -.654E-06 -.105E+01 -.210E+01
   0.568E+01 -.314E-04 -.492E+03   -.559E+01 0.318E-04 0.491E+03   -.597E-01 -.142E-06 0.904E+00
   0.116E-04 -.898E-04 -.265E+01   0.439E-12 -.625E-13 -.227E-12   -.213E-04 0.931E-04 0.237E+01

 POSITION                                       TOTAL-FORCE (eV/Angst)
      0.00000      6.40959      7.50000         0.000001     -0.000000      0.612672
      2.13653      0.00000      7.50000         0.004446      0.005192      0.636648
      0.00000      0.00000      9.63653         0.000000      0.011220      0.022666
      2.13653      6.40959      9.63653        -0.001281     -0.000000      0.040019
      8.54611      6.40959     11.75246         0.000001      0.000005     -0.143507
      2.15734      0.00683     11.79919         0.152506     -0.169712     -0.103373
      0.00000      0.02303     13.89856        -0.000002     -0.046172     -0.500177
      2.01800      6.40958     13.87148         1.463204      0.000013     -0.173683
      0.00000      2.13653      7.50000         0.000002     -0.000000      0.616116
      2.13653      4.27306      7.50000         0.004445     -0.005191      0.636660
      0.00000      4.27306      9.63653        -0.000001     -0.011220      0.022664
      2.13653      2.13653      9.63653         0.056893     -0.000000     -0.003215
      0.00000      2.13653     11.77008        -0.000002     -0.000005     -0.161252
      2.15734      4.26623     11.79919         0.152508      0.169711     -0.103388
      0.00000      4.25003     13.89856         0.000003      0.046164     -0.500168
      2.11170      2.13653     13.90807        -0.173084     -0.000003     -0.618535
      4.27306      6.40959      7.50000         0.000002      0.000001      0.616318
      6.40959      0.00000      7.50000        -0.004447      0.005192      0.636646
      4.27306      0.00000      9.63653        -0.000001      0.068357      0.099279
      6.40959      6.40959      9.63653         0.001279     -0.000000      0.040018
      4.27306      6.40959     11.72871        -0.000001      0.000001      1.100940
      6.38877      0.00683     11.79919        -0.152506     -0.169710     -0.103375
      4.27306      0.09964     14.12804         0.000006     -1.563843     -1.468803
      6.52812      6.40958     13.87148        -1.463208      0.000014     -0.173687
      4.27306      2.13653      7.50000        -0.000001     -0.000001      0.642486
      6.40959      4.27306      7.50000        -0.004445     -0.005190      0.636656
      4.27306      4.27306      9.63653        -0.000000     -0.068361      0.099278
      6.40959      2.13653      9.63653        -0.056892      0.000000     -0.003211
      4.27306      2.13653     11.80646         0.000004      0.000002     -0.300499
      6.38877      4.26623     11.79920        -0.152510      0.169706     -0.103392
      4.27306      4.17342     14.12804        -0.000014      1.563833     -1.468842
      6.43441      2.13653     13.90807         0.173091     -0.000010     -0.618521
      0.00000      6.40959      9.63653         0.000001      0.000000      0.023576
      2.13653      0.00000      9.63653         0.004766      0.002335      0.033421
      0.00000      0.00000      7.50000         0.000001     -0.004519     -0.272085
      2.13653      6.40959      7.50000        -0.003528     -0.000000     -0.267037
      0.00000      6.40959     13.91092         0.000004     -0.000008      0.066305
      2.11657      8.53514     13.92320        -0.097972      0.504870      0.364863
      0.00000      8.54181     11.76534         0.000001      0.079617      0.167115
      2.15742      6.40959     11.78673        -0.412179     -0.000011     -0.198454
      0.00000      2.13653      9.63653         0.000000     -0.000000      0.066892
      2.13653      4.27306      9.63653         0.004767     -0.002336      0.033424
      0.00000      4.27306      7.50000         0.000002      0.004517     -0.272087
      2.13653      2.13653      7.50000        -0.011104     -0.000001     -0.278057
      0.00000      2.13653     13.92720        -0.000004     -0.000000      0.079590
      2.11657      4.28403     13.92320        -0.097936     -0.504860      0.364878
      0.00000      4.27736     11.76534         0.000002     -0.079618      0.167111
      2.14280      2.13653     11.78019        -0.021950      0.000002      0.189839
      4.27306      6.40959      9.63653        -0.000001     -0.000001     -0.110028
      6.40959      0.00000      9.63653        -0.004765      0.002337      0.033422
      4.27306      0.00000      7.50000        -0.000000     -0.012040     -0.280797
      6.40959      6.40959      7.50000         0.003526     -0.000001     -0.267049
      4.27306      6.40959     14.04985         0.000002     -0.000035      0.044873
      6.42954      8.53514     13.92320         0.097968      0.504874      0.364892
      4.27306      8.52644     11.80027         0.000000      0.447283     -0.181016
      6.38869      6.40959     11.78673         0.412180     -0.000009     -0.198456
      4.27306      2.13653      9.63653        -0.000001     -0.000002      0.071247
      6.40959      4.27306      9.63653        -0.004766     -0.002337      0.033425
      4.27306      4.27306      7.50000        -0.000000      0.012039     -0.280787
      6.40959      2.13653      7.50000         0.011104     -0.000001     -0.278060
      4.27306      2.13653     13.97421        -0.000003      0.000035      0.493872
      6.42954      4.28403     13.92320         0.097938     -0.504857      0.364878
      4.27306      4.29273     11.80027        -0.000000     -0.447265     -0.180989
      6.40332      2.13653     11.78019         0.021949     -0.000000      0.189841
    total drift:                               -0.000010      0.000014     -0.000674

  FREE ENERGIE OF THE ION-ELECTRON SYSTEM (eV)
  free  energy   TOTEN  =      -436.37177282 eV

  energy  without entropy=     -436.37177282  energy(sigma->0) =     -436.37177282