 vasp.6.3.0 20Jan22 (build Apr  1 2022 16:44:48) complex
 executed on        HPECrayEX_GCC date 2023.03.02  03:44:49

 INCAR:
   SYSTEM = MgO-rocksalt
   ISMEAR = 0
   SIGMA = 0.05
   EDIFF = 1E-6
   ALGO = ALL
   ISTART = 0
   IBRION = -1
   NSW = 0
   ISYM = 0
   DIPOL = 0.5 0.5 0.5
   IDIPOL = 3
   LDIPOL = .TRUE.
   GGA = RE
   AGGAC = 0.0
   LUSE_VDW = .TRUE.
   LASPH = .TRUE.
   ENCUT = 600
   PREC = Accurate
   LASPH = .TRUE.
   LREAL = .FALSE.
   ISPIN = 1
   NELM = 200
   NELMIN = 8
   NCORE = 8
   KPAR = 1
   LWAVE = .FALSE.
   LCHARG = .FALSE.

 POTCAR:    PAW_PBE N 08Apr2002
 POTCAR:    PAW_PBE O 08Apr2002
 POTCAR:    PAW_PBE Mg_pv 13Apr2007
 POTCAR:    PAW_PBE O 08Apr2002
|               ----> ADVICE to this user running VASP <----                  |
|     You have switched on vdW-DFT.                                           |
|     This routine was written and supplied by Jiri Klimes. We recommend      |
|     that you carefully read and cite the following publications:            |
|       J. Klimes, D.R. Bowler, A. Michelides                                 |
|          J. Phys.: Cond Matt. 22 022201 (2010)                              |
|       J. Klimes, D.R. Bowler, A. Michelides                                 |
|          Phys. Rev. B. 83, 195131 (2011)                                    |
|     and references therein.                                                 |

   TITEL  = PAW_PBE N 08Apr2002
   POMASS =   14.001; ZVAL   =    5.000    mass and valenz
   ENMAX  =  400.000; ENMIN  =  300.000 eV

[...]

   TITEL  = PAW_PBE Mg_pv 13Apr2007
   POMASS =   24.305; ZVAL   =    8.000    mass and valenz
   ENMAX  =  403.929; ENMIN  =  302.947 eV

   TITEL  = PAW_PBE O 08Apr2002
   POMASS =   16.000; ZVAL   =    6.000    mass and valenz
   ENMAX  =  400.000; ENMIN  =  300.000 eV

  PAW_PBE N 08Apr2002                   :
  PAW_PBE O 08Apr2002                   :
  PAW_PBE Mg_pv 13Apr2007               :
  PAW_PBE O 08Apr2002                   :

 POSCAR:  N  O Mg  O
  positions in direct lattice
 exchange correlation table for  LEXCH =       40
   RHO(1)=    0.500       N(1)  =     2000
   RHO(2)=  100.500       N(2)  =     4000

 ion  position               nearest neighbor table
   1  0.541  0.550  0.804-   2 1.14
   2  0.635  0.641  0.792-   1 1.14   3 1.21
   3  0.733  0.737  0.778-   2 1.21
   4  0.000  0.750  0.350-  36 2.14  38 2.14  39 2.14  46 2.14  55 2.14
   5  0.250  0.000  0.350-  37 2.14  38 2.14  39 2.14  47 2.14  54 2.14
   6  0.000  0.000  0.450-  38 2.14  37 2.14  36 2.14  44 2.14  53 2.14  42 2.14
   7  0.250  0.750  0.450-  39 2.14  37 2.14  36 2.14  45 2.14  52 2.14  43 2.14
   8  1.000  0.750  0.550-  59 2.14  42 2.14  50 2.14  43 2.14  36 2.15  40 2.16
   9  0.250  1.000  0.550-  42 2.14  43 2.14  58 2.14  51 2.14  37 2.15  41 2.17
  10  0.000  0.000  0.650-  42 2.13  48 2.14  41 2.14  57 2.14  40 2.14
  11  0.250  0.750  0.649-  43 2.13  40 2.13  56 2.14  41 2.14  49 2.14
  12  0.000  0.250  0.350-  44 2.14  38 2.14  46 2.14  47 2.14  63 2.14
  13  0.250  0.500  0.350-  45 2.14  39 2.14  46 2.14  47 2.14  62 2.14
  14  0.000  0.500  0.450-  46 2.14  44 2.14  45 2.14  36 2.14  61 2.14  50 2.14
  15  0.250  0.250  0.450-  47 2.14  44 2.14  45 2.14  37 2.14  60 2.14  51 2.14
  16  0.000  0.250  0.550-  42 2.14  67 2.14  50 2.14  51 2.14  44 2.15  48 2.17
  17  0.250  0.500  0.550-  50 2.14  43 2.14  51 2.14  66 2.14  45 2.15  49 2.16
  18  0.000  0.500  0.650-  50 2.13  49 2.13  48 2.14  40 2.14  65 2.14
  19  0.250  0.250  0.650-  51 2.13  48 2.14  41 2.14  49 2.14  64 2.14
  20  0.500  0.750  0.350-  52 2.14  39 2.14  54 2.14  55 2.14  62 2.14
  21  0.750  0.000  0.350-  53 2.14  38 2.14  54 2.14  55 2.14  63 2.14
  22  0.500  0.000  0.450-  54 2.14  52 2.14  53 2.14  37 2.14  60 2.14  58 2.14
  23  0.750  0.750  0.450-  55 2.14  52 2.14  53 2.14  36 2.14  61 2.14  59 2.15
  24  0.500  0.750  0.551-  59 2.13  58 2.13  66 2.14  43 2.14  52 2.15  56 2.17
  25  0.750  1.000  0.550-  59 2.14  42 2.14  58 2.14  67 2.14  53 2.15  57 2.16
  26  0.500  0.000  0.649-  58 2.13  64 2.13  41 2.14  57 2.14  56 2.14
  27  0.751  0.751  0.651-  40 2.13  57 2.13  65 2.15  56 2.15  59 2.15
  28  0.500  0.250  0.350-  60 2.14  54 2.14  47 2.14  62 2.14  63 2.14
  29  0.750  0.500  0.350-  61 2.14  55 2.14  46 2.14  62 2.14  63 2.14
  30  0.500  0.500  0.450-  62 2.14  52 2.14  60 2.14  61 2.14  45 2.14  66 2.14
  31  0.750  0.250  0.450-  63 2.14  53 2.14  60 2.14  61 2.14  44 2.14  67 2.14
  32  0.500  0.250  0.550-  58 2.14  67 2.14  51 2.14  66 2.14  60 2.15  64 2.16
  33  0.750  0.500  0.551-  59 2.13  50 2.13  66 2.14  67 2.14  61 2.15  65 2.17
  34  0.499  0.499  0.649-  66 2.12  64 2.13  49 2.13  65 2.14  56 2.14
  35  0.750  0.250  0.649-  67 2.13  57 2.13  65 2.14  48 2.14  64 2.14
  36  0.000  0.750  0.450-   4 2.14   6 2.14   7 2.14  14 2.14  23 2.14   8 2.15
  37  0.250  0.000  0.450-   5 2.14   6 2.14   7 2.14  15 2.14  22 2.14   9 2.15
  38  0.000  0.000  0.350-   6 2.14   5 2.14   4 2.14  12 2.14  21 2.14
  39  0.250  0.750  0.350-   7 2.14   5 2.14   4 2.14  13 2.14  20 2.14
  40  0.001  0.750  0.651-  11 2.13  27 2.13  18 2.14  10 2.14   8 2.16
  41  0.250  0.000  0.652-  19 2.14  10 2.14  26 2.14  11 2.14   9 2.17
  42  0.000  0.000  0.550-  10 2.13   9 2.14  16 2.14  25 2.14   8 2.14   6 2.14
  43  0.250  0.750  0.550-  11 2.13   9 2.14  17 2.14  24 2.14   8 2.14   7 2.14
  44  0.000  0.250  0.450-  12 2.14   6 2.14  14 2.14  15 2.14  31 2.14  16 2.15
  45  0.250  0.500  0.450-  13 2.14   7 2.14  14 2.14  15 2.14  30 2.14  17 2.15
  46  0.000  0.500  0.350-  14 2.14  12 2.14  13 2.14   4 2.14  29 2.14
  47  0.250  0.250  0.350-  15 2.14  12 2.14  13 2.14   5 2.14  28 2.14
  48  0.000  0.250  0.652-  19 2.14  10 2.14  18 2.14  35 2.14  16 2.17
  49  0.250  0.500  0.651-  34 2.13  18 2.13  19 2.14  11 2.14  17 2.16
  50  1.000  0.500  0.550-  18 2.13  33 2.13  17 2.14  16 2.14   8 2.14  14 2.14
  51  0.250  0.250  0.550-  19 2.13   9 2.14  16 2.14  17 2.14  32 2.14  15 2.14
  52  0.500  0.750  0.450-  20 2.14   7 2.14  22 2.14  23 2.14  30 2.14  24 2.15
  53  0.750  0.000  0.450-  21 2.14   6 2.14  22 2.14  23 2.14  31 2.14  25 2.15
  54  0.500  0.000  0.350-  22 2.14  20 2.14  21 2.14   5 2.14  28 2.14
  55  0.750  0.750  0.350-  23 2.14  20 2.14  21 2.14   4 2.14  29 2.14
  56  0.500  0.750  0.652-  11 2.14  26 2.14  34 2.14  27 2.15  24 2.17
  57  0.750  0.001  0.651-  35 2.13  27 2.13  26 2.14  10 2.14  25 2.16
  58  0.500  1.000  0.550-  26 2.13  24 2.13  32 2.14   9 2.14  25 2.14  22 2.14
  59  0.750  0.750  0.550-  33 2.13  24 2.13   8 2.14  25 2.14  23 2.15  27 2.15
  60  0.500  0.250  0.450-  28 2.14  22 2.14  15 2.14  30 2.14  31 2.14  32 2.15
  61  0.750  0.500  0.450-  29 2.14  23 2.14  14 2.14  30 2.14  31 2.14  33 2.15
  62  0.500  0.500  0.350-  30 2.14  20 2.14  28 2.14  29 2.14  13 2.14
  63  0.750  0.250  0.350-  31 2.14  21 2.14  28 2.14  29 2.14  12 2.14
  64  0.500  0.250  0.651-  34 2.13  26 2.13  19 2.14  35 2.14  32 2.16
  65  0.750  0.500  0.652-  35 2.14  18 2.14  34 2.14  27 2.15  33 2.17
  66  0.500  0.500  0.550-  34 2.12  24 2.14  33 2.14  32 2.14  17 2.14  30 2.14
  67  0.750  0.250  0.550-  35 2.13  16 2.14  32 2.14  33 2.14  25 2.14  31 2.14

IMPORTANT INFORMATION: All symmetrisations will be switched off!
NOSYMM: (Re-)initialisation of all symmetry stuff for point group C_1.

                                     Primitive cell

  volume of cell :    1563.6717

  direct lattice vectors                    reciprocal lattice vectors
     8.546113626  0.000000000  0.000000000     0.117012252  0.000000000  0.000000000
     0.000000000  8.546113626  0.000000000     0.000000000  0.117012252  0.000000000
     0.000000000  0.000000000 21.409585219     0.000000000  0.000000000  0.046708051

  length of vectors
     8.546113626  8.546113626 21.409585219     0.117012252  0.117012252  0.046708051

  position of ions in fractional coordinates (direct lattice)
     0.541442875  0.549624828  0.804329537
     0.634581797  0.640567961  0.792121278
     0.732864434  0.736542046  0.778431156
     0.000000000  0.750000000  0.350310383
     0.250000000  0.000000000  0.350310383
     0.000000000  0.000000000  0.450103461
     0.250000000  0.750000000  0.450103461
     0.999875424  0.750079784  0.550486685
     0.250025802  0.999965419  0.550350887
     0.000234091  0.000173349  0.649549771
     0.249879741  0.749978123  0.649452443
     0.000000000  0.250000000  0.350310383
     0.250000000  0.500000000  0.350310383
     0.000000000  0.500000000  0.450103461
     0.250000000  0.250000000  0.450103461
     0.000009634  0.249986660  0.550353614
     0.249812239  0.500009577  0.550298447
     0.000252109  0.500022089  0.649505022
     0.249970671  0.249907454  0.649591298
     0.500000000  0.750000000  0.350310383
     0.750000000  0.000000000  0.350310383
     0.500000000  0.000000000  0.450103461
     0.750000000  0.750000000  0.450103461
     0.500344427  0.750052956  0.550556646
     0.750130143  0.999837444  0.550484101
     0.500093739  0.000204507  0.649474628
     0.750950648  0.750890143  0.650681374
     0.500000000  0.250000000  0.350310383
     0.750000000  0.500000000  0.350310383
     0.500000000  0.500000000  0.450103461
     0.750000000  0.250000000  0.450103461
     0.500057273  0.249779870  0.550294848
     0.750103260  0.500304137  0.550556789
     0.499135362  0.499061321  0.648969043
     0.750053397  0.249823434  0.649460311
     0.000000000  0.750000000  0.450103461
     0.250000000  0.000000000  0.450103461
     0.000000000  0.000000000  0.350310383
     0.250000000  0.750000000  0.350310383
     0.000606822  0.750089394  0.651226611
     0.250149020  0.000078091  0.651507394
     0.000163850  0.000114977  0.550097299
     0.250215496  0.750010878  0.550096809
     0.000000000  0.250000000  0.450103461
     0.250000000  0.500000000  0.450103461
     0.000000000  0.500000000  0.350310383
     0.250000000  0.250000000  0.350310383
     0.000144524  0.250082599  0.651506146
     0.249923816  0.499826470  0.651244455
     0.999899317  0.499951104  0.550145051
     0.250011921  0.249965276  0.550086336
     0.500000000  0.750000000  0.450103461
     0.750000000  0.000000000  0.450103461
     0.500000000  0.000000000  0.350310383
     0.750000000  0.750000000  0.350310383
     0.499761832  0.749647309  0.651938670
     0.750152449  0.000562198  0.651199286
     0.499989593  0.999868864  0.550137754
     0.749977783  0.749930926  0.550385705
     0.500000000  0.250000000  0.450103461
     0.750000000  0.500000000  0.450103461
     0.500000000  0.500000000  0.350310383
     0.750000000  0.250000000  0.350310383
     0.499891965  0.249859354  0.651258053
     0.749686141  0.499727411  0.651960473
     0.500035043  0.499986437  0.550103177
     0.750052503  0.250189762  0.550098675

  ion indices of the primitive-cell ions
   primitive index   ion index
                 1           1
                 2           2
                 3           3
                 4           4
                 5           5
                 6           6
                 7           7
                 8           8
[...]
   2.13674891  8.54581809 11.78278421
   0.00200057  0.00148146 13.90659118
   2.13550066  6.40939826 13.90450743
   0.00000000  2.13652841  7.50000000
   2.13652841  4.27305681  7.50000000
   0.00000000  4.27305681  9.63652841
   2.13652841  2.13652841  9.63652841
   0.00008234  2.13641440 11.78284261
   2.13492378  4.27313866 11.78166149
   0.00215455  4.27324559 13.90563311
   2.13627776  2.13573750 13.90748026
   4.27305681  6.40958522  7.50000000
   6.40958522  0.00000000  7.50000000
   4.27305681  0.00000000  9.63652841
   6.40958522  6.40958522  9.63652841
   4.27600033  6.41003779 11.78718943
   6.41069743  8.54472440 11.78563628
   4.27385792  0.00174774 13.90498239
   6.41770956  6.41719248 13.93081834
   4.27305681  2.13652841  7.50000000
   6.40958522  4.27305681  7.50000000
   4.27305681  4.27305681  9.63652841
   6.40958522  2.13652841  9.63652841
   4.27354627  2.13464715 11.78158444
   6.41046769  4.27565601 11.78719250
   4.26566752  4.26503476 13.89415804
   6.41004156  2.13501945 13.90467587
   0.00000000  6.40958522  9.63652841
   2.13652841  0.00000000  9.63652841
   0.00000000  0.00000000  7.50000000
   2.13652841  6.40958522  7.50000000
   0.00518597  6.41034919 13.94249162
   2.13780195  0.00066738 13.94850308
   0.00140028  0.00098261 11.77735501
   2.13837006  6.40967818 11.77734452
   0.00000000  2.13652841  9.63652841
   2.13652841  4.27305681  9.63652841
   0.00000000  4.27305681  7.50000000
   2.13652841  2.13652841  7.50000000
   0.00123512  2.13723430 13.94847635
   2.13587733  4.27157380 13.94287367
   8.54525317  4.27263894 11.77837736
   2.13663029  2.13623165 11.77712028
   4.27305681  6.40958522  9.63652841
   6.40958522  0.00000000  9.63652841
   4.27305681  0.00000000  7.50000000
   6.40958522  6.40958522  7.50000000
   4.27102140  6.40657108 13.95773652
   6.41088807  0.00480460 13.94190660
   4.27296787  8.54499292 11.77822113
   6.40939535  6.40899491 11.78352966
   4.27305681  2.13652841  9.63652841
   6.40958522  4.27305681  9.63652841
   4.27305681  4.27305681  7.50000000
   6.40958522  2.13652841  7.50000000
   4.27213353  2.13532643 13.94316479
   6.40690294  4.27072724 13.95820330
   4.27335630  4.27294090 11.77748085
   6.41003392  2.13815014 11.77738447

--------------------------------------- Iteration      FINAL  ---------------------------------------

--------------------OUTCAR has been truncated-------------------------

[...]

--------------------OUTCAR has been truncated-------------------------

  FORCE on cell =-STRESS in cart. coord.  units (eV):
  Direction    XX          YY          ZZ          XY          YZ          ZX
  Alpha Z   900.75707   900.75707   900.75707
  Ewald  151722.77390151702.89022************   388.67052  -135.56710  -139.04252
  Hartree162198.41031162188.70504************   174.92530   -62.52977   -63.95468
  E(xc)   -2591.63378 -2591.72492 -2596.08876     1.91353    -0.64237    -0.65693
  Local  ************************322842.36522  -523.96688   184.71334   189.22046
  n-local -2863.05702 -2862.93789 -2879.31092    -2.46160     0.80144     0.81755
  augment  1086.09814  1086.16310  1078.72102    -1.38661     0.48476     0.50160
  Kinetic  7618.02822  7619.80906  7688.69053   -37.55166    12.76539    13.12474
  Fock        0.00000     0.00000     0.00000     0.00000     0.00000     0.00000
  Total     -30.59498   -30.59028    -2.61257     0.14260     0.02569     0.01022
  in kB     -31.34838   -31.34357    -2.67691     0.14612     0.02632     0.01048

 VOLUME and BASIS-vectors are now :
  energy-cutoff  :      600.00
  volume of cell :     1563.67
      direct lattice vectors                 reciprocal lattice vectors
     8.546113626  0.000000000  0.000000000     0.117012252  0.000000000  0.000000000
     0.000000000  8.546113626  0.000000000     0.000000000  0.117012252  0.000000000
     0.000000000  0.000000000 21.409585219     0.000000000  0.000000000  0.046708051

  length of vectors
     8.546113626  8.546113626 21.409585219     0.117012252  0.117012252  0.046708051

 FORCES acting on ions:
    Electron-Ion                     Ewald-Force                    Non-Local-Force
   0.204E+03 0.199E+03 -.116E+04   -.240E+03 -.234E+03 0.117E+04   0.353E+02 0.345E+02 -.116E+02
   0.135E+02 0.132E+02 -.116E+04   -.128E+02 -.125E+02 0.116E+04   -.749E+00 -.734E+00 0.488E-01
   -.207E+03 -.202E+03 -.140E+04   0.251E+03 0.245E+03 0.139E+04   -.439E+02 -.429E+02 0.139E+02
   -.179E+00 -.147E+00 0.203E+04   0.177E+00 0.147E+00 -.202E+04   0.173E-02 -.937E-04 -.640E+01
   0.158E+00 -.167E+00 0.203E+04   -.158E+00 0.166E+00 -.202E+04   -.714E-04 0.932E-03 -.641E+01
   -.663E+00 -.695E+00 0.714E+03   0.667E+00 0.696E+00 -.714E+03   -.284E-02 -.119E-02 0.431E+00
   0.704E+00 -.634E+00 0.715E+03   -.682E+00 0.647E+00 -.715E+03   -.154E-01 -.941E-02 0.422E+00
   -.586E+01 -.240E+01 -.585E+03   0.580E+01 0.242E+01 0.586E+03   0.554E-01 -.147E-01 -.436E+00
   0.251E+01 -.362E+01 -.594E+03   -.252E+01 0.361E+01 0.594E+03   0.173E-01 0.684E-02 -.213E+00
   -.190E+02 -.192E+02 -.191E+04   0.190E+02 0.192E+02 0.190E+04   -.954E-02 -.121E-01 0.560E+01
   0.175E+02 -.120E+02 -.189E+04   -.176E+02 0.120E+02 0.189E+04   0.908E-01 -.404E-02 0.559E+01
   -.160E+00 0.147E+00 0.203E+04   0.158E+00 -.147E+00 -.202E+04   0.825E-03 -.346E-04 -.641E+01
   0.178E+00 0.168E+00 0.203E+04   -.178E+00 -.166E+00 -.202E+04   0.505E-03 -.896E-03 -.640E+01
   -.696E+00 0.705E+00 0.715E+03   0.662E+00 -.703E+00 -.715E+03   0.239E-01 -.833E-03 0.457E+00
   0.671E+00 0.626E+00 0.713E+03   -.683E+00 -.640E+00 -.714E+03   0.888E-02 0.101E-01 0.430E+00
   -.348E+01 0.233E+01 -.594E+03   0.347E+01 -.235E+01 0.595E+03   0.768E-02 0.148E-01 -.216E+00
   0.403E+01 0.368E+01 -.587E+03   -.407E+01 -.367E+01 0.587E+03   0.438E-01 -.557E-02 -.293E+00
   -.242E+02 0.203E+02 -.189E+04   0.244E+02 -.203E+02 0.189E+04   -.128E+00 0.122E-01 0.561E+01
   0.112E+02 0.109E+02 -.192E+04   -.112E+02 -.109E+02 0.191E+04   0.120E-01 0.913E-02 0.559E+01
   0.181E+00 -.169E+00 0.203E+04   -.178E+00 0.169E+00 -.202E+04   -.216E-02 -.154E-03 -.641E+01
   -.158E+00 -.187E+00 0.203E+04   0.158E+00 0.185E+00 -.202E+04   -.219E-03 0.182E-02 -.640E+01
   0.681E+00 -.729E+00 0.715E+03   -.678E+00 0.694E+00 -.715E+03   -.144E-02 0.245E-01 0.455E+00
   -.706E+00 -.664E+00 0.716E+03   0.694E+00 0.650E+00 -.717E+03   0.885E-02 0.105E-01 0.502E+00
   0.596E+01 -.400E+01 -.580E+03   -.591E+01 0.404E+01 0.580E+03   -.598E-01 -.358E-01 -.187E+00
   -.259E+01 -.601E+01 -.585E+03   0.260E+01 0.595E+01 0.585E+03   -.163E-01 0.548E-01 -.446E+00
   0.203E+02 -.255E+02 -.189E+04   -.203E+02 0.256E+02 0.188E+04   0.114E-01 -.129E+00 0.561E+01
   -.242E+02 -.224E+02 -.181E+04   0.244E+02 0.226E+02 0.180E+04   -.215E+00 -.208E+00 0.547E+01
   0.160E+00 0.167E+00 0.203E+04   -.159E+00 -.168E+00 -.202E+04   -.962E-03 0.531E-03 -.640E+01
   -.179E+00 0.188E+00 0.203E+04   0.179E+00 -.186E+00 -.202E+04   -.280E-03 -.212E-02 -.641E+01
   0.711E+00 0.737E+00 0.716E+03   -.683E+00 -.711E+00 -.717E+03   -.201E-01 -.188E-01 0.456E+00
   -.672E+00 0.656E+00 0.715E+03   0.687E+00 -.635E+00 -.715E+03   -.105E-01 -.152E-01 0.422E+00
   0.353E+01 0.385E+01 -.587E+03   -.352E+01 -.389E+01 0.588E+03   -.589E-02 0.412E-01 -.284E+00
   -.418E+01 0.611E+01 -.581E+03   0.421E+01 -.605E+01 0.581E+03   -.377E-01 -.595E-01 -.180E+00
   0.290E+02 0.305E+02 -.184E+04   -.292E+02 -.307E+02 0.183E+04   0.188E+00 0.194E+00 0.571E+01
   -.121E+02 0.161E+02 -.190E+04   0.121E+02 -.162E+02 0.189E+04   -.634E-02 0.958E-01 0.558E+01
   -.617E+00 -.394E+00 0.536E+03   0.624E+00 0.394E+00 -.536E+03   -.873E-02 -.929E-03 -.826E-01
   0.432E+00 -.508E+00 0.535E+03   -.438E+00 0.504E+00 -.535E+03   0.849E-02 0.557E-02 -.727E-01
   -.126E+00 -.131E+00 0.152E+04   0.125E+00 0.131E+00 -.152E+04   0.961E-03 0.989E-03 0.357E+01
   0.127E+00 -.118E+00 0.152E+04   -.125E+00 0.120E+00 -.153E+04   -.166E-02 -.236E-02 0.358E+01
   -.273E+02 -.750E+01 -.143E+04   0.272E+02 0.749E+01 0.143E+04   0.294E-01 0.482E-02 -.495E+01
   0.711E+01 -.984E+01 -.145E+04   -.710E+01 0.980E+01 0.146E+04   -.111E-01 0.385E-01 -.491E+01
   -.322E+01 -.328E+01 -.439E+03   0.321E+01 0.327E+01 0.439E+03   0.126E-01 0.136E-01 0.268E+00
   0.255E+01 -.224E+01 -.436E+03   -.256E+01 0.223E+01 0.435E+03   0.697E-02 0.236E-02 0.301E+00
   -.481E+00 0.395E+00 0.535E+03   0.475E+00 -.399E+00 -.535E+03   0.839E-02 0.586E-02 -.726E-01
   0.541E+00 0.510E+00 0.536E+03   -.534E+00 -.505E+00 -.536E+03   -.914E-02 -.707E-02 -.402E-01
   -.127E+00 0.131E+00 0.152E+04   0.123E+00 -.131E+00 -.153E+04   0.508E-02 -.828E-03 0.358E+01
   0.125E+00 0.118E+00 0.152E+04   -.127E+00 -.120E+00 -.152E+04   0.244E-02 0.233E-02 0.358E+01
   -.938E+01 0.662E+01 -.145E+04   0.935E+01 -.661E+01 0.146E+04   0.354E-01 -.945E-02 -.491E+01
   0.163E+02 0.107E+02 -.144E+04   -.164E+02 -.106E+02 0.144E+04   0.554E-01 -.359E-01 -.496E+01
   -.341E+01 0.334E+01 -.436E+03   0.342E+01 -.333E+01 0.436E+03   -.415E-02 -.124E-01 0.302E+00
   0.225E+01 0.218E+01 -.441E+03   -.225E+01 -.217E+01 0.441E+03   -.841E-02 -.684E-02 0.229E+00
   0.646E+00 -.530E+00 0.537E+03   -.665E+00 0.532E+00 -.536E+03   0.256E-01 -.336E-02 -.113E+00
   -.423E+00 -.644E+00 0.536E+03   0.421E+00 0.652E+00 -.536E+03   0.238E-02 -.109E-01 -.815E-01
   0.126E+00 -.132E+00 0.152E+04   -.126E+00 0.129E+00 -.153E+04   -.609E-03 0.495E-02 0.358E+01
   -.128E+00 -.120E+00 0.152E+04   0.126E+00 0.118E+00 -.153E+04   0.230E-02 0.241E-02 0.357E+01
   0.321E+02 -.198E+02 -.139E+04   -.320E+02 0.198E+02 0.140E+04   -.115E+00 -.578E-02 -.473E+01
   -.811E+01 -.279E+02 -.143E+04   0.811E+01 0.278E+02 0.143E+04   0.201E-02 0.347E-01 -.496E+01
   0.328E+01 -.357E+01 -.435E+03   -.326E+01 0.357E+01 0.435E+03   -.150E-01 -.514E-03 0.308E+00
   -.267E+01 -.248E+01 -.429E+03   0.269E+01 0.250E+01 0.429E+03   -.138E-01 -.141E-01 0.386E-01
   0.491E+00 0.506E+00 0.536E+03   -.489E+00 -.497E+00 -.536E+03   -.383E-02 -.113E-01 -.400E-01
   -.559E+00 0.665E+00 0.537E+03   0.559E+00 -.682E+00 -.536E+03   -.263E-03 0.231E-01 -.114E+00
   0.128E+00 0.134E+00 0.152E+04   -.124E+00 -.130E+00 -.153E+04   -.551E-02 -.555E-02 0.358E+01
   -.126E+00 0.119E+00 0.152E+04   0.127E+00 -.117E+00 -.153E+04   -.226E-02 -.191E-02 0.358E+01
   0.101E+02 0.157E+02 -.144E+04   -.101E+02 -.157E+02 0.144E+04   -.381E-01 0.571E-01 -.496E+01
   -.203E+02 0.324E+02 -.140E+04   0.203E+02 -.323E+02 0.140E+04   -.121E-01 -.113E+00 -.474E+01
   0.352E+01 0.368E+01 -.427E+03   -.352E+01 -.368E+01 0.427E+03   0.169E-02 0.162E-02 0.467E+00
   -.232E+01 0.238E+01 -.436E+03   0.232E+01 -.239E+01 0.435E+03   0.180E-03 0.106E-01 0.299E+00
   0.944E+01 0.924E+01 0.118E+02   -.650E-12 -.178E-12 0.148E-11   -.944E+01 -.924E+01 -.117E+02

 POSITION                                       TOTAL-FORCE (eV/Angst)
      4.62723      4.69716     17.22036         0.005534      0.003550     -0.005521
      5.42321      5.47437     16.95899         0.003934      0.002643     -0.002553
      6.26314      6.29457     16.66589         0.000851     -0.000535     -0.003020
      0.00000      6.40959      7.50000        -0.000522      0.000027      0.323958
      2.13653      0.00000      7.50000        -0.000002     -0.000361      0.324491
      0.00000      0.00000      9.63653         0.000500     -0.000243      0.023729
      2.13653      6.40959      9.63653         0.006143      0.003399      0.028671
      8.54505      6.41027     11.78569         0.000474     -0.000016      0.002698
      2.13675      8.54582     11.78278        -0.000487     -0.000874      0.003304
      0.00200      0.00148     13.90659        -0.003445     -0.002983      0.000985
      2.13550      6.40940     13.90451        -0.001944     -0.000511      0.001153
      0.00000      2.13653      7.50000        -0.000339     -0.000012      0.324459
      2.13653      4.27306      7.50000        -0.000143      0.000364      0.322121
      0.00000      4.27306      9.63653        -0.009768      0.001148      0.022436
      2.13653      2.13653      9.63653        -0.003005     -0.003594      0.019702
      0.00008      2.13641     11.78284        -0.001287      0.000050      0.003526
      2.13492      4.27314     11.78166        -0.000142      0.000343      0.002481
      0.00215      4.27325     13.90563        -0.001743      0.001681     -0.000916
      2.13628      2.13574     13.90748        -0.000025      0.000808     -0.000536
      4.27306      6.40959      7.50000         0.000678      0.000021      0.326075
      6.40959      0.00000      7.50000         0.000067     -0.000540      0.323881
      4.27306      0.00000      9.63653         0.001560     -0.010200      0.022226
      6.40959      6.40959      9.63653        -0.002502     -0.003212      0.032916
      4.27600      6.41004     11.78719        -0.000938     -0.001013      0.000855
      6.41070      8.54472     11.78564        -0.000210      0.000872      0.002760
      4.27386      0.00175     13.90498         0.000969     -0.001347     -0.000969
      6.41771      6.41719     13.93082         0.001976      0.002295     -0.000837
      4.27306      2.13653      7.50000         0.000384     -0.000152      0.322149
      6.40959      4.27306      7.50000         0.000055      0.000664      0.326129
      4.27306      4.27306      9.63653         0.007470      0.006872      0.022419
      6.40959      2.13653      9.63653         0.003994      0.005933      0.028662
      4.27355      2.13465     11.78158        -0.000050      0.000150      0.002341
      6.41047      4.27566     11.78719        -0.001518     -0.000581      0.001038
      4.26567      4.26503     13.89416        -0.001665     -0.000965      0.000846
      6.41004      2.13502     13.90468        -0.000924     -0.001143      0.001200
      0.00000      6.40959      9.63653        -0.002433     -0.000653      0.056776
      2.13653      0.00000      9.63653         0.002580      0.001453      0.045486
      0.00000      0.00000      7.50000         0.000285      0.000278     -0.397069
      2.13653      6.40959      7.50000        -0.000472     -0.000664     -0.396967
      0.00519      6.41035     13.94249        -0.000709     -0.001482     -0.001533
      2.13780      0.00067     13.94850         0.000989     -0.001648     -0.004380
      0.00140      0.00098     11.77736        -0.001541     -0.001129     -0.001800
      2.13837      6.40968     11.77734        -0.000394     -0.001214     -0.002567
      0.00000      2.13653      9.63653         0.002163      0.001914      0.045808
      2.13653      4.27306      9.63653        -0.001784     -0.001837      0.050519
      0.00000      4.27306      7.50000         0.001461     -0.000248     -0.397012
      2.13653      2.13653      7.50000         0.000706      0.000667     -0.395973
      0.00124      2.13723     13.94848        -0.002113      0.001247     -0.004319
      2.13588      4.27157     13.94287         0.001238      0.001039     -0.000251
      8.54525      4.27264     11.77838        -0.000979      0.001257     -0.003251
      2.13663      2.13623     11.77712        -0.000116      0.000213     -0.003571
      4.27306      6.40959      9.63653         0.006634     -0.001322      0.053876
      6.40959      0.00000      9.63653         0.000176     -0.002961      0.056900
      4.27306      0.00000      7.50000        -0.000165      0.001410     -0.396996
      6.40959      6.40959      7.50000         0.000682      0.000702     -0.398438
      4.27102      6.40657     13.95774        -0.000570     -0.001964     -0.001281
      6.41089      0.00480     13.94191        -0.002182     -0.000178     -0.000974
      4.27297      8.54499     11.77822         0.000943     -0.000757     -0.003318
      6.40940      6.40899     11.78353        -0.000461     -0.000060     -0.004489
      4.27306      2.13653      9.63653        -0.001014     -0.002328      0.050225
      6.40959      4.27306      9.63653        -0.000543      0.005992      0.053631
      4.27306      4.27306      7.50000        -0.001578     -0.001601     -0.396858
      6.40959      2.13653      7.50000        -0.000629     -0.000554     -0.396946
      4.27213      2.13533     13.94316         0.000562      0.001726     -0.000478
      6.40690      4.27073     13.95820        -0.003068      0.000003     -0.001627
      4.27336      4.27294     11.77748        -0.000051      0.000418     -0.003357
      6.41003      2.13815     11.77738        -0.001544     -0.000257     -0.002629
    total drift:                               -0.000492      0.000068      0.020512

  FREE ENERGIE OF THE ION-ELECTRON SYSTEM (eV)
  free  energy   TOTEN  =      -242.84580847 eV

  energy  without entropy=     -242.84580847  energy(sigma->0) =     -242.84580847