 vasp.6.3.0 20Jan22 (build Apr  1 2022 16:44:48) complex
 executed on        HPECrayEX_GCC date 2022.11.09  20:30:06

 INCAR:
   SYSTEM = MgO-rocksalt
   ISMEAR = 0
   SIGMA = 0.05
   EDIFF = 1E-7
   ALGO = ALL
   ISTART = 0
   IBRION = 2
   NSW = 1000
   ISYM = 0
   ISIF = 2
   EDIFFG = -0.015
   DIPOL = 0.5 0.5 0.5
   IDIPOL = 3
   LDIPOL = .TRUE.
   LHFCALC = .TRUE.
   GGA = PE
   IVDW = 13
   VDW_S8 = 1.2007
   VDW_A1 = 0.4009
   VDW_A2 = 5.0293
   ENCUT = 600
   PREC = Accurate
   LASPH = .TRUE.
   LREAL = .FALSE.
   ISPIN = 2
   MAGMOM = 1.0 0.0 0.0 0.0 0.0 0.0 0.0 0.0 0.0 0.0 0.0 0.0 0.0 0.0 0.0 0.0 0.0 0.0 0.0 0.0 0.0 0.0 0.0 0.0 0.0 0.0 0.0 0.0 0.0 0.0 0.0 0.0 0.0 0.0 0.0 0.0 0.0 0.0 0.0 0.0 0.0 0.0 0.0 0.0 0.0 0.0 0.0 0.0 0.0 0.0 0.0 0.0 0.0 0.0 0.0 0.0 0.0 0.0 0.0 0.0 0.0 0.0 0.0 0.0 0.0 0.0
   NELM = 200
   NELMIN = 8
   NCORE = 8
   KPAR = 1
   LWAVE = .FALSE.
   LCHARG = .FALSE.

 POTCAR:    PAW_PBE N 08Apr2002
 POTCAR:    PAW_PBE O 08Apr2002
 POTCAR:    PAW_PBE Mg_pv 13Apr2007
 POTCAR:    PAW_PBE O 08Apr2002
 POTCAR:    PAW_PBE N 08Apr2002
   VRHFIN =N: s2p3

   TITEL  = PAW_PBE N 08Apr2002
   POMASS =   14.001; ZVAL   =    5.000    mass and valenz
   ENMAX  =  400.000; ENMIN  =  300.000 eV

[...]

   TITEL  = PAW_PBE Mg_pv 13Apr2007
   POMASS =   24.305; ZVAL   =    8.000    mass and valenz
   ENMAX  =  403.929; ENMIN  =  302.947 eV

   TITEL  = PAW_PBE O 08Apr2002
   POMASS =   16.000; ZVAL   =    6.000    mass and valenz
   ENMAX  =  400.000; ENMIN  =  300.000 eV

  PAW_PBE N 08Apr2002                   :
  PAW_PBE O 08Apr2002                   :
  PAW_PBE Mg_pv 13Apr2007               :
  PAW_PBE O 08Apr2002                   :

 POSCAR:  N  O Mg  O
  positions in direct lattice
  velocities in cartesian coordinates
|           W    W    AA    RRRRR   N    N  II  N    N   GGGG   !!!           |
|           W    W   A  A   R    R  NN   N  II  NN   N  G    G  !!!           |
|           W    W  A    A  R    R  N N  N  II  N N  N  G       !!!           |
|           W WW W  AAAAAA  RRRRR   N  N N  II  N  N N  G  GGG   !            |
|           WW  WW  A    A  R   R   N   NN  II  N   NN  G    G                |
|           W    W  A    A  R    R  N    N  II  N    N   GGGG   !!!           |
|     Specifying the vdW parameters                                           |
|     VDW_S8 = 1.201                                                          |
|     VDW_A1 = 0.401                                                          |
|     VDW_A2 = 5.029                                                          |
|     in the INCAR file will overwrite the defaults for pbe0. Please make     |
|     sure that is what you intended.                                         |

 ion  position               nearest neighbor table
   1  0.506  0.505  0.765-   2 1.15
   2  0.426  0.431  0.799-   1 1.15
   3  0.250  0.000  0.353-  37 2.09  38 2.09  45 2.09  54 2.09  35 2.09
   4  0.500  0.250  0.353-  37 2.09  38 2.09  46 2.09  53 2.09  36 2.09
   5  0.250  0.250  0.451-  35 2.09  36 2.09  43 2.09  52 2.09  37 2.09  41 2.09
   6  0.500  0.000  0.451-  35 2.09  36 2.09  44 2.09  51 2.09  38 2.09  42 2.09
   7  0.250  0.000  0.550-  41 2.09  42 2.09  49 2.09  58 2.09  35 2.10  39 2.12
   8  0.500  0.250  0.550-  50 2.08  41 2.09  57 2.09  42 2.09  36 2.10  40 2.12
   9  0.250  0.250  0.647-  41 2.08  47 2.09  56 2.09  39 2.09  40 2.09
  10  0.500  0.000  0.647-  42 2.08  48 2.08  40 2.08  55 2.09  39 2.09
  11  0.250  0.500  0.353-  37 2.09  45 2.09  46 2.09  62 2.09  43 2.09
  12  0.500  0.750  0.353-  38 2.09  45 2.09  46 2.09  61 2.09  44 2.09
  13  0.250  0.750  0.451-  35 2.09  43 2.09  44 2.09  60 2.09  45 2.09  49 2.09
  14  0.500  0.500  0.451-  36 2.09  43 2.09  44 2.09  59 2.09  46 2.09  50 2.09
  15  0.251  0.500  0.550-  50 2.08  41 2.09  49 2.09  66 2.09  43 2.10  47 2.12
  16  0.500  0.750  0.550-  50 2.09  65 2.09  49 2.09  42 2.09  44 2.10  48 2.12
  17  0.250  0.750  0.647-  49 2.07  64 2.09  48 2.09  47 2.09  39 2.09
  18  0.501  0.501  0.648-  63 2.09  48 2.09  40 2.09  47 2.10  50 2.10
  19  0.750  0.000  0.353-  38 2.09  53 2.09  54 2.09  61 2.09  51 2.09
  20  0.000  0.250  0.353-  37 2.09  53 2.09  54 2.09  62 2.09  52 2.09
  21  0.750  0.250  0.451-  36 2.09  51 2.09  52 2.09  59 2.09  53 2.09  57 2.09
  22  0.000  0.000  0.451-  35 2.09  51 2.09  52 2.09  60 2.09  54 2.09  58 2.09
  23  0.750  0.000  0.550-  65 2.09  57 2.09  42 2.09  58 2.09  51 2.10  55 2.12
  24  0.000  0.250  0.550-  41 2.09  58 2.09  57 2.09  66 2.09  52 2.10  56 2.12
  25  0.751  0.250  0.647-  57 2.07  63 2.09  56 2.09  40 2.09  55 2.09
  26  0.000  0.000  0.647-  58 2.08  56 2.09  55 2.09  64 2.09  39 2.09
  27  0.750  0.500  0.353-  46 2.09  53 2.09  61 2.09  62 2.09  59 2.09
  28  0.000  0.750  0.353-  45 2.09  54 2.09  61 2.09  62 2.09  60 2.09
  29  0.750  0.750  0.451-  44 2.09  51 2.09  59 2.09  60 2.09  61 2.09  65 2.09
  30  0.000  0.500  0.451-  43 2.09  52 2.09  59 2.09  60 2.09  62 2.09  66 2.09
  31  0.750  0.500  0.550-  50 2.09  65 2.09  57 2.09  66 2.09  59 2.10  63 2.11
  32  0.000  0.750  0.550-  65 2.09  49 2.09  58 2.09  66 2.09  60 2.10  64 2.12
  33  0.750  0.750  0.647-  65 2.08  64 2.09  63 2.09  55 2.09  48 2.09
  34  0.000  0.500  0.647-  66 2.08  63 2.08  47 2.08  56 2.09  64 2.09
  35  0.250  0.000  0.451-   5 2.09   6 2.09  13 2.09  22 2.09   3 2.09   7 2.10
  36  0.500  0.250  0.451-   5 2.09   6 2.09  14 2.09  21 2.09   4 2.09   8 2.10
  37  0.250  0.250  0.353-   3 2.09   4 2.09  11 2.09  20 2.09   5 2.09
  38  0.500  0.000  0.353-   3 2.09   4 2.09  12 2.09  19 2.09   6 2.09
  39  0.250  0.000  0.649-  26 2.09  17 2.09   9 2.09  10 2.09   7 2.12
  40  0.501  0.250  0.649-  10 2.08  25 2.09   9 2.09  18 2.09   8 2.12
  41  0.250  0.250  0.549-   9 2.08   7 2.09  24 2.09   8 2.09  15 2.09   5 2.09
  42  0.500  0.000  0.549-  10 2.08   7 2.09  23 2.09   8 2.09  16 2.09   6 2.09
  43  0.250  0.500  0.451-   5 2.09  13 2.09  14 2.09  30 2.09  11 2.09  15 2.10
  44  0.500  0.750  0.451-   6 2.09  13 2.09  14 2.09  29 2.09  12 2.09  16 2.10
  45  0.250  0.750  0.353-   3 2.09  11 2.09  12 2.09  28 2.09  13 2.09
  46  0.500  0.500  0.353-   4 2.09  11 2.09  12 2.09  27 2.09  14 2.09
  47  0.250  0.500  0.649-  34 2.08  17 2.09   9 2.09  18 2.10  15 2.12
  48  0.500  0.751  0.649-  10 2.08  17 2.09  33 2.09  18 2.09  16 2.12
  49  0.250  0.750  0.549-  17 2.07  32 2.09   7 2.09  16 2.09  15 2.09  13 2.09
  50  0.500  0.500  0.549-  15 2.08   8 2.08  16 2.09  31 2.09  14 2.09  18 2.10
  51  0.750  0.000  0.451-   6 2.09  21 2.09  22 2.09  29 2.09  19 2.09  23 2.10
  52  0.000  0.250  0.451-   5 2.09  21 2.09  22 2.09  30 2.09  20 2.09  24 2.10
  53  0.750  0.250  0.353-   4 2.09  19 2.09  20 2.09  27 2.09  21 2.09
  54  0.000  0.000  0.353-   3 2.09  19 2.09  20 2.09  28 2.09  22 2.09
  55  0.750  0.000  0.649-  26 2.09  25 2.09  10 2.09  33 2.09  23 2.12
  56  0.000  0.250  0.649-  26 2.09  25 2.09   9 2.09  34 2.09  24 2.12
  57  0.750  0.250  0.549-  25 2.07  23 2.09  24 2.09   8 2.09  31 2.09  21 2.09
  58  0.000  0.000  0.549-  26 2.08  24 2.09  32 2.09  23 2.09   7 2.09  22 2.09
  59  0.750  0.500  0.451-  14 2.09  21 2.09  29 2.09  30 2.09  27 2.09  31 2.10
  60  0.000  0.750  0.451-  13 2.09  22 2.09  29 2.09  30 2.09  28 2.09  32 2.10
  61  0.750  0.750  0.353-  12 2.09  19 2.09  27 2.09  28 2.09  29 2.09
  62  0.000  0.500  0.353-  11 2.09  20 2.09  27 2.09  28 2.09  30 2.09
  63  0.751  0.500  0.649-  34 2.08  25 2.09  33 2.09  18 2.09  31 2.11
  64  0.000  0.750  0.649-  17 2.09  26 2.09  33 2.09  34 2.09  32 2.12
  65  0.750  0.750  0.549-  33 2.08  23 2.09  32 2.09  16 2.09  31 2.09  29 2.09
  66  0.000  0.500  0.549-  34 2.08  24 2.09  32 2.09  30 2.09  15 2.09  31 2.09

IMPORTANT INFORMATION: All symmetrisations will be switched off!
NOSYMM: (Re-)initialisation of all symmetry stuff for point group C_1.

                                     Primitive cell

  volume of cell :    1482.1129

  direct lattice vectors                    reciprocal lattice vectors
     8.349111827  0.000000000  0.000000000     0.119773219  0.000000000  0.000000000
     0.000000000  8.349111827  0.000000000     0.000000000  0.119773219  0.000000000
     0.000000000  0.000000000 21.261833870     0.000000000  0.000000000  0.047032632

  length of vectors
     8.349111827  8.349111827 21.261833870     0.119773219  0.119773219  0.047032632

  position of ions in fractional coordinates (direct lattice)
     0.505583871  0.504588089  0.764760409
     0.425983705  0.431227462  0.798561525
     0.250000000  0.000000000  0.352744737
     0.500000000  0.250000000  0.352744737
     0.250000000  0.250000000  0.450914912
     0.500000000  0.000000000  0.450914912
     0.250267236  0.000176920  0.549628772
     0.500231029  0.250395580  0.549628853
     0.250473192  0.250315187  0.647019715
     0.500387023  0.000180843  0.646989350
     0.250000000  0.500000000  0.352744737
     0.500000000  0.750000000  0.352744737
     0.250000000  0.750000000  0.450914912
     0.500000000  0.500000000  0.450914912
     0.250568839  0.500119034  0.549614034
     0.500201647  0.749895593  0.549600182
     0.250258078  0.750261073  0.646807829
     0.500866619  0.500506783  0.648114862
     0.750000000  0.000000000  0.352744737
     0.000000000  0.250000000  0.352744737
     0.750000000  0.250000000  0.450914912
     0.000000000  0.000000000  0.450914912
     0.750100822  0.000010685  0.549601083
     0.000339837  0.250055233  0.549607259
     0.750554594  0.250126445  0.646753587
     0.000323617  0.000147207  0.647280007
     0.750000000  0.500000000  0.352744737
     0.000000000  0.750000000  0.352744737
     0.750000000  0.750000000  0.450914912
     0.000000000  0.500000000  0.450914912
     0.750033967  0.500081252  0.549543721
     0.000175159  0.750088905  0.549610342
     0.750372089  0.750020478  0.647040234
     0.000423281  0.500123391  0.646862530
     0.250000000  0.000000000  0.450914912
     0.500000000  0.250000000  0.450914912
     0.250000000  0.250000000  0.352744737
     0.500000000  0.000000000  0.352744737
     0.250289225  0.000232543  0.649387977
     0.500578152  0.249623250  0.649298845
     0.250203218  0.250018562  0.549293346
     0.500171451  0.000158378  0.549192561
     0.250000000  0.500000000  0.450914912
     0.500000000  0.750000000  0.450914912
     0.250000000  0.750000000  0.352744737
     0.500000000  0.500000000  0.352744737
     0.249877684  0.500318757  0.649193456
     0.500191414  0.750964803  0.649094993
     0.250076580  0.750259718  0.549234674
     0.500252167  0.500118939  0.549361361
     0.750000000  0.000000000  0.450914912
     0.000000000  0.250000000  0.450914912
     0.750000000  0.250000000  0.352744737
     0.000000000  0.000000000  0.352744737
     0.750412407  0.000140904  0.649384481
     0.000456403  0.250027546  0.649402448
     0.750356660  0.249878012  0.549207717
     0.000180972  0.000084497  0.549342508
     0.750000000  0.500000000  0.450914912
     0.000000000  0.750000000  0.450914912
     0.750000000  0.750000000  0.352744737
     0.000000000  0.500000000  0.352744737
     0.751183921  0.499939660  0.648915767
[...]
   2.08727796  4.17455591  7.50000000
   4.17455591  6.26183387  7.50000000
   2.08727796  6.26183387  9.58727796
   4.17455591  4.17455591  9.58727796
   2.09202726  4.17554974 11.68580229
   4.17623949  6.26096216 11.68550776
   2.08943268  6.26401360 13.75232060
   4.18179142  4.17878710 13.78011053
   6.26183387  0.00000000  7.50000000
   0.00000000  2.08727796  7.50000000
   6.26183387  2.08727796  9.58727796
   0.00000000  0.00000000  9.58727796
   6.26267565  0.00008921 11.68552693
   0.00283734  2.08773911 11.68565823
   6.26646424  2.08833366 13.75116732
   0.00270192  0.00122905 13.76235998
   6.26183387  4.17455591  7.50000000
   0.00000000  6.26183387  7.50000000
   6.26183387  6.26183387  9.58727796
   0.00000000  4.17455591  9.58727796
   6.26211746  4.17523429 11.68430731
   0.00146242  6.26257615 11.68572379
   6.26494049  6.26200484 13.75726195
   0.00353402  4.17558612 13.75348365
   2.08727796  0.00000000  9.58727796
   4.17455591  2.08727796  9.58727796
   2.08727796  2.08727796  7.50000000
   4.17455591  0.00000000  7.50000000
   2.08969273  0.00194153 13.80717929
   4.17938297  2.08413243 13.80528417
   2.08897465  2.08743293 11.67898386
   4.17598738  0.00132232 11.67684098
   2.08727796  4.17455591  9.58727796
   4.17455591  6.26183387  9.58727796
   2.08727796  6.26183387  7.50000000
   4.17455591  4.17455591  7.50000000
   2.08625673  4.17721725 13.80304341
   4.17615405  6.26988912 13.80094990
   2.08791733  6.26400228 11.67773640
   4.17666129  4.17554895 11.68043000
   6.26183387  0.00000000  9.58727796
   0.00000000  2.08727796  9.58727796
   6.26183387  2.08727796  7.50000000
   0.00000000  0.00000000  7.50000000
   6.26527710  0.00117642 13.80710496
   0.00381056  2.08750794 13.80748697
   6.26481167  2.08625946 11.67716324
   0.00151096  0.00070547 11.68002913
   6.26183387  4.17455591  9.58727796
   0.00000000  6.26183387  9.58727796
   6.26183387  6.26183387  7.50000000
   0.00000000  4.17455591  7.50000000
   6.27171856  4.17405213 13.79713923
   0.00318371  6.26377311 13.80789969
   6.26435327  6.26356421 11.67842864
   0.00271183  4.17506883 11.67564629

--------------------------------------- Iteration      FINAL  ---------------------------------------

--------------------OUTCAR has been truncated-------------------------

[...]

--------------------OUTCAR has been truncated-------------------------

  FORCE on cell =-STRESS in cart. coord.  units (eV):
  Direction    XX          YY          ZZ          XY          YZ          ZX
  Alpha Z   933.41042   933.41042   933.41042
  Ewald  162900.87683162887.17812************   105.71470  -126.25615  -134.68953
  Hartree173323.79888173317.77467************    45.28265   -47.27748   -50.44093
  E(xc)   -1896.17781 -1896.20183 -1899.09781     0.18982    -0.22444    -0.23926
  Local  ************************346068.11141  -148.69818   156.83164   167.36553
  n-local  -740.46903  -739.88508  -768.51448    -4.64161     1.55141     1.66869
  augment   833.27439   833.19992   823.14961     0.60249     0.67203     0.71057
  Kinetic  7560.39581  7560.07645  7604.77295     2.71652    14.02008    14.89010
  Fock    -2522.34521 -2522.18593 -2519.29451    -1.26019     0.61040     0.65429
  vdW        -9.18675    -9.18658    -6.44737    -0.00088     0.00102     0.00116
  Total     -30.17500   -30.18595    -2.59664    -0.09468    -0.07149    -0.07936
  in kB     -32.61944   -32.63128    -2.80699    -0.10235    -0.07729    -0.08579

 VOLUME and BASIS-vectors are now :
  energy-cutoff  :      600.00
  volume of cell :     1482.11
      direct lattice vectors                 reciprocal lattice vectors
     8.349111827  0.000000000  0.000000000     0.119773219  0.000000000  0.000000000
     0.000000000  8.349111827  0.000000000     0.000000000  0.119773219  0.000000000
     0.000000000  0.000000000 21.261833870     0.000000000  0.000000000  0.047032632

  length of vectors
     8.349111827  8.349111827 21.261833870     0.119773219  0.119773219  0.047032632

 FORCES acting on ions:
    Electron-Ion                     Ewald-Force                    Non-Local-Force
   -.152E+03 -.143E+03 -.118E+04   0.177E+03 0.166E+03 0.116E+04   -.226E+02 -.212E+02 0.257E+02
   0.143E+03 0.134E+03 -.157E+04   -.178E+03 -.167E+03 0.161E+04   0.299E+02 0.281E+02 -.355E+02
   0.175E+00 0.390E-01 0.214E+04   -.175E+00 -.386E-01 -.213E+04   -.222E-03 -.314E-03 -.682E+01
   -.394E-01 0.197E+00 0.214E+04   0.393E-01 -.195E+00 -.213E+04   0.481E-04 -.127E-02 -.683E+01
   0.767E+00 0.822E+00 0.740E+03   -.753E+00 -.809E+00 -.741E+03   -.767E-02 -.750E-02 0.475E+00
   -.169E+00 0.179E+00 0.740E+03   0.174E+00 -.170E+00 -.741E+03   -.267E-02 -.548E-02 0.433E+00
   0.363E+01 0.797E+00 -.652E+03   -.362E+01 -.792E+00 0.653E+03   -.100E-01 -.439E-02 -.155E+00
   -.915E+00 0.597E+01 -.643E+03   0.909E+00 -.591E+01 0.644E+03   0.449E-02 -.585E-01 -.214E+00
   0.251E+02 0.255E+02 -.202E+04   -.251E+02 -.256E+02 0.201E+04   0.740E-01 0.611E-01 0.582E+01
   -.284E+01 0.489E+01 -.204E+04   0.284E+01 -.493E+01 0.203E+04   -.255E-02 0.339E-01 0.578E+01
   0.184E+00 -.386E-01 0.214E+04   -.182E+00 0.385E-01 -.213E+04   -.120E-02 0.353E-04 -.683E+01
   -.471E-01 -.196E+00 0.214E+04   0.472E-01 0.195E+00 -.213E+04   -.954E-04 0.996E-03 -.683E+01
   0.755E+00 -.804E+00 0.740E+03   -.755E+00 0.799E+00 -.741E+03   0.575E-04 0.292E-02 0.452E+00
   -.184E+00 -.174E+00 0.741E+03   0.182E+00 0.173E+00 -.742E+03   0.143E-02 0.115E-02 0.511E+00
   0.580E+01 -.868E+00 -.643E+03   -.574E+01 0.862E+00 0.643E+03   -.540E-01 0.496E-02 -.240E+00
   -.981E+00 -.590E+01 -.645E+03   0.994E+00 0.584E+01 0.645E+03   -.108E-01 0.571E-01 -.269E+00
   0.210E+02 -.238E+02 -.203E+04   -.211E+02 0.238E+02 0.202E+04   0.368E-01 -.456E-01 0.583E+01
   -.823E+01 -.763E+01 -.194E+04   0.825E+01 0.764E+01 0.194E+04   -.164E-01 -.122E-01 0.471E+01
   -.174E+00 0.458E-01 0.214E+04   0.174E+00 -.460E-01 -.213E+04   0.962E-04 0.132E-03 -.683E+01
   0.397E-01 0.188E+00 0.214E+04   -.392E-01 -.188E+00 -.213E+04   -.320E-03 -.309E-03 -.682E+01
   -.745E+00 0.796E+00 0.740E+03   0.740E+00 -.796E+00 -.741E+03   0.317E-02 0.614E-03 0.450E+00
   0.167E+00 0.175E+00 0.739E+03   -.168E+00 -.175E+00 -.739E+03   0.684E-03 0.658E-03 0.457E+00
   -.355E+01 0.885E+00 -.654E+03   0.354E+01 -.897E+00 0.654E+03   0.619E-02 0.104E-01 -.156E+00
   0.832E+00 0.373E+01 -.652E+03   -.828E+00 -.372E+01 0.653E+03   -.313E-02 -.800E-02 -.151E+00
   -.233E+02 0.212E+02 -.203E+04   0.234E+02 -.212E+02 0.202E+04   -.522E-01 0.213E-01 0.583E+01
   0.254E+01 0.241E+01 -.206E+04   -.254E+01 -.241E+01 0.205E+04   0.277E-02 0.347E-03 0.579E+01
   -.183E+00 -.463E-01 0.214E+04   0.181E+00 0.464E-01 -.213E+04   0.905E-03 -.104E-03 -.683E+01
   0.465E-01 -.188E+00 0.214E+04   -.467E-01 0.187E+00 -.213E+04   0.119E-03 0.162E-03 -.683E+01
   -.741E+00 -.787E+00 0.740E+03   0.740E+00 0.786E+00 -.740E+03   0.200E-03 -.257E-03 0.465E+00
   0.193E+00 -.167E+00 0.740E+03   -.183E+00 0.172E+00 -.741E+03   -.622E-02 -.298E-02 0.422E+00
   -.576E+01 -.924E+00 -.644E+03   0.570E+01 0.937E+00 0.645E+03   0.548E-01 -.112E-01 -.307E+00
   0.918E+00 -.371E+01 -.654E+03   -.931E+00 0.370E+01 0.654E+03   0.118E-01 0.934E-02 -.150E+00
   -.204E+02 -.206E+02 -.204E+04   0.205E+02 0.206E+02 0.203E+04   -.548E-01 -.436E-01 0.582E+01
   0.536E+01 -.271E+01 -.204E+04   -.540E+01 0.270E+01 0.203E+04   0.336E-01 0.404E-03 0.578E+01
   0.573E+00 0.109E+00 0.554E+03   -.571E+00 -.118E+00 -.554E+03   -.228E-02 0.982E-02 -.967E-01
   -.988E-01 0.695E+00 0.555E+03   0.979E-01 -.717E+00 -.555E+03   0.806E-03 0.246E-01 -.120E+00
   0.134E+00 0.144E+00 0.161E+04   -.132E+00 -.143E+00 -.161E+04   -.128E-02 -.142E-02 0.300E+01
   -.320E-01 0.317E-01 0.161E+04   0.323E-01 -.314E-01 -.161E+04   -.327E-03 -.420E-03 0.300E+01
   0.917E+01 0.332E+01 -.156E+04   -.913E+01 -.331E+01 0.156E+04   -.379E-01 -.118E-01 -.452E+01
   -.498E+01 0.311E+02 -.152E+04   0.496E+01 -.309E+02 0.152E+04   0.135E-01 -.168E+00 -.447E+01
   0.352E+01 0.363E+01 -.479E+03   -.351E+01 -.362E+01 0.478E+03   -.404E-02 -.869E-02 0.327E+00
   -.594E+00 0.681E+00 -.481E+03   0.597E+00 -.683E+00 0.480E+03   -.271E-02 0.153E-02 0.304E+00
   0.644E+00 -.973E-01 0.555E+03   -.667E+00 0.962E-01 -.555E+03   0.268E-01 0.107E-02 -.121E+00
   -.152E+00 -.676E+00 0.555E+03   0.149E+00 0.688E+00 -.555E+03   0.333E-02 -.140E-01 -.111E+00
   0.134E+00 -.144E+00 0.161E+04   -.133E+00 0.143E+00 -.161E+04   -.478E-03 0.176E-02 0.300E+01
   -.336E-01 -.324E-01 0.161E+04   0.329E-01 0.317E-01 -.161E+04   0.846E-03 0.757E-03 0.300E+01
   0.309E+02 -.476E+01 -.152E+04   -.307E+02 0.475E+01 0.152E+04   -.180E+00 0.115E-01 -.447E+01
   -.304E+01 -.292E+02 -.153E+04   0.306E+01 0.290E+02 0.153E+04   -.138E-01 0.139E+00 -.451E+01
   0.333E+01 -.358E+01 -.479E+03   -.332E+01 0.357E+01 0.479E+03   -.435E-02 0.537E-02 0.364E+00
   -.805E+00 -.757E+00 -.475E+03   0.811E+00 0.763E+00 0.475E+03   -.582E-02 -.575E-02 0.757E-02
   -.558E+00 0.147E+00 0.554E+03   0.552E+00 -.143E+00 -.554E+03   0.720E-02 -.456E-02 -.103E+00
   0.108E+00 0.619E+00 0.554E+03   -.116E+00 -.616E+00 -.554E+03   0.978E-02 -.383E-02 -.963E-01
   -.134E+00 0.143E+00 0.161E+04   0.132E+00 -.142E+00 -.161E+04   0.160E-02 -.575E-03 0.300E+01
   0.315E-01 0.316E-01 0.161E+04   -.319E-01 -.320E-01 -.161E+04   0.471E-03 0.494E-03 0.300E+01
   -.894E+01 0.241E+01 -.156E+04   0.889E+01 -.242E+01 0.157E+04   0.381E-01 0.143E-01 -.451E+01
   0.356E+01 0.931E+01 -.156E+04   -.355E+01 -.927E+01 0.156E+04   -.107E-01 -.386E-01 -.452E+01
   -.346E+01 0.339E+01 -.479E+03   0.346E+01 -.338E+01 0.479E+03   0.261E-02 -.814E-02 0.361E+00
   0.533E+00 0.536E+00 -.486E+03   -.534E+00 -.536E+00 0.486E+03   0.118E-02 -.961E-04 0.275E+00
   -.626E+00 -.150E+00 0.555E+03   0.640E+00 0.147E+00 -.555E+03   -.153E-01 0.343E-02 -.111E+00
   0.146E+00 -.610E+00 0.554E+03   -.142E+00 0.602E+00 -.554E+03   -.436E-02 0.948E-02 -.103E+00
   -.133E+00 -.142E+00 0.161E+04   0.133E+00 0.142E+00 -.161E+04   0.398E-03 0.490E-03 0.300E+01
   0.329E-01 -.318E-01 0.161E+04   -.325E-01 0.321E-01 -.161E+04   -.470E-03 -.321E-03 0.300E+01
   -.289E+02 -.280E+01 -.153E+04   0.287E+02 0.282E+01 0.153E+04   0.144E+00 -.141E-01 -.451E+01
   0.263E+01 -.908E+01 -.156E+04   -.265E+01 0.903E+01 0.157E+04   0.150E-01 0.379E-01 -.452E+01
   -.326E+01 -.335E+01 -.482E+03   0.324E+01 0.333E+01 0.481E+03   0.131E-01 0.158E-01 0.288E+00
   0.758E+00 -.555E+00 -.480E+03   -.761E+00 0.558E+00 0.480E+03   0.234E-02 -.313E-02 0.301E+00
   -.991E+01 -.928E+01 0.340E+02   -.107E-12 0.463E-13 -.233E-11   0.735E+01 0.689E+01 -.277E+02

 POSITION                                       TOTAL-FORCE (eV/Angst)
      4.18444      4.18682     16.27183         0.001294      0.001563      0.006483
      3.55007      3.59190     17.02666        -0.009604     -0.008969      0.005917
      2.08728      0.00000      7.50000         0.000099      0.000083      0.426471
      4.17456      2.08728      7.50000        -0.000041      0.000430      0.427497
      2.08728      2.08728      9.58728         0.004068      0.004035      0.064445
      4.17456      0.00000      9.58728         0.001309      0.002692      0.070159
      2.08805      0.00089     11.68816        -0.002129     -0.000111     -0.001801
      4.17509      2.09013     11.69095        -0.000121     -0.002442      0.000796
      2.08732      2.08758     13.76368         0.000567     -0.000425     -0.004299
      4.17525      0.00045     13.76332        -0.000153     -0.000325     -0.003813
      2.08728      4.17456      7.50000         0.000394     -0.000034      0.427603
      4.17456      6.26183      7.50000         0.000007     -0.000356      0.426892
      2.08728      6.26183      9.58728         0.000271     -0.001398      0.064162
      4.17456      4.17456      9.58728        -0.000147     -0.000080      0.076375
      2.09007      4.17508     11.69082        -0.001780     -0.000118      0.000882
      4.17497      6.26035     11.69035         0.000661      0.001589      0.001486
      2.08631      6.26433     13.75941         0.001879     -0.000892     -0.004666
      4.17794      4.17759     13.79153        -0.001606     -0.000487      0.003202
      6.26183      0.00000      7.50000        -0.000091     -0.000042      0.427015
      0.00000      2.08728      7.50000         0.000085      0.000143      0.426514
      6.26183      2.08728      9.58728        -0.001527      0.000112      0.063824
      0.00000      0.00000      9.58728        -0.000163     -0.000183      0.064216
      6.26184     -0.00030     11.68837         0.001186      0.000161     -0.002659
      0.00081      2.08809     11.68808         0.000599     -0.002361     -0.001997
      6.26455      2.08662     13.75945        -0.000531      0.000668     -0.004646
      0.00054      0.00060     13.76621         0.000222     -0.000004     -0.013549
      6.26183      4.17456      7.50000        -0.000313      0.000012      0.426938
      0.00000      6.26183      7.50000        -0.000038     -0.000125      0.427040
      6.26183      6.26183      9.58728        -0.000806     -0.000651      0.064298
      0.00000      4.17456      9.58728         0.002988      0.001467      0.069263
      6.26046      4.17496     11.69018         0.001740      0.000597      0.001430
     -0.00035      6.26181     11.68839         0.000787      0.001860     -0.003545
      6.26268      6.26229     13.76556        -0.000350     -0.000070     -0.005408
      0.00064      4.17515     13.76290        -0.002143     -0.000077     -0.005004
      2.08728      0.00000      9.58728        -0.001079      0.003153      0.072753
      4.17456      2.08728      9.58728         0.000015      0.007517      0.079474
      2.08728      2.08728      7.50000        -0.000446     -0.000493     -0.564599
      4.17456      0.00000      7.50000        -0.000115     -0.000148     -0.564549
      2.08694      0.00106     13.81362        -0.001703     -0.000129     -0.001996
      4.17661      2.08265     13.81483        -0.001744     -0.002970     -0.003356
      2.08767      2.08754     11.68326         0.002580      0.002092      0.001378
      4.17481      0.00087     11.68191         0.000300     -0.000016     -0.000355
      2.08728      4.17456      9.58728         0.008438      0.000134      0.078491
      4.17456      6.26183      9.58728         0.001011     -0.004395      0.079537
      2.08728      6.26183      7.50000        -0.000179      0.000611     -0.564555
      4.17456      4.17456      7.50000         0.000295      0.000264     -0.565199
      2.08241      4.17650     13.81317        -0.002336     -0.000863      0.000907
      4.17358      6.26897     13.81086        -0.000463      0.001216     -0.003833
      2.08682      6.26299     11.68191         0.002827     -0.002681      0.000894
      4.17493      4.17495     11.68813        -0.000369     -0.000514     -0.002961
      6.26183      0.00000      9.58728         0.002451     -0.001489      0.071570
      0.00000      2.08728      9.58728         0.003203     -0.001694      0.072366
      6.26183      2.08728      7.50000         0.000558     -0.000209     -0.564555
      0.00000      0.00000      7.50000         0.000157      0.000166     -0.564350
      6.26342      0.00050     13.81374         0.001671      0.000045     -0.001159
      0.00112      2.08687     13.81361        -0.000554     -0.001672     -0.003138
      6.26284      2.08660     11.68178        -0.003094      0.003200      0.001499
      0.00038      0.00045     11.68274         0.000748     -0.000507      0.001216
      6.26183      4.17456      9.58728        -0.004974      0.001069      0.078718
      0.00000      6.26183      9.58728        -0.001362      0.003354      0.071695
      6.26183      6.26183      7.50000         0.000131      0.000161     -0.564619
      0.00000      4.17456      7.50000        -0.000167     -0.000112     -0.564668
      6.26941      4.17348     13.80858         0.001397      0.000319      0.001312
      0.00061      6.26344     13.81397        -0.000478      0.001203     -0.003114
      6.26246      6.26262     11.68299        -0.002360     -0.002317      0.001594
      0.00103      4.17490     11.68126        -0.000971     -0.000555      0.002083
    total drift:                                0.000552      0.000490      0.011637

  FREE ENERGIE OF THE ION-ELECTRON SYSTEM (eV)
  free  energy   TOTEN  =      -489.92565649 eV

  energy  without entropy=     -489.92565649  energy(sigma->0) =     -489.92565649

 d Force = 0.2576680E-04[ 0.222E-04, 0.293E-04]  d Energy = 0.2554264E-04 0.224E-06
 d Force =-0.1913867E+01[-0.191E+01,-0.191E+01]  d Ewald  =-0.1913868E+01 0.828E-06

 reached required accuracy - stopping structural energy minimisation