 vasp.6.4.2 20Jul23 (build Feb 22 2024 13:53:45) complex
 executed on              LinuxNV date 2024.08.27  19:07:39
 OpenACC runtime initialized ...    4 GPUs detected

 INCAR:
   SYSTEM = Oxide-Surface
   ISMEAR = 0
   SIGMA = 0.05
   EDIFF = 1E-5
   ALGO = Normal
   IBRION = -1
   NSW = 0
   ISYM = 0
   DIPOL = 0.5 0.5 0.5
   IDIPOL = 3
   LDIPOL = .TRUE.
   ISTART = 1
   METAGGA = R2SCAN
   ENCUT = 1000
   PREC = Normal
   PRECFOCK = Normal
   LASPH = .TRUE.
   LREAL = Auto
   ISPIN = 1
   NELM = 200
   NELMIN = 8
   NCORE = 1
   KPAR = 1
   LWAVE = .FALSE.
   LCHARG = .FALSE.

 POTCAR:    PAW_PBE H_h 06Feb2004
 POTCAR:    PAW_PBE O_h 06Feb2004
 POTCAR:    PAW_PBE Mg_sv 12Apr2007
 POTCAR:    PAW_PBE O_h 06Feb2004
 POTCAR:    PAW_PBE H_h 06Feb2004
   VRHFIN =H: ultrasoft test

   TITEL  = PAW_PBE H_h 06Feb2004
   POMASS =    1.000; ZVAL   =    1.000    mass and valenz
   ENMAX  =  700.000; ENMIN  =  350.000 eV

[...]

   TITEL  = PAW_PBE Mg_sv 12Apr2007
   POMASS =   24.305; ZVAL   =   10.000    mass and valenz
   ENMAX  =  495.223; ENMIN  =  371.417 eV

   TITEL  = PAW_PBE O_h 06Feb2004
   POMASS =   16.000; ZVAL   =    6.000    mass and valenz
   ENMAX  =  700.000; ENMIN  =  500.000 eV

 Optimization of the real space projectors (new method)

 maximal supplied QI-value         = 47.24
 optimisation between [QCUT,QGAM] = [ 16.06, 32.13] = [ 72.25,289.00] Ry
 Optimized for a Real-space Cutoff    0.82 Angstroem

   l    n(q)    QCUT    max X(q) W(low)/X(q) W(high)/X(q)  e(spline)
   0      8    16.063    34.671    0.37E-03    0.85E-03    0.24E-06
   0      8    16.063    17.046    0.36E-03    0.82E-03    0.23E-06
   1      7    16.063     1.978    0.22E-03    0.92E-04    0.15E-06
 Optimization of the real space projectors (new method)

[...]

   l    n(q)    QCUT    max X(q) W(low)/X(q) W(high)/X(q)  e(spline)
   0      9    16.140     8.730    0.14E-04    0.12E-04    0.27E-07
   0      9    16.140     8.910    0.19E-04    0.17E-04    0.41E-07
   1      9    16.140     2.513    0.16E-04    0.28E-04    0.54E-07
   1      9    16.140     3.341    0.27E-04    0.13E-03    0.17E-06
   2      9    16.140     3.683    0.18E-03    0.21E-03    0.81E-07
 Optimization of the real space projectors (new method)

 maximal supplied QI-value         = 34.20
 optimisation between [QCUT,QGAM] = [ 16.08, 32.15] = [ 72.37,289.48] Ry
 Optimized for a Real-space Cutoff    0.71 Angstroem

   l    n(q)    QCUT    max X(q) W(low)/X(q) W(high)/X(q)  e(spline)
   0      7    16.076   280.207    0.42E-03    0.69E-03    0.60E-07
   0      7    16.076   228.978    0.42E-03    0.69E-03    0.61E-07
   1      6    16.076    86.127    0.11E-03    0.66E-03    0.10E-06
   1      6    16.076    65.368    0.11E-03    0.65E-03    0.10E-06
  PAW_PBE H_h 06Feb2004                 :
  PAW_PBE O_h 06Feb2004                 :
  PAW_PBE Mg_sv 12Apr2007               :
  PAW_PBE O_h 06Feb2004                 :

 POSCAR:  H  O Mg  O
  positions in direct lattice

 METAGGA = R2SCAN                                      LMAXTAU =  6    LMIXTAU =  F

 ion  position               nearest neighbor table
   1  0.617  0.554  0.761-   3 0.97
   2  0.510  0.673  0.712-   3 1.01
   3  0.508  0.572  0.744-   1 0.97   2 1.01
   4  0.000  0.750  0.239-
   5  0.250  0.000  0.239-
   6  0.000  0.000  0.364-
   7  0.250  0.750  0.364-
   8  0.000  0.750  0.488-
   9  0.250  0.000  0.488-
  10  0.000  0.000  0.612-
  11  0.248  0.750  0.612-
  12  0.000  0.250  0.239-
  13  0.250  0.500  0.239-
  14  0.000  0.500  0.364-
  15  0.250  0.250  0.364-
  16  0.000  0.250  0.488-
  17  0.251  0.500  0.489-
  18  0.001  0.500  0.612-
  19  0.249  0.250  0.612-
  20  0.500  0.750  0.239-
  21  0.750  0.000  0.239-
  22  0.500  0.000  0.364-
  23  0.750  0.750  0.364-
  24  0.500  0.749  0.489-
  25  0.750  0.000  0.488-
  26  0.500  0.002  0.612-
  27  0.753  0.751  0.611-
  28  0.500  0.250  0.239-
  29  0.750  0.500  0.239-
  30  0.500  0.500  0.364-
  31  0.750  0.250  0.364-
  32  0.500  0.251  0.489-
  33  0.749  0.500  0.489-
  34  0.498  0.494  0.618-
  35  0.751  0.250  0.612-
  36  0.000  0.750  0.364-
  37  0.250  0.000  0.364-
  38  0.000  0.000  0.239-
  39  0.250  0.750  0.239-
  40  1.000  0.750  0.615-
  41  0.249  1.000  0.615-
  42  1.000  1.000  0.488-
  43  0.251  0.750  0.488-
  44  0.000  0.250  0.364-
  45  0.250  0.500  0.364-
  46  0.000  0.500  0.239-
  47  0.250  0.250  0.239-
  48  1.000  0.250  0.615-
  49  0.248  0.500  0.613-
  50  1.000  0.500  0.488-
  51  0.250  0.250  0.488-
  52  0.500  0.750  0.364-
  53  0.750  0.000  0.364-
  54  0.500  0.000  0.239-
  55  0.750  0.750  0.239-
  56  0.500  0.754  0.618-
  57  0.751  1.000  0.615-
  58  0.500  0.999  0.488-
  59  0.749  0.750  0.488-
  60  0.500  0.250  0.364-
  61  0.750  0.500  0.364-
  62  0.500  0.500  0.239-
  63  0.750  0.250  0.239-
  64  0.500  0.248  0.615-
  65  0.752  0.500  0.615-
  66  0.500  0.501  0.489-
  67  0.750  0.250  0.488-

IMPORTANT INFORMATION: All symmetrisations will be switched off!
NOSYMM: (Re-)initialisation of all symmetry stuff for point group C_1.

                                     Primitive cell

  volume of cell :    1211.2538

  direct lattice vectors                    reciprocal lattice vectors
     8.440984654  0.000000000  0.000000000     0.118469591  0.000000000  0.000000000
     0.000000000  8.440984654  0.000000000     0.000000000  0.118469591  0.000000000
     0.000000000  0.000000000 17.000000000     0.000000000  0.000000000  0.058823529

  length of vectors
     8.440984654  8.440984654 17.000000000     0.118469591  0.118469591  0.058823529

  position of ions in fractional coordinates (direct lattice)
     0.616832100  0.554429713  0.760553841
     0.510014054  0.672845498  0.712302790
     0.507589782  0.572189385  0.744476833
     0.000084749  0.750056171  0.239446159
     0.250084749  0.000056171  0.239446159
     0.000084749  0.000056171  0.363578286
     0.250084749  0.750056171  0.363578286
     0.000292034  0.749824964  0.488119943
     0.250127698  0.000181851  0.488431874
     0.000158555  0.000466213  0.612094268
     0.247767905  0.749974041  0.611893376
     0.000084749  0.250056171  0.239446159
     0.250084749  0.500056171  0.239446159
     0.000084749  0.500056171  0.363578286
     0.250084749  0.250056171  0.363578286
     0.000116012  0.250196651  0.488268359
     0.250770752  0.499798843  0.488884857
     0.000510418  0.499570052  0.611813977
     0.249067721  0.249912005  0.612281031
     0.500084749  0.750056171  0.239446159
     0.750084749  0.000056171  0.239446159
     0.500084749  0.000056171  0.363578286
     0.750084749  0.750056171  0.363578286
     0.499810778  0.749036438  0.488828048
     0.749862546  0.000340508  0.488298782
     0.499761848  0.002048857  0.612169767
     0.752549470  0.750728058  0.610753521
     0.500084749  0.250056171  0.239446159
     0.750084749  0.500056171  0.239446159
     0.500084749  0.500056171  0.363578286
     0.750084749  0.250056171  0.363578286
     0.499866424  0.250603695  0.488721432
     0.749099841  0.499734903  0.488964189
     0.498205335  0.493574688  0.618100110
     0.750753975  0.249613073  0.611923847
     0.000084749  0.750056171  0.363578286
     0.250084749  0.000056171  0.363578286
     0.000084749  0.000056171  0.239446159
     0.250084749  0.750056171  0.239446159
     0.999857188  0.750394105  0.614566772
     0.249346556  0.999943829  0.614781797
     0.999915251  0.999830927  0.487959860
     0.250643896  0.750289407  0.488342652
     0.000084749  0.250056171  0.363578286
     0.250084749  0.500056171  0.363578286
     0.000084749  0.500056171  0.239446159
     0.250084749  0.250056171  0.239446159
     0.999828427  0.249634011  0.614770607
     0.248265660  0.500148340  0.613489608
     0.999666695  0.500164134  0.487824047
     0.249993932  0.249673109  0.488045416
     0.500084749  0.750056171  0.363578286
     0.750084749  0.000056171  0.363578286
     0.500084749  0.000056171  0.239446159
     0.750084749  0.750056171  0.239446159
     0.500208490  0.754444867  0.617976523
     0.750578969  0.999922121  0.614742452
     0.500080035  0.999350643  0.488242651
     0.749413318  0.750087637  0.488265164
     0.500084749  0.250056171  0.363578286
     0.750084749  0.500056171  0.363578286
     0.500084749  0.500056171  0.239446159
     0.750084749  0.250056171  0.239446159
     0.500099799  0.247787997  0.614504174
     0.751766757  0.500350148  0.615182713
     0.500235346  0.500508510  0.489332342
     0.749985949  0.249943297  0.488132887

  ion indices of the primitive-cell ions
   primitive index   ion index
                 1           1
                 2           2
                 3           3
                 4           4
                 5           5
                 6           6
                 7           7
                 8           8
                 9           9
                10          10
                11          11
                12          12
                13          13
                14          14
                15          15
                16          16
                17          17
                18          18
                19          19
                20          20
                21          21
                22          22
                23          23
                24          24
                25          25
                26          26
                27          27
                28          28
                29          29
                30          30
                31          31
                32          32
                33          33
                34          34
                35          35
                36          36
                37          37
                38          38
                39          39
                40          40
                41          41
                42          42
                43          43
                44          44
                45          45
                46          46
                47          47
                48          48
                49          49
                50          50
                51          51
                52          52
                53          53
                54          54
                55          55
                56          56
                57          57
                58          58
                59          59
                60          60
                61          61
                62          62
                63          63
                64          64
                65          65
                66          66
                67          67

 KPOINTS: pymatgen v2020.8.13 with grid density =

Automatic generation of k-mesh.
 Grid dimensions read from file:
 generate k-points for:    2    2    1

 Generating k-lattice:

  Cartesian coordinates                     Fractional coordinates (reciprocal lattice)
     0.059234796  0.000000000  0.000000000     0.500000000  0.000000000  0.000000000
     0.000000000  0.059234796  0.000000000     0.000000000  0.500000000  0.000000000
[...]
  Alpha Z  1218.92042  1218.92042  1218.92042
  Ewald  109687.81428109704.63638************   -12.54541   -12.82965    33.56330
  Hartree126527.09425126546.54841************    -1.98963    10.10778     8.75101
  E(xc)   -3484.35411 -3484.16113 -3484.98875     0.09481     0.11625    -0.21001
  Local  ************************245524.20838    10.55576    -8.56327   -33.42375
  n-local -5533.52403 -5534.34974 -5536.92187    -0.73981    -1.49306     1.43687
  augment   832.45930   832.46241   825.31040     0.04615     0.23118    -0.17292
  Kinetic 12674.05056 12681.43345 12701.00982     4.67274    12.66111   -10.04430
  Fock        0.00000     0.00000     0.00000     0.00000     0.00000     0.00000
  Total     -38.04578   -37.96084    -8.80941     0.09460     0.23034    -0.09980
  in kB     -50.32479   -50.21243   -11.65258     0.12513     0.30468    -0.13201

 VOLUME and BASIS-vectors are now :
  energy-cutoff  :     1000.00
  volume of cell :     1211.25
      direct lattice vectors                 reciprocal lattice vectors
     8.440984654  0.000000000  0.000000000     0.118469591  0.000000000  0.000000000
     0.000000000  8.440984654  0.000000000     0.000000000  0.118469591  0.000000000
     0.000000000  0.000000000 17.000000000     0.000000000  0.000000000  0.058823529

  length of vectors
     8.440984654  8.440984654 17.000000000     0.118469591  0.118469591  0.058823529

 FORCES acting on ions
    electron-ion (+dipol)            ewald-force                    non-local-force                 convergence-correction
   -.827E+02 0.153E+02 -.242E+03   0.901E+02 -.167E+02 0.245E+03   -.783E+01 0.148E+01 -.245E+01   0.428E-03 -.119E-03 0.104E-02
   0.657E+00 -.690E+02 -.232E+03   -.753E+00 0.746E+02 0.228E+03   0.104E+00 -.601E+01 0.379E+01   -.363E-04 0.216E-03 0.241E-03
   0.457E+02 0.216E+02 -.144E+04   -.851E+02 -.427E+02 0.145E+04   0.395E+02 0.211E+02 -.111E+02   -.678E-03 -.218E-03 0.310E-02
   -.594E-01 -.275E+00 0.245E+04   0.676E-01 0.269E+00 -.244E+04   -.508E-02 0.548E-02 -.952E+01   -.181E-05 0.371E-04 -.653E-02
   0.225E+00 -.171E+00 0.245E+04   -.219E+00 0.173E+00 -.244E+04   -.263E-02 -.601E-03 -.956E+01   -.290E-04 -.819E-07 -.657E-02
   -.194E+00 -.299E+00 0.836E+03   0.215E+00 0.343E+00 -.836E+03   -.181E-01 -.354E-01 0.459E+00   -.223E-04 0.135E-04 -.943E-02
   -.354E+00 0.978E-01 0.835E+03   0.456E+00 -.112E+00 -.836E+03   -.811E-01 0.892E-02 0.662E+00   0.136E-03 -.489E-04 -.941E-02
   -.472E+00 -.341E+01 -.769E+03   0.583E+00 0.334E+01 0.769E+03   -.114E+00 0.758E-01 -.189E+00   0.101E-06 -.107E-03 -.103E-01
   0.265E+01 -.838E+00 -.775E+03   -.258E+01 0.933E+00 0.775E+03   -.596E-01 -.948E-01 -.381E+00   0.183E-03 -.388E-04 -.105E-01
   -.102E+01 -.512E+01 -.240E+04   0.112E+01 0.533E+01 0.239E+04   -.991E-01 -.220E+00 0.813E+01   0.333E-04 -.293E-05 -.597E-02
   0.292E+02 -.266E+02 -.235E+04   -.305E+02 0.266E+02 0.234E+04   0.125E+01 -.287E-01 0.832E+01   0.416E-03 -.256E-03 -.585E-02
   -.486E-01 0.273E+00 0.245E+04   0.553E-01 -.268E+00 -.244E+04   -.386E-02 -.334E-02 -.956E+01   -.109E-04 -.297E-04 -.661E-02
   0.260E+00 0.173E+00 0.245E+04   -.249E+00 -.176E+00 -.244E+04   -.733E-02 0.249E-02 -.956E+01   -.257E-04 -.306E-05 -.646E-02
   -.397E-01 0.293E+00 0.836E+03   0.203E-02 -.342E+00 -.837E+03   0.277E-01 0.376E-01 0.330E+00   -.135E-03 -.697E-04 -.935E-02
   -.334E+00 -.134E+00 0.836E+03   0.329E+00 0.143E+00 -.836E+03   0.394E-02 -.542E-02 0.472E+00   0.188E-04 0.447E-04 -.952E-02
   0.229E-01 0.344E+01 -.775E+03   0.355E-01 -.336E+01 0.776E+03   -.580E-01 -.838E-01 -.215E+00   0.513E-05 0.140E-03 -.104E-01
   0.320E+01 0.792E+00 -.763E+03   -.290E+01 -.870E+00 0.764E+03   -.286E+00 0.759E-01 -.134E+01   0.273E-03 0.515E-04 -.110E-01
   -.830E+00 0.607E+01 -.238E+04   0.106E+01 -.627E+01 0.237E+04   -.235E+00 0.209E+00 0.818E+01   0.705E-04 0.818E-05 -.605E-02
   0.212E+02 0.232E+02 -.238E+04   -.216E+02 -.233E+02 0.237E+04   0.428E+00 0.753E-01 0.824E+01   0.242E-03 0.251E-03 -.576E-02
   0.613E-01 -.314E+00 0.245E+04   -.696E-01 0.301E+00 -.244E+04   0.777E-02 0.106E-01 -.956E+01   0.305E-05 0.331E-04 -.637E-02
   -.227E+00 -.182E+00 0.245E+04   0.221E+00 0.186E+00 -.244E+04   0.605E-02 -.178E-02 -.954E+01   0.278E-04 0.939E-05 -.655E-02
   0.200E+00 -.178E+00 0.835E+03   -.229E+00 0.121E+00 -.835E+03   0.205E-01 0.441E-01 0.533E+00   0.190E-04 -.702E-04 -.920E-02
   0.310E+00 0.233E+00 0.835E+03   -.413E+00 -.300E+00 -.836E+03   0.812E-01 0.518E-01 0.674E+00   -.129E-03 -.563E-04 -.939E-02
   0.444E+00 -.268E+01 -.776E+03   -.542E+00 0.238E+01 0.775E+03   0.936E-01 0.281E+00 0.119E+01   0.231E-04 -.231E-03 -.998E-02
   -.265E+01 -.135E+01 -.772E+03   0.259E+01 0.150E+01 0.773E+03   0.581E-01 -.144E+00 -.292E+00   -.201E-03 -.270E-04 -.104E-01
   0.127E+01 -.116E+02 -.237E+04   -.137E+01 0.122E+02 0.236E+04   0.993E-01 -.580E+00 0.799E+01   -.177E-04 -.212E-03 -.599E-02
   -.301E+02 -.269E+02 -.233E+04   0.315E+02 0.273E+02 0.233E+04   -.134E+01 -.333E+00 0.832E+01   -.463E-03 -.231E-03 -.608E-02
   0.487E-01 0.307E+00 0.245E+04   -.558E-01 -.295E+00 -.244E+04   0.686E-02 -.815E-02 -.954E+01   0.957E-05 -.385E-04 -.647E-02
   -.264E+00 0.186E+00 0.245E+04   0.251E+00 -.189E+00 -.244E+04   0.111E-01 0.361E-02 -.958E+01   0.279E-04 -.721E-05 -.640E-02
   0.447E-01 0.255E+00 0.833E+03   -.228E-01 -.218E+00 -.833E+03   -.199E-01 -.314E-01 0.829E+00   0.382E-04 0.757E-04 -.935E-02
   0.316E+00 -.285E+00 0.836E+03   -.320E+00 0.353E+00 -.836E+03   0.668E-03 -.521E-01 0.541E+00   -.275E-04 0.801E-04 -.925E-02
   -.420E-01 0.386E+01 -.766E+03   -.965E-02 -.361E+01 0.767E+03   0.506E-01 -.245E+00 -.697E+00   0.120E-04 0.213E-03 -.104E-01
   -.292E+01 0.132E+01 -.769E+03   0.262E+01 -.144E+01 0.770E+03   0.285E+00 0.117E+00 -.505E+00   -.259E-03 0.475E-04 -.106E-01
   0.487E+01 0.339E+02 -.225E+04   -.541E+01 -.364E+02 0.224E+04   0.507E+00 0.251E+01 0.350E+01   0.622E-04 0.379E-03 -.470E-02
   -.214E+02 0.228E+02 -.237E+04   0.218E+02 -.230E+02 0.237E+04   -.394E+00 0.267E+00 0.826E+01   -.234E-03 0.212E-03 -.592E-02
   0.115E-01 -.179E+00 0.501E+03   -.124E-01 0.158E+00 -.501E+03   -.106E-02 0.276E-01 0.613E-01   -.155E-04 -.268E-04 -.510E-02
   -.133E+00 0.554E-01 0.500E+03   0.139E+00 -.281E-01 -.500E+03   -.531E-02 -.375E-01 -.725E-01   0.478E-04 -.254E-04 -.509E-02
   -.357E-01 -.101E+00 0.148E+04   0.440E-01 0.110E+00 -.149E+04   -.117E-01 -.120E-01 0.235E+01   0.892E-07 0.172E-04 -.381E-02
   0.155E+00 -.176E+00 0.148E+04   -.141E+00 0.170E+00 -.149E+04   -.203E-01 0.626E-02 0.235E+01   -.103E-04 0.173E-04 -.371E-02
   -.213E+01 -.696E+01 -.146E+04   0.218E+01 0.686E+01 0.147E+04   -.539E-01 0.980E-01 -.455E+01   0.312E-04 -.478E-04 -.354E-02
   0.766E+01 -.510E+01 -.146E+04   -.744E+01 0.504E+01 0.147E+04   -.211E+00 0.639E-01 -.452E+01   0.954E-04 -.370E-04 -.344E-02
   -.366E+00 -.117E+01 -.461E+03   0.377E+00 0.120E+01 0.461E+03   -.107E-01 -.236E-01 0.251E+00   -.160E-04 -.277E-04 -.572E-02
   0.140E+01 -.224E+01 -.455E+03   -.148E+01 0.218E+01 0.455E+03   0.741E-01 0.562E-01 0.476E+00   0.134E-03 -.829E-04 -.561E-02
   0.290E-01 0.167E+00 0.501E+03   -.146E-01 -.138E+00 -.501E+03   -.202E-01 -.367E-01 -.592E-01   -.208E-04 0.386E-04 -.510E-02
   -.250E+00 -.577E-01 0.500E+03   0.183E+00 0.388E-01 -.499E+03   0.876E-01 0.245E-01 -.103E+00   0.397E-04 0.170E-04 -.501E-02
   -.298E-01 0.103E+00 0.148E+04   0.328E-01 -.111E+00 -.149E+04   -.488E-02 0.962E-02 0.234E+01   -.928E-05 -.220E-04 -.371E-02
   0.140E+00 0.175E+00 0.148E+04   -.137E+00 -.168E+00 -.149E+04   -.589E-02 -.959E-02 0.234E+01   -.289E-04 -.193E-04 -.375E-02
   -.723E+00 0.642E+01 -.147E+04   0.718E+00 -.632E+01 0.147E+04   0.468E-02 -.858E-01 -.451E+01   0.380E-04 0.428E-04 -.345E-02
   0.287E+02 0.710E+01 -.143E+04   -.283E+02 -.703E+01 0.143E+04   -.405E+00 -.746E-01 -.469E+01   0.412E-03 0.549E-04 -.334E-02
   0.136E+00 0.117E+01 -.454E+03   -.105E+00 -.120E+01 0.454E+03   -.313E-01 0.313E-01 0.310E+00   -.102E-04 0.167E-04 -.574E-02
   0.215E+01 0.222E+01 -.457E+03   -.214E+01 -.216E+01 0.457E+03   -.559E-02 -.468E-01 0.246E+00   0.864E-04 0.787E-04 -.566E-02
   -.132E-02 -.848E-01 0.500E+03   0.586E-02 0.150E+00 -.499E+03   -.613E-02 -.813E-01 -.920E-01   0.782E-05 -.268E-04 -.498E-02
   0.103E+00 0.322E-01 0.501E+03   -.959E-01 -.194E-01 -.501E+03   -.705E-02 -.193E-01 -.153E-01   -.507E-04 -.192E-04 -.508E-02
   0.376E-01 -.115E+00 0.148E+04   -.448E-01 0.113E+00 -.149E+04   0.805E-02 0.183E-02 0.235E+01   0.165E-05 0.568E-07 -.372E-02
   -.155E+00 -.171E+00 0.148E+04   0.142E+00 0.159E+00 -.149E+04   0.156E-01 0.135E-01 0.234E+01   0.720E-05 0.986E-05 -.369E-02
   0.340E+01 -.344E+02 -.140E+04   -.350E+01 0.341E+02 0.140E+04   0.108E+00 0.304E+00 -.179E+01   0.237E-04 -.424E-03 -.311E-02
   -.774E+01 -.655E+01 -.146E+04   0.751E+01 0.655E+01 0.147E+04   0.227E+00 0.985E-03 -.453E+01   -.100E-03 -.530E-04 -.353E-02
   0.412E+00 -.548E-01 -.457E+03   -.432E+00 0.883E-01 0.457E+03   0.220E-01 -.295E-01 0.373E+00   0.146E-04 -.643E-04 -.568E-02
   -.139E+01 -.175E+01 -.451E+03   0.146E+01 0.173E+01 0.451E+03   -.702E-01 0.230E-01 0.772E+00   -.146E-03 -.837E-04 -.561E-02
   -.490E-01 -.156E-01 0.500E+03   0.469E-01 -.213E-01 -.500E+03   0.227E-02 0.463E-01 -.349E-01   0.140E-04 0.234E-04 -.503E-02
   0.207E+00 -.131E-01 0.499E+03   -.118E+00 0.136E-02 -.499E+03   -.111E+00 0.154E-01 -.145E+00   -.287E-04 0.136E-04 -.501E-02
   0.325E-01 0.120E+00 0.148E+04   -.342E-01 -.117E+00 -.149E+04   0.891E-03 -.481E-02 0.234E+01   0.503E-05 0.302E-05 -.363E-02
   -.139E+00 0.169E+00 0.148E+04   0.137E+00 -.157E+00 -.149E+04   0.752E-03 -.165E-01 0.233E+01   0.277E-04 -.152E-04 -.375E-02
   0.843E+00 0.270E+02 -.144E+04   -.855E+00 -.270E+02 0.144E+04   0.103E-01 0.189E-01 -.443E+01   -.387E-04 0.350E-03 -.336E-02
   -.296E+02 0.949E+01 -.143E+04   0.289E+02 -.943E+01 0.143E+04   0.674E+00 -.693E-01 -.438E+01   -.474E-03 0.945E-04 -.342E-02
   -.274E+00 -.566E+00 -.467E+03   0.228E+00 0.503E+00 0.467E+03   0.485E-01 0.585E-01 -.709E+00   0.103E-04 0.769E-04 -.549E-02
   -.214E+01 0.174E+01 -.456E+03   0.214E+01 -.172E+01 0.456E+03   0.104E-01 -.226E-01 0.376E+00   -.829E-04 0.756E-04 -.570E-02
   -.323E+02 -.187E+02 0.358E+02   -.860E-12 -.711E-13 0.495E-11   0.323E+02 0.187E+02 -.362E+02   -.278E-03 0.694E-07 -.395E+00

 POSITION                                       TOTAL-FORCE (eV/Angst)
      5.20667      4.67993     12.92942        -0.474753      0.089998     -0.131275
      4.30502      5.67948     12.10915         0.008732     -0.414117      0.240352
      4.28456      4.82984     12.65611         0.444758      0.277869     -0.226084
      0.00072      6.33121      4.07058         0.003734     -0.000257      0.507136
      2.11096      0.00047      4.07058         0.003252      0.001546      0.513128
      0.00072      0.00047      6.18083         0.003144      0.009540     -0.057891
      2.11096      6.33121      6.18083         0.021647     -0.004834     -0.051925
      0.00247      6.32926      8.29804        -0.002362      0.002218     -0.007695
      2.11132      0.00153      8.30334         0.003531      0.000382     -0.025841
      0.00134      0.00394     10.40560        -0.001373     -0.007624     -0.051557
      2.09141      6.33052     10.40219        -0.026382      0.012109     -0.049237
      0.00072      2.11072      4.07058         0.003423      0.002558      0.515605
      2.11096      4.22097      4.07058         0.004879      0.000627      0.512443
      0.00072      4.22097      6.18083        -0.009473     -0.011711     -0.034287
      2.11096      2.11072      6.18083        -0.000608      0.003357     -0.047728
      0.00098      2.11191      8.30056         0.001005     -0.001873     -0.022787
      2.11675      4.21879      8.31104         0.016625     -0.001728      0.001496
      0.00431      4.21686     10.40084        -0.002150      0.011026     -0.033810
      2.10238      2.10950     10.40878         0.012870     -0.003751     -0.056580
      4.22121      6.33121      4.07058         0.000080     -0.001977      0.514514
      6.33145      0.00047      4.07058         0.000720      0.001866      0.511573
      4.22121      0.00047      6.18083        -0.008274     -0.012488     -0.030055
      6.33145      6.33121      6.18083        -0.022077     -0.015805     -0.054435
      4.21890      6.32261      8.31008        -0.003781     -0.017490     -0.004232
      6.32958      0.00287      8.30108         0.000528     -0.000141     -0.021089
      4.21848      0.01729     10.40689         0.009218      0.025156     -0.053243
      6.35226      6.33688     10.38281         0.062189      0.006712     -0.121438
      4.22121      2.11072      4.07058         0.000355      0.003710      0.511202
      6.33145      4.22097      4.07058        -0.000924      0.000542      0.519172
      4.22121      4.22097      6.18083         0.002636      0.005300     -0.011147
      6.33145      2.11072      6.18083        -0.002008      0.016176     -0.051294
      4.21936      2.11534      8.30826        -0.000548      0.004564     -0.014298
      6.32314      4.21825      8.31239        -0.023336     -0.004545      0.014975
      4.20534      4.16626     10.50770        -0.030449      0.013024      0.040778
      6.33710      2.10698     10.40271        -0.008047     -0.000034     -0.041573
      0.00072      6.33121      6.18083        -0.001458      0.007132      0.078184
      2.11096      0.00047      6.18083         0.001279     -0.010331      0.064914
      0.00072      0.00047      4.07058        -0.002996     -0.003118     -0.399541
      2.11096      6.33121      4.07058        -0.005483      0.000767     -0.399260
      8.43978      6.33407     10.44764         0.002493     -0.003838     -0.128865
      2.10473      8.44051     10.45129        -0.001507      0.003099     -0.123357
      8.44027      8.43956      8.29532        -0.000059      0.001755      0.049839
      2.11568      6.33318      8.30183        -0.000763      0.003417      0.038082
      0.00072      2.11072      6.18083        -0.005485     -0.008707      0.057192
      2.11096      4.22097      6.18083         0.021690      0.006083      0.085787
      0.00072      4.22097      4.07058        -0.001389      0.001870     -0.401680
      2.11096      2.11072      4.07058        -0.002098     -0.002820     -0.401749
      8.43954      2.10716     10.45110         0.000918      0.005712     -0.128376
      2.09561      4.22174     10.42932        -0.002083     -0.005026     -0.105246
      8.43817      4.22188      8.29301        -0.000197      0.002921      0.047057
      2.11019      2.10749      8.29677         0.000562      0.009483      0.032321
      4.22121      6.33121      6.18083        -0.001080     -0.016676      0.081575
      6.33145      0.00047      6.18083         0.000343     -0.006489      0.071023
      4.22121      0.00047      4.07058         0.001494      0.000112     -0.398864
      6.33145      6.33121      4.07058         0.002853      0.002477     -0.401436
      4.22225      6.36826     10.50560         0.002700      0.012682     -0.068726
      6.33563      8.44033     10.45062         0.004697      0.000941     -0.123692
      4.22117      8.43550      8.30013         0.002690      0.004148      0.049194
      6.32579      6.33148      8.30051         0.004239      0.003316      0.031987
      4.22121      2.11072      6.18083         0.000763      0.010108      0.091650
      6.33145      4.22097      6.18083        -0.022384      0.004067      0.079327
      4.22121      4.22097      4.07058        -0.000208     -0.001537     -0.398493
      6.33145      2.11072      4.07058        -0.000624     -0.004452     -0.403665
      4.22133      2.09157     10.44657        -0.001099      0.000094     -0.110414
      6.34565      4.22345     10.45811         0.009207     -0.004612     -0.107553
      4.22248      4.22478      8.31865         0.003689     -0.004585      0.009312
      6.33062      2.10977      8.29826         0.002514      0.002099      0.030600
    total drift:                               -0.038632     -0.017115     -0.791818

  FREE ENERGIE OF THE ION-ELECTRON SYSTEM (eV)
  free  energy   TOTEN  =      -523.14223888 eV

  energy  without entropy=     -523.14223888  energy(sigma->0) =     -523.14223888

     |            E. Caldeweyher, S. Ehlert & S. Grimme          |
     |          Mulliken Center for Theoretical Chemistry        |
     |                    University of Bonn                     |

Rational (Becke-Johnson) damping: r2scan-D4-ATM
  s6         1.0000
  s8         0.6019
  s9         1.0000
  a1         0.5156
  a2         5.7734
 alp        16.0000

Dispersion energy:      -1.1494897398917E-01 Eh