 vasp.6.3.0 20Jan22 (build Apr  1 2022 16:44:48) complex
 executed on        HPECrayEX_GCC date 2022.11.13  02:57:11

 INCAR:
   SYSTEM = MgO-rocksalt
   ISMEAR = 0
   SIGMA = 0.05
   EDIFF = 1E-6
   ALGO = ALL
   ISTART = 0
   IBRION = -1
   NSW = 0
   ISYM = 0
   DIPOL = 0.5 0.5 0.5
   IDIPOL = 3
   LDIPOL = .TRUE.
   LHFCALC = .TRUE.
   GGA = B5
   AEXX = 0.2
   AGGAX = 0.72
   AGGAC = 0.81
   ALDAC = 0.19
   IVDW = 1
   VDW_S6 = 1.05
   VDW_C6 = 1.75 0.14 0.63 0.70
   VDW_R0 = 1.452 1.001 1.243 1.342
   ENCUT = 600
   PREC = Accurate
   LASPH = .TRUE.
   LREAL = .FALSE.
   ISPIN = 1
   NELM = 200
   NELMIN = 8
   NCORE = 8
   KPAR = 1
   LWAVE = .FALSE.
   LCHARG = .FALSE.

 POTCAR:    PAW_PBE C 08Apr2002
 POTCAR:    PAW_PBE H 15Jun2001
 POTCAR:    PAW_PBE Mg_pv 13Apr2007
 POTCAR:    PAW_PBE O 08Apr2002
 POTCAR:    PAW_PBE C 08Apr2002
   VRHFIN =C: s2p2

   TITEL  = PAW_PBE C 08Apr2002
   POMASS =   12.011; ZVAL   =    4.000    mass and valenz
   ENMAX  =  400.000; ENMIN  =  300.000 eV

   TITEL  = PAW_PBE H 15Jun2001
   POMASS =    1.000; ZVAL   =    1.000    mass and valenz
   ENMAX  =  250.000; ENMIN  =  200.000 eV

   TITEL  = PAW_PBE Mg_pv 13Apr2007
   POMASS =   24.305; ZVAL   =    8.000    mass and valenz
   ENMAX  =  403.929; ENMIN  =  302.947 eV

   TITEL  = PAW_PBE O 08Apr2002
   POMASS =   16.000; ZVAL   =    6.000    mass and valenz
   ENMAX  =  400.000; ENMIN  =  300.000 eV

  PAW_PBE C 08Apr2002                   :
  PAW_PBE H 15Jun2001                   :
  PAW_PBE Mg_pv 13Apr2007               :
  PAW_PBE O 08Apr2002                   :

 POSCAR:  C  H Mg  O
  positions in direct lattice
 exchange correlation table for  LEXCH =       12
   RHO(1)=    0.500       N(1)  =     2000
   RHO(2)=  100.500       N(2)  =     4000

 ion  position               nearest neighbor table
   1  0.453  0.501  0.795-   5 1.09   3 1.09   4 1.09   2 1.53
   2  0.293  0.439  0.818-   6 1.09   8 1.09   7 1.09   1 1.53
   3  0.441  0.615  0.770-   1 1.09
   4  0.509  0.415  0.763-   1 1.09
   5  0.536  0.519  0.834-   1 1.09
   6  0.210  0.426  0.779-   2 1.09
   7  0.238  0.521  0.851-   2 1.09
   8  0.305  0.324  0.841-   2 1.09
   9  0.250  0.000  0.352-  43 2.10  44 2.10  51 2.10  60 2.10  41 2.10
  10  0.500  0.250  0.352-  43 2.10  44 2.10  52 2.10  59 2.10  42 2.10
  11  0.250  0.250  0.451-  47 2.10  42 2.10  41 2.10  49 2.10  58 2.10  43 2.10
  12  0.500  0.000  0.451-  41 2.10  42 2.10  50 2.10  57 2.10  44 2.10  48 2.11
  13  0.250  0.000  0.550-  48 2.10  47 2.10  55 2.10  64 2.10  41 2.11  45 2.13
  14  0.500  0.250  0.550-  63 2.10  48 2.10  56 2.10  47 2.10  42 2.11  46 2.13
  15  0.250  0.251  0.647-  47 2.08  62 2.10  53 2.10  46 2.10  45 2.10
  16  0.499  0.001  0.648-  48 2.10  46 2.10  45 2.10  54 2.10  61 2.11
  17  0.250  0.500  0.352-  43 2.10  51 2.10  52 2.10  68 2.10  49 2.10
  18  0.500  0.750  0.352-  44 2.10  51 2.10  52 2.10  67 2.10  50 2.10
  19  0.250  0.750  0.451-  55 2.10  49 2.10  50 2.10  41 2.10  66 2.10  51 2.10
  20  0.500  0.500  0.451-  42 2.10  49 2.10  50 2.10  65 2.10  52 2.10  56 2.11
  21  0.250  0.500  0.550-  56 2.10  55 2.10  47 2.10  72 2.10  49 2.11  53 2.13
  22  0.500  0.750  0.550-  71 2.10  48 2.10  56 2.10  55 2.10  50 2.11  54 2.13
  23  0.250  0.751  0.647-  55 2.08  70 2.10  54 2.10  53 2.10  45 2.10
  24  0.500  0.501  0.648-  56 2.10  54 2.10  46 2.10  53 2.10  69 2.11
  25  0.750  0.000  0.352-  44 2.10  59 2.10  60 2.10  67 2.10  57 2.10
  26  0.000  0.250  0.352-  43 2.10  59 2.10  60 2.10  68 2.10  58 2.10
  27  0.750  0.250  0.451-  42 2.10  57 2.10  58 2.10  65 2.10  59 2.10  63 2.11
  28  0.000  0.000  0.451-  64 2.10  57 2.10  58 2.10  41 2.10  66 2.10  60 2.10
  29  0.750  0.000  0.550-  48 2.10  63 2.10  71 2.10  64 2.10  57 2.11  61 2.13
  30  1.000  0.250  0.550-  63 2.10  72 2.10  64 2.10  47 2.10  58 2.11  62 2.13
  31  0.750  0.251  0.648-  63 2.10  69 2.10  61 2.10  62 2.10  46 2.11
  32  0.000  0.001  0.647-  64 2.08  45 2.10  62 2.10  61 2.10  70 2.10
  33  0.750  0.500  0.352-  52 2.10  59 2.10  67 2.10  68 2.10  65 2.10
  34  0.000  0.750  0.352-  51 2.10  60 2.10  67 2.10  68 2.10  66 2.10
  35  0.750  0.750  0.451-  50 2.10  57 2.10  65 2.10  66 2.10  67 2.10  71 2.11
  36  0.000  0.500  0.451-  72 2.10  58 2.10  65 2.10  66 2.10  49 2.10  68 2.10
  37  0.750  0.500  0.550-  56 2.10  71 2.10  63 2.10  72 2.10  65 2.11  69 2.13
  38  1.000  0.750  0.550-  71 2.10  64 2.10  72 2.10  55 2.10  66 2.11  70 2.13
  39  0.750  0.751  0.648-  61 2.10  71 2.10  70 2.10  69 2.10  54 2.11
  40  0.000  0.501  0.647-  72 2.08  53 2.10  69 2.10  70 2.10  62 2.10
  41  0.250  0.000  0.451-  11 2.10  12 2.10  19 2.10  28 2.10   9 2.10  13 2.11
  42  0.500  0.250  0.451-  11 2.10  12 2.10  20 2.10  27 2.10  10 2.10  14 2.11
  43  0.250  0.250  0.352-   9 2.10  10 2.10  17 2.10  26 2.10  11 2.10
  44  0.500  0.000  0.352-   9 2.10  10 2.10  18 2.10  25 2.10  12 2.10
  45  0.249  0.001  0.649-  32 2.10  16 2.10  23 2.10  15 2.10  13 2.13
  46  0.500  0.251  0.650-  16 2.10  15 2.10  24 2.10  31 2.11  14 2.13
  47  0.250  0.250  0.549-  15 2.08  11 2.10  21 2.10  13 2.10  14 2.10  30 2.10
  48  0.500  0.000  0.550-  16 2.10  29 2.10  13 2.10  22 2.10  14 2.10  12 2.11
  49  0.250  0.500  0.451-  11 2.10  19 2.10  20 2.10  36 2.10  17 2.10  21 2.11
  50  0.500  0.750  0.451-  12 2.10  19 2.10  20 2.10  35 2.10  18 2.10  22 2.11
  51  0.250  0.750  0.352-   9 2.10  17 2.10  18 2.10  34 2.10  19 2.10
  52  0.500  0.500  0.352-  10 2.10  17 2.10  18 2.10  33 2.10  20 2.10
  53  0.249  0.501  0.649-  40 2.10  15 2.10  23 2.10  24 2.10  21 2.13
  54  0.500  0.751  0.650-  24 2.10  23 2.10  16 2.10  39 2.11  22 2.13
  55  0.250  0.750  0.549-  23 2.08  21 2.10  19 2.10  13 2.10  22 2.10  38 2.10
  56  0.500  0.500  0.550-  24 2.10  37 2.10  21 2.10  14 2.10  22 2.10  20 2.11
  57  0.750  0.000  0.451-  12 2.10  27 2.10  28 2.10  35 2.10  25 2.10  29 2.11
  58  0.000  0.250  0.451-  11 2.10  27 2.10  28 2.10  36 2.10  26 2.10  30 2.11
  59  0.750  0.250  0.352-  10 2.10  25 2.10  26 2.10  33 2.10  27 2.10
  60  0.000  0.000  0.352-   9 2.10  25 2.10  26 2.10  34 2.10  28 2.10
  61  0.750  0.001  0.650-  39 2.10  32 2.10  31 2.10  16 2.11  29 2.13
  62  0.000  0.251  0.649-  15 2.10  32 2.10  40 2.10  31 2.10  30 2.13
  63  0.750  0.250  0.550-  14 2.10  30 2.10  31 2.10  29 2.10  37 2.10  27 2.11
  64  1.000  0.000  0.549-  32 2.08  28 2.10  38 2.10  30 2.10  29 2.10  13 2.10
  65  0.750  0.500  0.451-  20 2.10  27 2.10  35 2.10  36 2.10  33 2.10  37 2.11
  66  0.000  0.750  0.451-  19 2.10  28 2.10  35 2.10  36 2.10  34 2.10  38 2.11
  67  0.750  0.750  0.352-  18 2.10  25 2.10  33 2.10  34 2.10  35 2.10
  68  0.000  0.500  0.352-  17 2.10  26 2.10  33 2.10  34 2.10  36 2.10
  69  0.750  0.501  0.650-  40 2.10  31 2.10  39 2.10  24 2.11  37 2.13
  70  0.000  0.751  0.649-  23 2.10  40 2.10  32 2.10  39 2.10  38 2.13
  71  0.750  0.750  0.550-  22 2.10  38 2.10  39 2.10  29 2.10  37 2.10  35 2.11
  72  1.000  0.500  0.549-  40 2.08  36 2.10  30 2.10  38 2.10  37 2.10  21 2.10

IMPORTANT INFORMATION: All symmetrisations will be switched off!
NOSYMM: (Re-)initialisation of all symmetry stuff for point group C_1.

                                     Primitive cell

  volume of cell :    1504.9259

  direct lattice vectors                    reciprocal lattice vectors
     8.404861995  0.000000000  0.000000000     0.118978753  0.000000000  0.000000000
     0.000000000  8.404861995  0.000000000     0.000000000  0.118978753  0.000000000
     0.000000000  0.000000000 21.303646496     0.000000000  0.000000000  0.046940321

  length of vectors
     8.404861995  8.404861995 21.303646496     0.118978753  0.118978753  0.046940321

  position of ions in fractional coordinates (direct lattice)
     0.453194147  0.501174457  0.794945483
     0.292541327  0.439292675  0.817828426
     0.441131090  0.614671531  0.770465214
     0.508562997  0.415126488  0.763257185
     0.536027150  0.519329348  0.833706686
     0.209995794  0.425748983  0.778703469
     0.238041275  0.521056257  0.851324303
     0.304890581  0.323657524  0.840625228
     0.250000000  0.000000000  0.352052406
     0.500000000  0.250000000  0.352052406
     0.250000000  0.250000000  0.450684135
     0.500000000  0.000000000  0.450684135
     0.250254111  0.000347606  0.549611813
     0.500347921  0.250346800  0.549930243
     0.249689291  0.250801151  0.647036680
     0.499382131  0.000907927  0.648064099
     0.250000000  0.500000000  0.352052406
     0.500000000  0.750000000  0.352052406
     0.250000000  0.750000000  0.450684135
     0.500000000  0.500000000  0.450684135
     0.250218568  0.500350319  0.549602762
     0.500354917  0.750383312  0.549930339
     0.249706420  0.750647765  0.647037379
     0.499544487  0.500895917  0.648056715
     0.750000000  0.000000000  0.352052406
     0.000000000  0.250000000  0.352052406
     0.750000000  0.250000000  0.450684135
     0.000000000  0.000000000  0.450684135
     0.749616566  0.000366817  0.549958491
     0.999693471  0.250349361  0.549618119
     0.750261570  0.250824966  0.648222718
     0.000119592  0.000729231  0.646933621
     0.750000000  0.500000000  0.352052406
     0.000000000  0.750000000  0.352052406
     0.750000000  0.750000000  0.450684135
     0.000000000  0.500000000  0.450684135
     0.749694673  0.500363962  0.549943709
     0.999693815  0.750355493  0.549618412
     0.750253074  0.750985177  0.648224450
     0.000014670  0.500740786  0.646972578
     0.250000000  0.000000000  0.450684135
     0.500000000  0.250000000  0.450684135
     0.250000000  0.250000000  0.352052406
     0.500000000  0.000000000  0.352052406
     0.249351406  0.000692227  0.649447167
     0.499571239  0.250785144  0.649875088
     0.250074036  0.250355604  0.549313568
     0.499998250  0.000358199  0.549602221
     0.250000000  0.500000000  0.450684135
     0.500000000  0.750000000  0.450684135
     0.250000000  0.750000000  0.352052406
     0.500000000  0.500000000  0.352052406
     0.249328052  0.500699303  0.649455935
     0.499580693  0.750778083  0.649874908
     0.250079532  0.750326291  0.549313749
     0.500052919  0.500355838  0.549608071
     0.750000000  0.000000000  0.450684135
     0.000000000  0.250000000  0.450684135
     0.750000000  0.250000000  0.352052406
     0.000000000  0.000000000  0.352052406
     0.750158529  0.000782645  0.649934131
     0.000426368  0.250679738  0.649469549
     0.749959532  0.250341235  0.549650651
     0.999866640  0.000340680  0.549289887
     0.750000000  0.500000000  0.450684135
     0.000000000  0.750000000  0.450684135
     0.750000000  0.750000000  0.352052406
     0.000000000  0.500000000  0.352052406
     0.750221366  0.500776101  0.649918417
     0.000424684  0.750720309  0.649469794
     0.749959514  0.750373809  0.549651148
     0.999845973  0.500344270  0.549295878

  ion indices of the primitive-cell ions
   primitive index   ion index
                 1           1
                 2           2
                 3           3
                 4           4
                 5           5
                 6           6
                 7           7
                 8           8
[...]
   6.30364650  0.00000000  7.50000000
   0.00000000  2.10121550  7.50000000
   6.30364650  2.10121550  9.60121550
   0.00000000  0.00000000  9.60121550
   6.30042378  0.00308305 11.71612127
   8.40228566  2.10415183 11.70887010
   6.30584496  2.10814922 13.80950762
   0.00100516  0.00612908 13.78204516
   6.30364650  4.20243100  7.50000000
   0.00000000  6.30364650  7.50000000
   6.30364650  6.30364650  9.60121550
   0.00000000  4.20243100  9.60121550
   6.30108027  4.20549005 11.71580637
   8.40228855  6.30663437 11.70887636
   6.30577355  6.31192677 13.80954453
   0.00012330  4.20865720 13.78287509
   2.10121550  0.00000000  9.60121550
   4.20243100  2.10121550  9.60121550
   2.10121550  2.10121550  7.50000000
   4.20243100  0.00000000  7.50000000
   2.09576416  0.00581807 13.83559286
   4.19882732  2.10781453 13.84470913
   2.10183776  2.10420430 11.70238206
   4.20241629  0.00301062 11.70853143
   2.10121550  4.20243100  9.60121550
   4.20243100  6.30364650  9.60121550
   2.10121550  6.30364650  7.50000000
   4.20243100  4.20243100  7.50000000
   2.09556787  4.20830854 13.83577965
   4.19890678  6.31018618 13.84470530
   2.10188396  6.30638893 11.70238593
   4.20287577  4.20542177 11.70865605
   6.30364650  0.00000000  9.60121550
   0.00000000  2.10121550  9.60121550
   6.30364650  2.10121550  7.50000000
   0.00000000  0.00000000  7.50000000
   6.30497891  0.00657803 13.84596697
   0.00358356  2.10692860 13.83606968
   6.30330637  2.10408353 11.70956316
   8.40374113  0.00286337 11.70187757
   6.30364650  4.20243100  9.60121550
   0.00000000  6.30364650  9.60121550
   6.30364650  6.30364650  7.50000000
   0.00000000  4.20243100  7.50000000
   6.30550705  4.20895402 13.84563221
   0.00356941  6.30970059 13.83607489
   6.30330621  6.30678831 11.70957375
   8.40356742  4.20532454 11.70200521

--------------------------------------- Iteration      FINAL  ---------------------------------------

--------------------OUTCAR has been truncated-------------------------

[...]

--------------------OUTCAR has been truncated-------------------------

  DFT-D2 method for vdW energy calculation

  Parameters of vdW forcefield:
         C6(Jnm^6/mol)     R0(A)
   C        1.750          1.452
   H        0.140          1.001
   Mg       0.630          1.243
   O        0.700          1.342

  vdW correction parametrized for the method cÛý      

  IVDW =   1
  VDW_RADIUS =    50.000 A
  VDW_S6 =     1.050
  VDW_SR =     1.000
  VDW_D =    20.000
  LVDW_EWALD = F

  Number of pair interactions contributing to vdW energy:  921205
  Edisp (eV):   -5.45897

 VOLUME and BASIS-vectors are now :
  energy-cutoff  :      600.00
  volume of cell :     1504.93
      direct lattice vectors                 reciprocal lattice vectors
     8.404861995  0.000000000  0.000000000     0.118978753  0.000000000  0.000000000
     0.000000000  8.404861995  0.000000000     0.000000000  0.118978753  0.000000000
     0.000000000  0.000000000 21.303646496     0.000000000  0.000000000  0.046940321

  length of vectors
     8.404861995  8.404861995 21.303646496     0.118978753  0.118978753  0.046940321

 FORCES acting on ions:
    Electron-Ion                     Ewald-Force                    Non-Local-Force
   -.645E+02 -.261E+02 -.916E+03   0.642E+02 0.262E+02 0.916E+03   0.291E+00 -.141E+00 -.129E+00
   0.654E+02 0.254E+02 -.864E+03   -.654E+02 -.254E+02 0.864E+03   0.692E-01 0.966E-02 0.151E+00
   -.213E+01 -.534E+02 -.231E+03   0.166E+01 0.585E+02 0.228E+03   0.480E+00 -.493E+01 0.265E+01
   -.322E+02 0.353E+02 -.231E+03   0.347E+02 -.392E+02 0.227E+03   -.240E+01 0.374E+01 0.332E+01
   -.442E+02 -.112E+02 -.234E+03   0.479E+02 0.120E+02 0.238E+03   -.360E+01 -.795E+00 -.420E+01
   0.445E+02 0.923E+01 -.211E+03   -.482E+02 -.982E+01 0.206E+03   0.358E+01 0.559E+00 0.429E+01
   0.318E+02 -.334E+02 -.214E+03   -.343E+02 0.370E+02 0.218E+03   0.238E+01 -.349E+01 -.364E+01
   0.242E+01 0.544E+02 -.214E+03   -.193E+01 -.595E+02 0.216E+03   -.489E+00 0.497E+01 -.249E+01
   0.102E-01 0.450E-01 0.210E+04   -.720E-02 -.443E-01 -.210E+04   -.202E-02 -.498E-03 -.641E+01
   -.300E+00 0.258E+00 0.210E+04   0.303E+00 -.257E+00 -.210E+04   -.243E-02 -.691E-03 -.642E+01
   0.345E-01 0.108E+01 0.736E+03   -.610E-02 -.106E+01 -.736E+03   -.178E-01 -.101E-01 0.340E+00
   -.116E+01 0.187E+00 0.733E+03   0.119E+01 -.172E+00 -.734E+03   -.163E-01 -.951E-02 0.426E+00
   0.166E+01 0.865E+00 -.628E+03   -.157E+01 -.867E+00 0.629E+03   -.845E-01 0.138E-02 -.204E+00
   -.360E+01 0.551E+01 -.626E+03   0.368E+01 -.550E+01 0.626E+03   -.802E-01 -.240E-02 -.232E+00
   0.141E+02 0.281E+02 -.196E+04   -.142E+02 -.281E+02 0.196E+04   0.127E+00 -.276E-01 0.551E+01
   -.832E+01 0.335E+01 -.200E+04   0.822E+01 -.337E+01 0.199E+04   0.102E+00 0.403E-02 0.558E+01
   0.280E-01 -.430E-01 0.210E+04   -.250E-01 0.438E-01 -.210E+04   -.203E-02 -.549E-03 -.641E+01
   -.295E+00 -.256E+00 0.210E+04   0.299E+00 0.256E+00 -.210E+04   -.244E-02 -.467E-03 -.642E+01
   0.335E-01 -.101E+01 0.735E+03   -.504E-02 0.103E+01 -.736E+03   -.178E-01 -.840E-02 0.338E+00
   -.128E+01 -.121E+00 0.735E+03   0.130E+01 0.137E+00 -.736E+03   -.175E-01 -.100E-01 0.421E+00
   0.322E+01 -.906E+00 -.617E+03   -.316E+01 0.915E+00 0.618E+03   -.625E-01 -.595E-02 -.270E+00
   -.331E+01 -.549E+01 -.628E+03   0.339E+01 0.550E+01 0.628E+03   -.778E-01 -.604E-02 -.250E+00
   0.143E+02 -.263E+02 -.197E+04   -.145E+02 0.263E+02 0.197E+04   0.125E+00 0.378E-01 0.552E+01
   -.206E+02 -.425E+01 -.193E+04   0.205E+02 0.430E+01 0.192E+04   0.611E-01 -.379E-01 0.541E+01
   -.110E-01 0.407E-01 0.210E+04   0.762E-02 -.400E-01 -.210E+04   0.230E-02 -.533E-03 -.642E+01
   0.300E+00 0.240E+00 0.210E+04   -.304E+00 -.239E+00 -.210E+04   0.233E-02 -.671E-03 -.641E+01
   -.357E-01 0.951E+00 0.733E+03   0.106E-01 -.935E+00 -.733E+03   0.162E-01 -.965E-02 0.436E+00
   0.115E+01 0.182E+00 0.734E+03   -.119E+01 -.167E+00 -.734E+03   0.211E-01 -.889E-02 0.342E+00
   -.164E+01 0.561E+00 -.637E+03   0.155E+01 -.555E+00 0.637E+03   0.820E-01 -.277E-02 -.207E+00
   0.353E+01 0.389E+01 -.628E+03   -.363E+01 -.387E+01 0.628E+03   0.861E-01 -.126E-01 -.204E+00
   -.137E+02 0.169E+02 -.200E+04   0.138E+02 -.169E+02 0.199E+04   -.973E-01 -.248E-01 0.560E+01
   0.814E+01 0.292E+01 -.200E+04   -.797E+01 -.293E+01 0.200E+04   -.141E+00 0.733E-02 0.544E+01
   -.285E-01 -.386E-01 0.210E+04   0.251E-01 0.394E-01 -.210E+04   0.217E-02 -.608E-03 -.642E+01
   0.296E+00 -.238E+00 0.210E+04   -.299E+00 0.238E+00 -.210E+04   0.233E-02 -.426E-03 -.641E+01
   -.344E-01 -.880E+00 0.733E+03   0.939E-02 0.896E+00 -.733E+03   0.161E-01 -.976E-02 0.435E+00
   0.126E+01 -.121E+00 0.735E+03   -.130E+01 0.137E+00 -.736E+03   0.214E-01 -.980E-02 0.333E+00
   -.314E+01 -.638E+00 -.629E+03   0.307E+01 0.645E+00 0.629E+03   0.640E-01 -.415E-02 -.257E+00
   0.322E+01 -.381E+01 -.630E+03   -.331E+01 0.380E+01 0.630E+03   0.852E-01 0.756E-02 -.209E+00
   -.132E+02 -.159E+02 -.200E+04   0.133E+02 0.159E+02 0.199E+04   -.770E-01 0.559E-02 0.557E+01
   0.177E+02 -.374E+01 -.198E+04   -.176E+02 0.376E+01 0.197E+04   -.978E-01 -.121E-01 0.549E+01
   0.190E-01 0.156E+00 0.551E+03   -.280E-01 -.175E+00 -.550E+03   0.107E-01 0.222E-01 -.508E-01
   -.868E+00 0.816E+00 0.550E+03   0.851E+00 -.833E+00 -.550E+03   0.201E-01 0.204E-01 -.111E+00
   0.135E-01 0.192E+00 0.158E+04   -.103E-01 -.192E+00 -.158E+04   -.403E-02 0.238E-03 0.312E+01
   -.218E+00 0.308E-01 0.158E+04   0.222E+00 -.314E-01 -.158E+04   -.476E-02 0.754E-03 0.312E+01
   0.567E+01 0.322E+01 -.152E+04   -.571E+01 -.321E+01 0.152E+04   0.815E-01 -.146E-01 -.464E+01
   -.114E+02 0.242E+02 -.149E+04   0.114E+02 -.241E+02 0.150E+04   0.112E-01 -.148E+00 -.456E+01
   0.167E+01 0.400E+01 -.460E+03   -.168E+01 -.398E+01 0.460E+03   0.168E-02 -.148E-01 0.388E+00
   -.226E+01 0.570E+00 -.469E+03   0.224E+01 -.581E+00 0.469E+03   0.209E-01 0.130E-01 0.226E+00
   0.126E+00 -.963E-01 0.552E+03   -.135E+00 0.789E-01 -.552E+03   0.112E-01 0.206E-01 -.533E-01
   -.844E+00 -.754E+00 0.550E+03   0.826E+00 0.733E+00 -.550E+03   0.208E-01 0.247E-01 -.112E+00
   0.132E-01 -.193E+00 0.158E+04   -.997E-02 0.192E+00 -.158E+04   -.404E-02 0.983E-03 0.312E+01
   -.230E+00 -.321E-01 0.158E+04   0.234E+00 0.317E-01 -.158E+04   -.470E-02 0.558E-03 0.311E+01
   0.186E+02 -.486E+01 -.147E+04   -.185E+02 0.488E+01 0.148E+04   -.605E-01 -.181E-01 -.482E+01
   -.969E+01 -.238E+02 -.150E+04   0.975E+01 0.237E+02 0.150E+04   -.372E-01 0.784E-01 -.460E+01
   0.168E+01 -.395E+01 -.461E+03   -.168E+01 0.394E+01 0.461E+03   -.260E-02 0.185E-01 0.380E+00
   -.313E+01 -.550E+00 -.460E+03   0.310E+01 0.548E+00 0.460E+03   0.213E-01 0.235E-02 0.218E+00
   -.277E-01 0.133E+00 0.548E+03   0.459E-01 -.152E+00 -.548E+03   -.217E-01 0.229E-01 -.114E+00
   0.871E+00 0.706E+00 0.551E+03   -.858E+00 -.722E+00 -.550E+03   -.156E-01 0.190E-01 -.527E-01
   -.139E-01 0.180E+00 0.158E+04   0.105E-01 -.180E+00 -.158E+04   0.426E-02 0.336E-03 0.312E+01
   0.219E+00 0.305E-01 0.158E+04   -.223E+00 -.310E-01 -.158E+04   0.434E-02 0.725E-03 0.312E+01
   -.538E+01 0.130E+01 -.153E+04   0.534E+01 -.126E+01 0.153E+04   0.191E-01 -.394E-01 -.452E+01
   0.108E+02 0.117E+02 -.151E+04   -.108E+02 -.117E+02 0.152E+04   -.455E-01 -.234E-01 -.464E+01
   -.173E+01 0.306E+01 -.469E+03   0.175E+01 -.305E+01 0.469E+03   -.226E-01 -.147E-01 0.192E+00
   0.225E+01 0.515E+00 -.467E+03   -.223E+01 -.517E+00 0.467E+03   -.152E-01 0.373E-02 0.434E+00
   -.127E+00 -.734E-01 0.550E+03   0.143E+00 0.548E-01 -.550E+03   -.196E-01 0.220E-01 -.116E+00
   0.847E+00 -.642E+00 0.550E+03   -.834E+00 0.621E+00 -.550E+03   -.160E-01 0.242E-01 -.539E-01
   -.136E-01 -.181E+00 0.158E+04   0.102E-01 0.180E+00 -.158E+04   0.426E-02 0.961E-03 0.312E+01
   0.231E+00 -.318E-01 0.158E+04   -.234E+00 0.315E-01 -.158E+04   0.436E-02 0.503E-03 0.312E+01
   -.165E+02 -.225E+01 -.151E+04   0.164E+02 0.233E+01 0.151E+04   0.920E-01 -.747E-01 -.462E+01
   0.848E+01 -.112E+02 -.152E+04   -.847E+01 0.111E+02 0.152E+04   -.477E-01 0.602E-02 -.465E+01
   -.171E+01 -.298E+01 -.470E+03   0.173E+01 0.295E+01 0.470E+03   -.227E-01 0.266E-01 0.189E+00
   0.303E+01 -.559E+00 -.462E+03   -.300E+01 0.559E+00 0.462E+03   -.277E-01 -.349E-03 0.388E+00
   -.310E+00 0.272E+00 0.186E+02   0.469E-12 -.142E-12 -.784E-11   0.296E+00 -.235E+00 -.163E+02

 POSITION                                       TOTAL-FORCE (eV/Angst)
      3.80903      4.21230     16.93524         0.054941     -0.012028     -0.005864
      2.45877      3.69219     17.42273        -0.056687      0.000235      0.006755
      3.70765      5.16623     16.41372        -0.001995     -0.005038     -0.035870
      4.27440      3.48908     16.26016        -0.000828     -0.012588     -0.038081
      4.50523      4.36489     17.76099         0.013782      0.004578      0.061725
      1.76499      3.57836     16.58922         0.003768     -0.003192     -0.066029
      2.00070      4.37941     18.13631         0.014928      0.010180      0.041256
      2.56256      2.72030     17.90838         0.004362     -0.005794      0.038142
      2.10122      0.00000      7.50000         0.000777     -0.000104      0.405007
      4.20243      2.10122      7.50000         0.000880      0.000025      0.407604
      2.10122      2.10122      9.60122         0.008182      0.004876      0.022742
      4.20243      0.00000      9.60122         0.006867      0.004647      0.032083
      2.10335      0.00292     11.70874        -0.001718     -0.000422     -0.000967
      4.20536      2.10413     11.71552        -0.005270      0.005651     -0.011490
      2.09860      2.10795     13.78424        -0.007809     -0.001827      0.072144
      4.19724      0.00763     13.80613         0.011938     -0.018688     -0.062249
      2.10122      4.20243      7.50000         0.000810     -0.000095      0.405275
      4.20243      6.30365      7.50000         0.000923     -0.000206      0.407753
      2.10122      6.30365      9.60122         0.008252      0.003978      0.023898
      4.20243      4.20243      9.60122         0.007306      0.004904      0.035099
      2.10305      4.20538     11.70854        -0.003115      0.002083      0.019048
      4.20541      6.30687     11.71552        -0.006763     -0.000365     -0.006742
      2.09875      6.30909     13.78426        -0.013646     -0.007546      0.056039
      4.19860      4.20996     13.80597         0.000421      0.009220      0.066676
      6.30365      0.00000      7.50000        -0.000809     -0.000123      0.407640
      0.00000      2.10122      7.50000        -0.000781     -0.000018      0.405024
      6.30365      2.10122      9.60122        -0.006825      0.004844      0.034824
      0.00000      0.00000      9.60122        -0.009586      0.004346      0.019992
      6.30042      0.00308     11.71612         0.002032      0.001703     -0.020123
      8.40229      2.10415     11.70887         0.000705      0.005544      0.001378
      6.30584      2.10815     13.80951         0.002553      0.000181     -0.079493
      0.00101      0.00613     13.78205         0.009831     -0.004385      0.103488
      6.30365      4.20243      7.50000        -0.000881     -0.000086      0.407929
      0.00000      6.30365      7.50000        -0.000790     -0.000184      0.405222
      6.30365      6.30365      9.60122        -0.006767      0.004669      0.035204
      0.00000      4.20243      9.60122        -0.009309      0.004643      0.022982
      6.30108      4.20549     11.71581         0.000369      0.002847     -0.003071
      8.40229      6.30663     11.70888         0.001145     -0.003917      0.002496
      6.30577      6.31193     13.80954        -0.007286     -0.033837     -0.061927
      0.00012      4.20866     13.78288         0.004744      0.002308      0.073737
      2.10122      0.00000      9.60122         0.003202      0.006357      0.037416
      4.20243      2.10122      9.60122         0.006160      0.005889      0.052025
      2.10122      2.10122      7.50000        -0.001319     -0.000127     -0.493675
      4.20243      0.00000      7.50000        -0.001567      0.000039     -0.495244
      2.09576      0.00582     13.83559         0.053131     -0.002750     -0.003720
      4.19883      2.10781     13.84471         0.029514     -0.032161      0.009777
      2.10184      2.10420     11.70238        -0.001413     -0.005373      0.004641
      4.20242      0.00301     11.70853         0.002761      0.003876      0.006087
      2.10122      4.20243      9.60122         0.003625      0.005782      0.035798
      4.20243      6.30365      9.60122         0.006367      0.007045      0.051622
      2.10122      6.30365      7.50000        -0.001341      0.000132     -0.493825
      4.20243      4.20243      7.50000        -0.001558     -0.000019     -0.495414
      2.09557      4.20831     13.83578         0.013855     -0.006427     -0.048816
      4.19891      6.31019     13.84471         0.013399      0.028865     -0.001522
      2.10188      6.30639     11.70239        -0.003036      0.006720      0.001680
      4.20288      4.20542     11.70866        -0.000339      0.000277      0.004272
      6.30365      0.00000      9.60122        -0.006554      0.006574      0.053468
      0.00000      2.10122      9.60122        -0.004739      0.005316      0.037467
      6.30365      2.10122      7.50000         0.001451     -0.000102     -0.495334
      0.00000      0.00000      7.50000         0.001491      0.000008     -0.493699
      6.30498      0.00658     13.84597        -0.022297     -0.002624      0.009943
      0.00358      2.10693     13.83607        -0.042205     -0.002299     -0.002357
      6.30331      2.10408     11.70956        -0.003352     -0.003184      0.003806
      8.40374      0.00286     11.70188        -0.000972      0.001625      0.010424
      6.30365      4.20243      9.60122        -0.006228      0.006284      0.051393
      0.00000      6.30365      9.60122        -0.004861      0.006969      0.037120
      6.30365      6.30365      7.50000         0.001472      0.000097     -0.495442
      0.00000      4.20243      7.50000         0.001469     -0.000027     -0.493897
      6.30551      4.20895     13.84563        -0.007220     -0.014606     -0.017170
      0.00357      6.30970     13.83607        -0.043428      0.000732     -0.007724
      6.30331      6.30679     11.70957        -0.002919      0.006324      0.002661
      8.40357      4.20532     11.70201        -0.001199     -0.000236     -0.001021
    total drift:                               -0.002174      0.017354      0.000458

  FREE ENERGIE OF THE ION-ELECTRON SYSTEM (eV)
  free  energy   TOTEN  =      -485.10051186 eV

  energy  without entropy=     -485.10051186  energy(sigma->0) =     -485.10051186