 vasp.6.3.0 20Jan22 (build Mar 11 2022 13:48:16) complex

 executed on             LinuxIFC date 2024.01.22  16:54:34

 INCAR:
   SYSTEM = TiO2
   ISMEAR = 0
   SIGMA = 0.05
   EDIFF = 1E-5
   ALGO = ALL
   ISTART = 0
   IBRION = -1
   NSW = 0
   ISYM = 0
   ISIF = 2
   EDIFFG = -0.01
   DIPOL = 0.5 0.5 0.5
   IDIPOL = 3
   LDIPOL = .TRUE.
   GGA = MK
   LUSE_VDW = .TRUE.
   PARAM1 = 0.1234
   PARAM2 = 0.711357
   ZAB_VDW = -1.8867
   AGGAC = 0.0
   ENCUT = 600
   PREC = Accurate
   LASPH = .TRUE.
   LREAL = .FALSE.
   ISPIN = 1
   NELM = 200
   NELMIN = 8
   NCORE = 2
   KPAR = 1
   LWAVE = .FALSE.
   LCHARG = .FALSE.

 POTCAR:    PAW_PBE N 08Apr2002
 POTCAR:    PAW_PBE H 15Jun2001
 POTCAR:    PAW_PBE Ti_pv 07Sep2000
 POTCAR:    PAW_PBE O 08Apr2002
|           W    W    AA    RRRRR   N    N  II  N    N   GGGG   !!!           |
|           W    W   A  A   R    R  NN   N  II  NN   N  G    G  !!!           |
|           W    W  A    A  R    R  N N  N  II  N N  N  G       !!!           |
|           W WW W  AAAAAA  RRRRR   N  N N  II  N  N N  G  GGG   !            |
|           WW  WW  A    A  R   R   N   NN  II  N   NN  G    G                |
|           W    W  A    A  R    R  N    N  II  N    N   GGGG   !!!           |
|     For optimal performance we recommend to set                             |
|       NCORE = 2 up to number-of-cores-per-socket                            |
|     This setting can greatly improve the performance of VASP for DFT.       |
|     The default, NCORE=1 might be grossly inefficient on modern             |
|     multi-core architectures or massively parallel machines. Do your        |
|     Unfortunately you need to use the default for GW and RPA                |
|     calculations (for HF NCORE is supported but not extensively tested      |
|     yet).                                                                   |

   TITEL  = PAW_PBE N 08Apr2002
   POMASS =   14.001; ZVAL   =    5.000    mass and valenz
   ENMAX  =  400.000; ENMIN  =  300.000 eV

   TITEL  = PAW_PBE H 15Jun2001
   POMASS =    1.000; ZVAL   =    1.000    mass and valenz
   ENMAX  =  250.000; ENMIN  =  200.000 eV

   TITEL  = PAW_PBE Ti_pv 07Sep2000
   POMASS =   47.880; ZVAL   =   10.000    mass and valenz
   ENMAX  =  222.335; ENMIN  =  166.751 eV

   TITEL  = PAW_PBE O 08Apr2002
   POMASS =   16.000; ZVAL   =    6.000    mass and valenz
   ENMAX  =  400.000; ENMIN  =  300.000 eV

  PAW_PBE N 08Apr2002                   :
  PAW_PBE H 15Jun2001                   :
  PAW_PBE Ti_pv 07Sep2000               :
  PAW_PBE O 08Apr2002                   :

 POSCAR:  N  H Ti  O
  positions in direct lattice
 exchange correlation table for  LEXCH =       43
   RHO(1)=    0.500       N(1)  =     2000
   RHO(2)=  100.500       N(2)  =     4000

 ion  position               nearest neighbor table
   1  0.611  0.500  0.810-   2 1.01   3 1.02   4 1.02  52 2.25
   2  0.547  0.500  0.841-   1 1.01
   3  0.670  0.428  0.813-   1 1.02
   4  0.670  0.572  0.813-   1 1.02
   5  0.809  0.833  0.271-  55 1.93  89 1.93  57 1.93  56 1.97  54 1.97  22 3.04   8 3.04   6 3.04

   6  0.593  0.667  0.306-  53 1.93 120 1.93  58 1.93  56 1.93  59 1.97  57 1.97  37 3.04   7 3.04
                             5 3.04  11 3.06
   7  0.309  0.667  0.271-  59 1.93 125 1.93  61 1.93  60 1.97  53 1.97  40 3.04   6 3.04   8 3.04

   8  0.093  0.833  0.306-  54 1.93  92 1.93  62 1.93  60 1.93  55 1.97  61 1.97  23 3.04   5 3.04
                             7 3.04   9 3.06
   9  0.946  0.833  0.413-  63 1.92  97 1.93  65 1.93  64 1.97  55 1.97  62 1.98  12 2.99  26 3.03
                            10 3.03   8 3.06
  10  0.728  0.666  0.446-  58 1.89 128 1.93  64 1.93  66 1.95  67 1.97  65 1.98  11 3.00   9 3.03
                            41 3.04  15 3.08
  11  0.445  0.666  0.413-  67 1.92 133 1.92  69 1.93  59 1.96  68 1.97  58 1.98  10 3.00  12 3.04
                            44 3.04   6 3.06
  12  0.227  0.833  0.446-  62 1.89 100 1.93  68 1.93  70 1.95  63 1.96  69 1.98   9 2.99  27 3.04
                            11 3.04  13 3.08
  13  0.087  0.833  0.556-  71 1.92 105 1.92  73 1.93  72 1.96  70 1.98  63 1.99  16 2.94  14 3.03
                            30 3.03  12 3.08
  14  0.867  0.666  0.584-  66 1.87 136 1.92  72 1.93  75 1.94  73 1.98  74 1.98  15 2.97  13 3.03
                            45 3.04  19 3.15
  15  0.586  0.666  0.555- 141 1.92  77 1.93  75 1.93  76 1.96  67 1.97  66 1.98  14 2.97  16 3.03
                            48 3.04  10 3.08
  16  0.365  0.833  0.585-  70 1.87 108 1.93  76 1.93  71 1.94  78 1.97  77 1.99  13 2.94  15 3.03
                            31 3.03
  17  0.233  0.833  0.701-  79 1.86  81 1.92 113 1.93  80 1.99  78 2.05  71 2.07  20 2.84  34 3.05
                            18 3.07
  18  0.003  0.666  0.723-  74 1.79  82 1.83 144 1.96  80 1.97  81 2.02  19 2.85  17 3.07  49 3.08

[...]

  21  0.809  0.167  0.271-  87 1.93  89 1.93 121 1.93  88 1.97  86 1.97  22 3.04  24 3.04  38 3.04

[...]

  37  0.809  0.500  0.271- 119 1.93  57 1.93 121 1.93 120 1.97 118 1.97  38 3.04   6 3.04  40 3.04

  38  0.593  0.333  0.306- 117 1.93 120 1.93 122 1.93  88 1.93 121 1.97 123 1.97  37 3.04  39 3.04
                            21 3.04  43 3.06
  39  0.309  0.333  0.271- 123 1.93 125 1.93  93 1.93 124 1.97 117 1.97  40 3.04  38 3.04  24 3.04

  40  0.093  0.500  0.306- 118 1.93  60 1.93 124 1.93 126 1.93 125 1.97 119 1.97   7 3.04  39 3.04
                            37 3.04  41 3.05
  41  0.947  0.500  0.413- 127 1.92 129 1.93  65 1.93 119 1.96 126 1.96 128 1.97  44 2.99  10 3.04
                            42 3.04  40 3.05
  42  0.728  0.334  0.446- 122 1.89 128 1.93  96 1.93 130 1.95 131 1.97 129 1.98  43 3.00  25 3.03
                            41 3.04  47 3.08
  43  0.445  0.334  0.413- 131 1.92 133 1.92 101 1.93 123 1.96 132 1.97 122 1.98  42 3.00  28 3.04
                            44 3.04  38 3.06
  44  0.227  0.500  0.447- 126 1.92 132 1.93  68 1.93 127 1.95 134 1.95 133 1.99  41 2.99  11 3.04
                            43 3.04  45 3.05
  45  0.089  0.500  0.556- 135 1.91 137 1.93  73 1.93 134 1.96 136 1.98 127 1.99  48 2.95  14 3.04
                            46 3.04  44 3.05
  46  0.867  0.334  0.584- 130 1.87 136 1.92 104 1.93 139 1.94 137 1.98 138 1.98  47 2.97  29 3.03
                            45 3.04  51 3.15
  47  0.586  0.334  0.555- 141 1.92 109 1.93 139 1.93 140 1.96 131 1.97 130 1.98  46 2.97  32 3.03
                            48 3.04  42 3.08
  48  0.367  0.500  0.589- 134 1.92 140 1.93  76 1.93 135 1.93 142 1.96 141 2.00  45 2.95  15 3.04
                            47 3.04  49 3.11
  49  0.236  0.500  0.702- 143 1.85  81 1.93 145 1.93 142 2.00 144 2.02 135 2.08  52 2.87  50 3.08
                            18 3.08  48 3.11
  50  0.003  0.334  0.723- 138 1.79 146 1.83 144 1.96 112 1.97 145 2.02  51 2.85  33 3.07  49 3.08

  51  0.731  0.333  0.698- 146 1.88 148 1.93 116 1.93 147 1.98 139 2.02 138 2.05  50 2.85  36 3.06
                            52 3.06  46 3.15
  52  0.509  0.500  0.730- 143 1.83 142 1.89  83 1.97 147 1.97 148 2.03   1 2.25  49 2.87  51 3.06
                            19 3.06
  53  0.489  0.667  0.242-   6 1.93   7 1.97
  54  0.989  0.833  0.242-   8 1.93   5 1.97
  55  0.914  0.833  0.335-   5 1.93   9 1.97   8 1.97
  56  0.630  0.833  0.300-  22 1.93   6 1.93   5 1.97
  57  0.772  0.667  0.277-  37 1.93   5 1.93   6 1.97
  58  0.624  0.667  0.383-  10 1.89   6 1.93  11 1.98
  59  0.414  0.667  0.335-   7 1.93  11 1.96   6 1.97
  60  0.130  0.667  0.300-  40 1.93   8 1.93   7 1.97
  61  0.272  0.833  0.277-  23 1.93   7 1.93   8 1.97
  62  0.124  0.833  0.383-  12 1.89   8 1.93   9 1.98
  63  0.051  0.834  0.477-   9 1.92  12 1.96  13 1.99
  64  0.766  0.833  0.441-  26 1.93  10 1.93   9 1.97
  65  0.909  0.667  0.418-   9 1.93  41 1.93  10 1.98
  66  0.763  0.666  0.523-  14 1.87  10 1.95  15 1.98
  67  0.551  0.666  0.477-  11 1.92  15 1.97  10 1.97
  68  0.266  0.667  0.441-  44 1.93  12 1.93  11 1.97
  69  0.409  0.833  0.418-  27 1.93  11 1.93  12 1.98
  70  0.263  0.833  0.523-  16 1.87  12 1.95  13 1.98
  71  0.194  0.833  0.619-  13 1.92  16 1.94  17 2.07
  72  0.905  0.833  0.581-  30 1.93  14 1.93  13 1.96
  73  0.051  0.667  0.560-  13 1.93  45 1.93  14 1.98
  74  0.912  0.667  0.662-  18 1.79  14 1.98  19 2.05
  75  0.695  0.668  0.618-  15 1.93  14 1.94  19 2.02
  76  0.406  0.667  0.582-  16 1.93  48 1.93  15 1.96
  77  0.549  0.833  0.559-  31 1.93  15 1.93  16 1.99
  78  0.410  0.836  0.662-  20 1.79  16 1.97  17 2.05
  79  0.349  0.833  0.758-  20 1.83  17 1.86
  80  0.054  0.833  0.732-  34 1.97  18 1.97  17 1.99
  81  0.194  0.666  0.703-  17 1.92  49 1.93  18 2.02
  82  0.845  0.664  0.757-  18 1.83  19 1.88
  83  0.555  0.669  0.731-  20 1.95  52 1.97  19 1.98
  84  0.695  0.834  0.700-  35 1.92  19 1.93  20 2.02
  85  0.489  0.000  0.242-  22 1.93  23 1.97
  86  0.989  0.167  0.242-  24 1.93  21 1.97
  87  0.914  0.167  0.335-  21 1.93  25 1.97  24 1.97
  88  0.630  0.167  0.300-  22 1.93  38 1.93  21 1.97
  89  0.772  0.000  0.277-   5 1.93  21 1.93  22 1.97
  90  0.624  0.000  0.383-  26 1.89  22 1.93  27 1.98
  91  0.414  0.000  0.335-  23 1.93  27 1.96  22 1.97
  92  0.130  0.000  0.300-   8 1.93  24 1.93  23 1.97
  93  0.272  0.167  0.277-  23 1.93  39 1.93  24 1.97
  94  0.124  0.167  0.383-  28 1.89  24 1.93  25 1.98
  95  0.051  0.166  0.477-  25 1.92  28 1.96  29 1.99
  96  0.766  0.167  0.441-  26 1.93  42 1.93  25 1.97
  97  0.909  0.000  0.418-   9 1.93  25 1.93  26 1.98
  98  0.763  0.000  0.523-  30 1.87  26 1.95  31 1.98
  99  0.551  0.000  0.477-  27 1.92  26 1.97  31 1.98
 100  0.266  1.000  0.441-  12 1.93  28 1.93  27 1.97
 101  0.409  0.167  0.418-  27 1.93  43 1.93  28 1.98
 102  0.263  0.167  0.523-  32 1.87  28 1.95  29 1.98
 103  0.194  0.167  0.619-  29 1.92  32 1.94  33 2.07
 104  0.905  0.167  0.581-  30 1.93  46 1.93  29 1.96
 105  0.050  0.000  0.560-  29 1.92  13 1.92  30 1.99
 106  0.912  1.000  0.662-  34 1.79  30 1.98  35 2.05
 107  0.695  0.000  0.618-  31 1.92  30 1.94  35 2.07
 108  0.405  0.000  0.581-  32 1.93  16 1.93  31 1.96
 109  0.549  0.167  0.559-  31 1.93  47 1.93  32 1.99
 110  0.410  0.164  0.662-  36 1.79  32 1.97  33 2.05
 111  0.349  0.167  0.758-  36 1.83  33 1.86
 112  0.054  0.167  0.732-  34 1.97  50 1.97  33 1.99
[...]
 134  0.264  0.500  0.524-  48 1.92  44 1.95  45 1.96
 135  0.194  0.500  0.620-  45 1.91  48 1.93  49 2.08
 136  0.906  0.500  0.581-  46 1.92  14 1.92  45 1.98
 137  0.051  0.333  0.560-  29 1.93  45 1.93  46 1.98
 138  0.912  0.333  0.662-  50 1.79  46 1.98  51 2.05
 139  0.695  0.332  0.618-  47 1.93  46 1.94  51 2.02
 140  0.406  0.333  0.582-  32 1.93  48 1.93  47 1.96
 141  0.550  0.500  0.560-  47 1.92  15 1.92  48 2.00
 142  0.411  0.500  0.665-  52 1.89  48 1.96  49 2.00
 143  0.346  0.500  0.761-  52 1.83  49 1.85
 144  0.053  0.500  0.732-  50 1.96  18 1.96  49 2.02
 145  0.194  0.334  0.703-  33 1.92  49 1.93  50 2.02
 146  0.845  0.336  0.757-  50 1.83  51 1.88
 147  0.555  0.331  0.731-  36 1.95  52 1.97  51 1.98
 148  0.692  0.500  0.699-  51 1.93  19 1.93  52 2.03

IMPORTANT INFORMATION: All symmetrisations will be switched off!
[...]
   5.00123967  7.53889414  6.00000000
  10.11977455  9.42361768  6.00000000
   9.35736366  9.42361768  8.32909613
   6.45110407  9.42361768  7.45294423
   7.90749926  7.53889414  6.87615190
   6.38920825  7.53889414  9.50460760
   4.23882877  7.53889414  8.32909613
   1.33256919  7.53889414  7.45294423
[...]
   2.70580086  5.65417035 13.02133208
   1.98535553  5.65417067 15.39771230
   9.27101888  5.65417028 14.43631669
   0.51834634  3.77026262 13.90083195
   9.33391604  3.76507238 16.44151807
   7.11768779  3.75542084 15.35223203
   4.15307538  3.77009218 14.46924485
   5.62925553  5.65417029 13.92315228
   4.20817899  5.65416770 16.52899928
   3.54498972  5.65417184 18.90149668
   0.54575782  5.65417082 18.18992040
   1.98908807  3.77259741 17.45233074
   8.64645375  3.80216280 18.81689312
   5.67936781  3.74057213 18.15110868
   7.08749011  5.65416972 17.36097517

--------------------------------------- Iteration      FINAL  ---------------------------------------

--------------------OUTCAR has been truncated-------------------------

[...]

--------------------OUTCAR has been truncated-------------------------

  FORCE on cell =-STRESS in cart. coord.  units (eV):
  Direction    XX          YY          ZZ          XY          YZ          ZX
  Alpha Z  2769.81540  2769.81540  2769.81540
  Ewald  334845.04261327752.20902************    -0.00034     0.00039 -2083.50638
  Hartree356719.59030352468.54117************     0.00000     0.00036 -1346.20754
  E(xc)   -5198.83116 -5199.80578 -5198.46649    -0.00000     0.00000    -0.52931
  Local  ************************700385.85734     0.00019    -0.00078  3427.40907
  n-local -3309.90637 -3282.93093 -3324.76356     0.00003    -0.00001     0.26375
  augment  3149.44279  3144.05612  3138.16019    -0.00000     0.00001    -1.55556
  Kinetic 17172.68341 17223.88425 17282.39541     0.00002     0.00003   -11.48053
  Fock        0.00000     0.00000     0.00000     0.00000     0.00000     0.00000
  Total      15.88913    32.18111    29.11457    -0.00011     0.00001   -15.60651
  in kB       8.85184    17.92811    16.21973    -0.00006     0.00000    -8.69439

 VOLUME and BASIS-vectors are now :
  energy-cutoff  :      600.00
  volume of cell :     2875.92
      direct lattice vectors                 reciprocal lattice vectors
    10.237069764  0.000000000  0.000000000     0.097684203 -0.000000000  0.000000000
     0.000000000 11.308341211  0.000000000     0.000000000  0.088430299  0.000000000
     0.000000000  0.000000000 24.842918924     0.000000000  0.000000000  0.040252919

  length of vectors
    10.237069764 11.308341211 24.842918924     0.097684203  0.088430299  0.040252919

 FORCES acting on ions:
    Electron-Ion                     Ewald-Force                    Non-Local-Force
   -.178E+02 -.787E-03 -.151E+04   0.849E+01 0.963E-03 0.150E+04   0.916E+01 0.550E-04 0.175E+02
   0.437E+02 -.195E-03 -.318E+03   -.490E+02 0.204E-03 0.324E+03   0.499E+01 -.181E-04 -.567E+01
   -.425E+02 0.553E+02 -.305E+03   0.473E+02 -.618E+02 0.306E+03   -.448E+01 0.607E+01 -.367E+00
   -.425E+02 -.553E+02 -.305E+03   0.473E+02 0.618E+02 0.306E+03   -.448E+01 -.607E+01 -.367E+00
   0.498E+01 -.155E+00 0.300E+04   -.157E+00 0.157E+00 -.299E+04   -.986E+00 -.349E-03 -.311E+01
   0.479E+01 -.215E+00 0.245E+04   -.628E+01 0.216E+00 -.246E+04   -.153E+00 -.937E-03 -.103E+00
   0.522E+01 -.438E-02 0.300E+04   -.423E+00 -.305E-03 -.299E+04   -.983E+00 0.129E-02 -.310E+01
   0.369E+01 0.588E-01 0.245E+04   -.522E+01 -.659E-01 -.246E+04   -.146E+00 0.137E-02 -.107E+00
   -.512E+00 0.286E+00 0.112E+04   0.376E+00 -.287E+00 -.112E+04   0.152E+00 -.297E-03 0.338E-01
   0.148E+01 -.155E+01 0.709E+03   -.142E+01 0.153E+01 -.709E+03   -.467E-01 0.171E-01 -.147E+00
   0.101E+01 -.114E+00 0.112E+04   -.115E+01 0.112E+00 -.112E+04   0.146E+00 0.550E-02 0.164E-01
   -.319E+01 0.464E+00 0.703E+03   0.324E+01 -.465E+00 -.703E+03   -.371E-01 -.524E-03 -.151E+00
   -.534E+01 -.229E+01 -.695E+03   0.509E+01 0.227E+01 0.695E+03   0.267E+00 0.101E-01 0.159E+00
   -.726E+01 -.419E+01 -.104E+04   0.739E+01 0.420E+01 0.104E+04   -.111E+00 -.117E-01 -.267E+00
   0.134E+01 -.198E+01 -.672E+03   -.155E+01 0.198E+01 0.672E+03   0.232E+00 0.599E-02 0.118E+00
   0.290E+01 -.871E+00 -.106E+04   -.275E+01 0.885E+00 0.106E+04   -.123E+00 -.157E-01 -.316E+00
   0.288E+02 -.107E+02 -.247E+04   -.297E+02 0.107E+02 0.247E+04   0.925E+00 -.115E-02 0.216E-01
   -.781E+02 -.211E+02 -.282E+04   0.783E+02 0.210E+02 0.282E+04   -.208E+00 0.123E+00 0.646E+00
   -.100E+02 -.398E+02 -.239E+04   0.916E+01 0.399E+02 0.239E+04   0.844E+00 -.297E-01 0.138E+00
   -.524E+02 -.345E+02 -.281E+04   0.526E+02 0.345E+02 0.281E+04   -.155E+00 0.435E-01 0.660E+00
   0.498E+01 0.155E+00 0.300E+04   -.157E+00 -.157E+00 -.299E+04   -.986E+00 0.353E-03 -.311E+01
   0.476E+01 0.269E-04 0.245E+04   -.627E+01 -.797E-05 -.246E+04   -.149E+00 -.259E-05 -.108E+00
   0.508E+01 0.272E-04 0.300E+04   -.265E+00 -.100E-04 -.299E+04   -.985E+00 -.622E-06 -.310E+01
   0.369E+01 -.588E-01 0.245E+04   -.522E+01 0.658E-01 -.246E+04   -.146E+00 -.137E-02 -.107E+00
   -.512E+00 -.286E+00 0.112E+04   0.376E+00 0.287E+00 -.112E+04   0.152E+00 0.302E-03 0.338E-01
   -.199E+00 -.158E-04 0.707E+03   0.230E+00 0.201E-04 -.706E+03   -.215E-01 -.989E-06 -.152E+00
   0.784E+00 0.548E-04 0.112E+04   -.912E+00 -.529E-04 -.112E+04   0.145E+00 -.179E-05 0.217E-01
   -.319E+01 -.464E+00 0.703E+03   0.324E+01 0.465E+00 -.703E+03   -.371E-01 0.524E-03 -.151E+00
   -.534E+01 0.229E+01 -.695E+03   0.509E+01 -.227E+01 0.695E+03   0.267E+00 -.101E-01 0.159E+00
   -.545E+01 -.590E-04 -.106E+04   0.558E+01 0.691E-04 0.106E+04   -.105E+00 -.242E-05 -.278E+00
   -.321E+01 0.136E-03 -.687E+03   0.295E+01 -.126E-03 0.687E+03   0.272E+00 -.459E-05 0.189E+00
   0.290E+01 0.871E+00 -.106E+04   -.275E+01 -.885E+00 0.106E+04   -.123E+00 0.157E-01 -.316E+00
   0.288E+02 0.107E+02 -.247E+04   -.297E+02 -.107E+02 0.247E+04   0.925E+00 0.115E-02 0.216E-01
   -.678E+02 -.587E-04 -.283E+04   0.681E+02 0.571E-04 0.283E+04   -.224E+00 0.317E-05 0.652E+00
   0.117E+02 -.163E-04 -.246E+04   -.126E+02 0.151E-04 0.246E+04   0.869E+00 -.844E-06 0.603E-01
   -.524E+02 0.345E+02 -.281E+04   0.526E+02 -.345E+02 0.281E+04   -.156E+00 -.435E-01 0.660E+00
   0.494E+01 0.104E-04 0.300E+04   -.102E+00 -.102E-06 -.299E+04   -.988E+00 0.323E-05 -.310E+01
   0.479E+01 0.215E+00 0.245E+04   -.628E+01 -.216E+00 -.246E+04   -.153E+00 0.940E-03 -.103E+00
   0.522E+01 0.435E-02 0.300E+04   -.423E+00 0.316E-03 -.299E+04   -.983E+00 -.128E-02 -.310E+01
   0.288E+01 -.155E-04 0.245E+04   -.436E+01 0.165E-04 -.246E+04   -.162E+00 0.415E-06 -.108E+00
   0.530E+00 -.269E-04 0.112E+04   -.673E+00 0.173E-04 -.112E+04   0.149E+00 0.246E-05 0.552E-01
   0.148E+01 0.155E+01 0.709E+03   -.142E+01 -.153E+01 -.709E+03   -.467E-01 -.171E-01 -.147E+00
   0.101E+01 0.114E+00 0.112E+04   -.115E+01 -.112E+00 -.112E+04   0.146E+00 -.550E-02 0.164E-01
   -.603E+01 -.646E-04 0.688E+03   0.610E+01 0.599E-04 -.688E+03   -.523E-01 0.978E-07 -.613E-01
   -.311E+01 0.903E-04 -.696E+03   0.288E+01 -.101E-03 0.696E+03   0.222E+00 -.982E-06 0.159E+00
   -.726E+01 0.419E+01 -.104E+04   0.739E+01 -.420E+01 0.104E+04   -.111E+00 0.117E-01 -.267E+00
   0.134E+01 0.198E+01 -.672E+03   -.155E+01 -.198E+01 0.672E+03   0.232E+00 -.598E-02 0.118E+00
   0.191E+01 -.191E-03 -.109E+04   -.176E+01 0.187E-03 0.109E+04   -.119E+00 0.223E-05 -.202E+00
   0.474E+02 -.321E-04 -.246E+04   -.481E+02 0.362E-04 0.246E+04   0.672E+00 0.185E-05 0.101E+00
   -.781E+02 0.211E+02 -.282E+04   0.783E+02 -.210E+02 0.282E+04   -.208E+00 -.123E+00 0.646E+00
   -.100E+02 0.398E+02 -.239E+04   0.916E+01 -.399E+02 0.239E+04   0.844E+00 0.297E-01 0.138E+00
   0.232E+02 -.167E-03 -.275E+04   -.225E+02 0.165E-03 0.275E+04   -.658E+00 -.374E-06 -.506E+00
   -.347E+02 -.170E+00 0.203E+04   0.396E+02 0.172E+00 -.204E+04   -.656E+01 -.161E-02 0.170E+02
   -.351E+02 -.142E+00 0.203E+04   0.400E+02 0.141E+00 -.204E+04   -.656E+01 0.684E-03 0.170E+02
   0.844E+02 0.129E+00 0.122E+04   -.892E+02 -.128E+00 -.122E+04   0.357E+01 -.471E-02 -.427E+01
   0.773E+02 -.585E-01 0.149E+04   -.843E+02 0.598E-01 -.149E+04   0.709E+01 -.247E-02 -.253E+01
   -.891E+02 -.132E+00 0.172E+04   0.963E+02 0.130E+00 -.172E+04   -.669E+01 0.224E-02 -.920E-01
   -.728E+02 -.749E+00 0.941E+03   0.785E+02 0.792E+00 -.945E+03   -.562E+01 -.382E-01 0.402E+01
   0.850E+02 0.503E-01 0.122E+04   -.898E+02 -.336E-01 -.122E+04   0.355E+01 -.179E-01 -.414E+01
   0.766E+02 0.813E-01 0.149E+04   -.836E+02 -.896E-01 -.149E+04   0.710E+01 0.198E-01 -.255E+01
[...]
   0.909E+02 -.566E-04 -.964E+03   -.979E+02 0.617E-04 0.971E+03   0.672E+01 -.490E-05 -.710E+01
   0.741E+02 0.122E-03 -.633E+03   -.802E+02 -.129E-03 0.636E+03   0.592E+01 0.671E-06 -.270E+01
   -.860E+02 0.277E+00 -.408E+03   0.925E+02 -.242E+00 0.406E+03   -.631E+01 -.325E-01 0.251E+01
   -.735E+02 0.982E+01 -.113E+04   0.761E+02 -.101E+02 0.112E+04   -.233E+01 0.307E+00 0.901E+01
   0.839E+02 0.952E+01 -.932E+03   -.903E+02 -.985E+01 0.937E+03   0.619E+01 0.325E+00 -.545E+01
   0.836E+02 0.387E+00 -.645E+03   -.902E+02 -.358E+00 0.648E+03   0.633E+01 -.344E-01 -.284E+01
   -.768E+02 0.634E-05 -.412E+03   0.829E+02 -.236E-04 0.410E+03   -.591E+01 0.478E-05 0.213E+01
   -.663E+02 0.677E-03 -.116E+04   0.724E+02 -.729E-03 0.115E+04   -.585E+01 0.502E-04 0.545E+01
   0.108E+03 -.403E-03 -.202E+04   -.114E+03 0.435E-03 0.204E+04   0.559E+01 -.276E-04 -.200E+02
   0.491E+02 -.191E-03 -.178E+04   -.528E+02 0.177E-03 0.179E+04   0.349E+01 -.152E-06 -.713E+01
   -.552E+02 0.640E+01 -.147E+04   0.605E+02 -.623E+01 0.147E+04   -.502E+01 -.168E+00 0.251E+01
   0.112E+02 0.305E+02 -.202E+04   -.164E+02 -.304E+02 0.204E+04   0.520E+01 -.109E+00 -.193E+02
   0.811E+02 0.465E+02 -.172E+04   -.862E+02 -.460E+02 0.173E+04   0.490E+01 -.435E+00 -.612E+01
   -.735E+02 -.216E-03 -.137E+04   0.781E+02 0.246E-03 0.137E+04   -.438E+01 -.212E-04 0.419E+01
   -.838E+01 -.100E-03 0.553E+02   0.142E-12 0.256E-12 -.109E-10   0.836E+01 0.156E-03 -.552E+02

 POSITION                                       TOTAL-FORCE (eV/Angst)
      6.25667      5.65417     20.11485        -0.146038      0.000231     -0.227598
      5.60429      5.65417     20.88891        -0.298058     -0.000010      0.358128
      6.85835      4.83931     20.18705         0.265427     -0.369091      0.048017
      6.85835      6.46904     20.18705         0.265283      0.368883      0.047989
      8.28544      9.42362      6.72647         3.866313      0.000928      1.446378
      6.07316      7.53889      7.60262        -1.644294      0.000556     -1.949751
      3.16690      7.53889      6.72647         3.837303     -0.003379      1.432769
      0.95463      9.42362      7.60262        -1.675101     -0.005660     -1.955977
      9.68397      9.42391     10.26710         0.017295     -0.001077     -0.011686
      7.45058      7.53511     11.06814        -0.001149     -0.001441     -0.009612
      4.56013      7.53641     10.26365         0.013969      0.001278     -0.012640
      2.32517      9.42330     11.07626        -0.004310     -0.001392     -0.006841
      0.88889      9.42484     13.80587         0.010622     -0.003695      0.000143
      8.87052      7.53372     14.51396        -0.017167     -0.005648     -0.016553
      5.99444      7.53518     13.78605         0.011012      0.002210      0.004040
      3.74136      9.42365     14.53801        -0.013535     -0.000646     -0.014666
      2.38297      9.41682     17.41032         0.027719      0.003315      0.080259
      0.03293      7.52764     17.96610        -0.125369      0.012756      0.061809
      7.48776      7.53755     17.33949         0.015448      0.018281      0.057833
      5.17177      9.43823     17.96068        -0.148778      0.011352      0.073819
      8.28544      1.88472      6.72647         3.866343     -0.000934      1.446396
      6.07316      0.00000      7.60262        -1.659033      0.000016     -1.953949
      3.16690      0.00000      6.72647         3.855853      0.000016      1.438326
      0.95463      1.88472      7.60262        -1.675121      0.005659     -1.955981
      9.68397      1.88443     10.26710         0.017287      0.001088     -0.011702
      7.44761      0.00000     11.06987        -0.008109      0.000003     -0.008522
      4.56227     11.30834     10.26625         0.017212     -0.000000     -0.009459
      2.32517      1.88504     11.07626        -0.004311      0.001396     -0.006848
      0.88889      1.88351     13.80587         0.010639      0.003700      0.000145
      8.86020      0.00000     14.52587        -0.019199      0.000007     -0.003830
      6.00102      0.00000     13.79508         0.006993      0.000005      0.009483
      3.74136      1.88469     14.53801        -0.013543      0.000636     -0.014691
      2.38297      1.89152     17.41032         0.027702     -0.003322      0.080253
      0.05267     11.30834     17.96777        -0.144743      0.000001      0.076960
      7.51631     11.30834     17.39139         0.028731     -0.000003      0.085217
      5.17177      1.87011     17.96068        -0.148831     -0.011351      0.073793
      8.28544      5.65417      6.72647         3.877055      0.000013      1.444453
      6.07316      3.76945      7.60262        -1.644287     -0.000555     -1.949753
      3.16690      3.76945      6.72647         3.837320      0.003366      1.432782
      0.95463      5.65417      7.60262        -1.646788      0.000001     -1.882558
      9.69655      5.65417     10.26290         0.016112     -0.000008      0.000589
      7.45058      3.77323     11.06814        -0.001170      0.001438     -0.009613
      4.56013      3.77193     10.26365         0.013951     -0.001287     -0.012655
      2.32821      5.65417     11.10379        -0.001938     -0.000005      0.011821
      0.91585      5.65417     13.81150         0.015528     -0.000012      0.021894
      8.87052      3.77462     14.51397        -0.017166      0.005643     -0.016571
      5.99444      3.77316     13.78606         0.011015     -0.002205      0.004037
      3.75655      5.65417     14.62409        -0.004312     -0.000002      0.020717
      2.42078      5.65417     17.43063         0.009559      0.000006      0.094459
      0.03293      3.78070     17.96611        -0.125350     -0.012743      0.061827
      7.48777      3.77079     17.33950         0.015442     -0.018285      0.057829
      5.20712      5.65417     18.12770        -0.136354     -0.000003      0.048414
      5.00124      7.53889      6.00000        -1.680286     -0.000150      0.733467
     10.11977      9.42362      6.00000        -1.676906      0.000274      0.731327
      9.35736      9.42362      8.32910        -1.233621     -0.002797     -0.053710
      6.45110      9.42362      7.45294         0.121396     -0.001156      0.039315
      7.90750      7.53889      6.87615         0.509715      0.000874     -1.141870
      6.38921      7.53889      9.50461         0.114339      0.004729      0.255189
      4.23883      7.53889      8.32910        -1.239498     -0.001183     -0.047977
      1.33257      7.53889      7.45294         0.132325      0.011510      0.031144
[...]
      2.70580      5.65417     13.02133         0.233566     -0.000004     -0.121004
      1.98536      5.65417     15.39771        -0.248773     -0.000000      0.164007
      9.27102      5.65417     14.43632        -0.221494     -0.000007      0.084678
      0.51835      3.77026     13.90083         0.226188      0.001963     -0.091587
      9.33392      3.76507     16.44152         0.267252     -0.001504      0.016963
      7.11769      3.75542     15.35223        -0.219632     -0.004155      0.149661
      4.15308      3.77009     14.46924        -0.223157     -0.006070      0.094871
      5.62926      5.65417     13.92315         0.227568     -0.000013     -0.091556
      4.20818      5.65417     16.52900         0.223886     -0.000002     -0.101314
      3.54499      5.65417     18.90150        -0.082200      0.000004      0.260091
      0.54576      5.65417     18.18992        -0.160794     -0.000014      0.142822
      1.98909      3.77260     17.45233         0.201372      0.005619     -0.111713
      8.64645      3.80216     18.81689        -0.055822      0.012003      0.284342
      5.67937      3.74057     18.15111        -0.174461      0.014674      0.137779
      7.08749      5.65417     17.36098         0.185494      0.000009     -0.122788
    total drift:                               -0.011483      0.000056      0.075162

  FREE ENERGIE OF THE ION-ELECTRON SYSTEM (eV)
  free  energy   TOTEN  =     -1063.11639884 eV

  energy  without entropy=    -1063.11639884  energy(sigma->0) =    -1063.11639884