 vasp.6.3.0 20Jan22 (build Apr  1 2022 16:44:48) complex
 executed on        HPECrayEX_GCC date 2022.11.03  12:16:58

 INCAR:
   SYSTEM = MgO-rocksalt
   ISMEAR = 0
   SIGMA = 0.05
   EDIFF = 1E-7
   ALGO = ALL
   ISTART = 0
   IBRION = 2
   NSW = 1000
   ISYM = 0
   ISIF = 2
   EDIFFG = -0.01
   DIPOL = 0.5 0.5 0.5
   IDIPOL = 3
   LDIPOL = .TRUE.
   LHFCALC = .TRUE.
   GGA = B5
   AEXX = 0.2
   AGGAX = 0.72
   AGGAC = 0.81
   ALDAC = 0.19
   IVDW = 1
   VDW_S6 = 1.05
   VDW_C6 = 1.75 0.14 0.63 0.70
   VDW_R0 = 1.452 1.001 1.243 1.342
   ENCUT = 600
   PREC = Accurate
   LASPH = .TRUE.
   LREAL = .FALSE.
   ISPIN = 1
   NELM = 200
   NELMIN = 8
   NCORE = 8
   KPAR = 1
   LWAVE = .FALSE.
   LCHARG = .FALSE.

 POTCAR:    PAW_PBE C 08Apr2002
 POTCAR:    PAW_PBE H 15Jun2001
 POTCAR:    PAW_PBE Mg_pv 13Apr2007
 POTCAR:    PAW_PBE O 08Apr2002
 POTCAR:    PAW_PBE C 08Apr2002
   VRHFIN =C: s2p2

   TITEL  = PAW_PBE C 08Apr2002
   POMASS =   12.011; ZVAL   =    4.000    mass and valenz
   ENMAX  =  400.000; ENMIN  =  300.000 eV

   TITEL  = PAW_PBE H 15Jun2001
   POMASS =    1.000; ZVAL   =    1.000    mass and valenz
   ENMAX  =  250.000; ENMIN  =  200.000 eV

   TITEL  = PAW_PBE Mg_pv 13Apr2007
   POMASS =   24.305; ZVAL   =    8.000    mass and valenz
   ENMAX  =  403.929; ENMIN  =  302.947 eV

   TITEL  = PAW_PBE O 08Apr2002
   POMASS =   16.000; ZVAL   =    6.000    mass and valenz
   ENMAX  =  400.000; ENMIN  =  300.000 eV

  PAW_PBE C 08Apr2002                   :
  PAW_PBE H 15Jun2001                   :
  PAW_PBE Mg_pv 13Apr2007               :
  PAW_PBE O 08Apr2002                   :

 POSCAR:  C  H Mg  O
  positions in direct lattice
 exchange correlation table for  LEXCH =       12
   RHO(1)=    0.500       N(1)  =     2000
   RHO(2)=  100.500       N(2)  =     4000

 ion  position               nearest neighbor table
   1  0.500  0.500  0.791-   6 1.09   5 1.09   7 1.09   8 1.09
   2  0.000  0.500  0.791-  10 1.09   9 1.09  11 1.09  12 1.09
   3  0.500  1.000  0.791-  14 1.09  13 1.09  15 1.09  16 1.09
   4  0.000  1.000  0.791-  18 1.09  17 1.09  19 1.09  20 1.09
   5  0.500  0.606  0.820-   1 1.09
   6  0.500  0.394  0.820-   1 1.09
   7  0.607  0.500  0.762-   1 1.09
   8  0.393  0.500  0.762-   1 1.09
   9  0.894  0.500  0.820-   2 1.09
  10  0.106  0.500  0.820-   2 1.09
  11  1.000  0.607  0.762-   2 1.09
  12  1.000  0.393  0.762-   2 1.09
  13  0.394  1.000  0.820-   3 1.09
  14  0.606  1.000  0.820-   3 1.09
  15  0.500  0.107  0.762-   3 1.09
  16  0.500  0.893  0.762-   3 1.09
  17  1.000  0.106  0.820-   4 1.09
  18  1.000  0.894  0.820-   4 1.09
  19  0.107  0.000  0.762-   4 1.09
  20  0.893  0.000  0.762-   4 1.09
  21  0.250  0.000  0.352-  55 2.10  56 2.10  63 2.10  72 2.10  53 2.10
  22  0.500  0.250  0.352-  55 2.10  56 2.10  64 2.10  71 2.10  54 2.10
  23  0.250  0.250  0.451-  53 2.10  54 2.10  61 2.10  70 2.10  55 2.10  59 2.11
  24  0.500  0.000  0.451-  53 2.10  54 2.10  62 2.10  69 2.10  56 2.10  60 2.10
  25  0.250  1.000  0.550-  60 2.10  59 2.10  67 2.10  76 2.10  53 2.11  57 2.13
  26  0.500  0.250  0.550-  68 2.10  75 2.10  59 2.10  60 2.10  54 2.11  58 2.12
  27  0.250  0.250  0.648-  59 2.09  57 2.10  58 2.10  74 2.10  65 2.10
  28  0.500  1.000  0.648-  60 2.09  66 2.10  58 2.10  73 2.10  57 2.10
  29  0.250  0.500  0.352-  55 2.10  63 2.10  64 2.10  80 2.10  61 2.10
  30  0.500  0.750  0.352-  56 2.10  63 2.10  64 2.10  79 2.10  62 2.10
  31  0.250  0.750  0.451-  53 2.10  61 2.10  62 2.10  78 2.10  63 2.10  67 2.11
  32  0.500  0.500  0.451-  54 2.10  61 2.10  62 2.10  77 2.10  64 2.10  68 2.11
  33  0.250  0.500  0.550-  68 2.10  59 2.10  67 2.10  84 2.10  61 2.11  65 2.13
  34  0.500  0.750  0.550-  68 2.10  83 2.10  67 2.10  60 2.10  62 2.11  66 2.12
  35  0.250  0.750  0.648-  67 2.09  57 2.10  66 2.10  82 2.10  65 2.10
  36  0.500  0.500  0.648-  58 2.10  66 2.10  65 2.10  81 2.10  68 2.10
  37  0.750  0.000  0.352-  56 2.10  71 2.10  72 2.10  79 2.10  69 2.10
  38  0.000  0.250  0.352-  55 2.10  71 2.10  72 2.10  80 2.10  70 2.10
  39  0.750  0.250  0.451-  54 2.10  69 2.10  70 2.10  77 2.10  71 2.10  75 2.11
  40  0.000  0.000  0.451-  53 2.10  69 2.10  70 2.10  78 2.10  72 2.10  76 2.11
  41  0.750  1.000  0.550-  60 2.10  75 2.10  83 2.10  76 2.10  69 2.11  73 2.13
  42  0.000  0.250  0.550-  59 2.10  75 2.10  84 2.10  76 2.10  70 2.11  74 2.13
  43  0.750  0.250  0.648-  75 2.09  73 2.10  58 2.10  74 2.10  81 2.10
  44  1.000  0.000  0.648-  76 2.09  73 2.10  57 2.10  74 2.10  82 2.10
  45  0.750  0.500  0.352-  64 2.10  71 2.10  79 2.10  80 2.10  77 2.10
  46  0.000  0.750  0.352-  63 2.10  72 2.10  79 2.10  80 2.10  78 2.10
  47  0.750  0.750  0.451-  62 2.10  69 2.10  77 2.10  78 2.10  79 2.10  83 2.11
  48  0.000  0.500  0.451-  61 2.10  70 2.10  77 2.10  78 2.10  80 2.10  84 2.11
  49  0.750  0.500  0.550-  68 2.10  75 2.10  83 2.10  84 2.10  77 2.11  81 2.13
  50  0.000  0.750  0.550-  67 2.10  83 2.10  84 2.10  76 2.10  78 2.11  82 2.13
  51  0.750  0.750  0.648-  83 2.09  73 2.10  66 2.10  82 2.10  81 2.10
  52  0.000  0.500  0.648-  84 2.09  65 2.10  81 2.10  74 2.10  82 2.10
  53  0.250  0.000  0.451-  23 2.10  24 2.10  31 2.10  40 2.10  21 2.10  25 2.11
  54  0.500  0.250  0.451-  23 2.10  24 2.10  32 2.10  39 2.10  22 2.10  26 2.11
  55  0.250  0.250  0.352-  21 2.10  22 2.10  29 2.10  38 2.10  23 2.10
  56  0.500  0.000  0.352-  21 2.10  22 2.10  30 2.10  37 2.10  24 2.10
  57  0.250  1.000  0.650-  35 2.10  27 2.10  44 2.10  28 2.10  25 2.13
  58  0.500  0.250  0.650-  28 2.10  27 2.10  43 2.10  36 2.10  26 2.12
  59  0.250  0.250  0.550-  27 2.09  42 2.10  33 2.10  25 2.10  26 2.10  23 2.11
  60  0.500  0.000  0.549-  28 2.09  41 2.10  25 2.10  26 2.10  34 2.10  24 2.10
[...]
  70  0.000  0.250  0.451-  23 2.10  39 2.10  40 2.10  48 2.10  38 2.10  42 2.11
  71  0.750  0.250  0.352-  22 2.10  37 2.10  38 2.10  45 2.10  39 2.10
  72  0.000  0.000  0.352-  21 2.10  37 2.10  38 2.10  46 2.10  40 2.10
  73  0.750  1.000  0.650-  51 2.10  43 2.10  44 2.10  28 2.10  41 2.13
  74  1.000  0.250  0.650-  44 2.10  43 2.10  27 2.10  52 2.10  42 2.13
  75  0.750  0.250  0.550-  43 2.09  42 2.10  49 2.10  41 2.10  26 2.10  39 2.11
  76  0.000  0.000  0.550-  44 2.09  42 2.10  50 2.10  25 2.10  41 2.10  40 2.11
  77  0.750  0.500  0.451-  32 2.10  39 2.10  47 2.10  48 2.10  45 2.10  49 2.11
  78  0.000  0.750  0.451-  31 2.10  40 2.10  47 2.10  48 2.10  46 2.10  50 2.11
  79  0.750  0.750  0.352-  30 2.10  37 2.10  45 2.10  46 2.10  47 2.10
  80  0.000  0.500  0.352-  29 2.10  38 2.10  45 2.10  46 2.10  48 2.10
  81  0.750  0.500  0.650-  52 2.10  36 2.10  51 2.10  43 2.10  49 2.13
  82  0.000  0.750  0.650-  44 2.10  51 2.10  35 2.10  52 2.10  50 2.13
  83  0.750  0.750  0.550-  51 2.09  50 2.10  49 2.10  41 2.10  34 2.10  47 2.11
  84  0.000  0.500  0.550-  52 2.09  42 2.10  50 2.10  49 2.10  33 2.10  48 2.11

IMPORTANT INFORMATION: All symmetrisations will be switched off!
NOSYMM: (Re-)initialisation of all symmetry stuff for point group C_1.

                                     Primitive cell

  volume of cell :    1504.9259

  direct lattice vectors                    reciprocal lattice vectors
     8.404861995  0.000000000  0.000000000     0.118978753  0.000000000  0.000000000
     0.000000000  8.404861995  0.000000000     0.000000000  0.118978753  0.000000000
     0.000000000  0.000000000 21.303646496     0.000000000  0.000000000  0.046940321

  length of vectors
     8.404861995  8.404861995 21.303646496     0.118978753  0.118978753  0.046940321

  position of ions in fractional coordinates (direct lattice)
     0.500004386  0.499989967  0.791043301
     0.000006392  0.499995011  0.791043301
     0.500006392  0.999995011  0.791043301
     0.000004386  0.999989967  0.791043301
     0.499999825  0.606227586  0.820409750
     0.499999765  0.393785687  0.820406796
     0.606910546  0.500001361  0.761885727
     0.393083231  0.500001337  0.761884491
     0.893768772  0.499990450  0.820409750
     0.106210671  0.499990390  0.820406796
     0.999994997  0.606901171  0.761885727
     0.999995022  0.393073856  0.761884491
     0.393768772  0.999990450  0.820409750
     0.606210671  0.999990390  0.820406796
     0.499994997  0.106901171  0.761885727
     0.499995022  0.893073856  0.761884491
     0.999999825  0.106227586  0.820409750
     0.999999765  0.893785687  0.820406796
     0.106910546  0.000001361  0.761885727
     0.893083231  0.000001337  0.761884491
     0.250000000  0.000000000  0.352052406
     0.500000000  0.250000000  0.352052406
     0.250000000  0.250000000  0.450684135
     0.500000000  0.000000000  0.450684135
     0.250043199  0.999999918  0.549725061
     0.500000085  0.250159571  0.549852836
     0.250051584  0.249754850  0.647552537
     0.500000097  0.999999780  0.647560896
     0.250000000  0.500000000  0.352052406
     0.500000000  0.750000000  0.352052406
     0.250000000  0.750000000  0.450684135
     0.500000000  0.500000000  0.450684135
     0.250169332  0.499999894  0.549858041
     0.500000093  0.749840404  0.549852830
     0.250051899  0.750244941  0.647552425
     0.499999782  0.499999870  0.648412252
     0.750000000  0.000000000  0.352052406
     0.000000000  0.250000000  0.352052406
     0.750000000  0.250000000  0.450684135
     0.000000000  0.000000000  0.450684135
     0.749956456  0.999999939  0.549725121
     0.000000020  0.250038579  0.549757268
     0.749948451  0.249754553  0.647552496
     0.999999867  0.000000162  0.647643108
     0.750000000  0.500000000  0.352052406
     0.000000000  0.750000000  0.352052406
     0.750000000  0.750000000  0.450684135
     0.000000000  0.500000000  0.450684135
     0.749831476  0.499999890  0.549858178
     0.000000032  0.749961254  0.549757188
     0.749948165  0.750245215  0.647552385
     0.000000026  0.499999738  0.647604791
     0.250000000  0.000000000  0.450684135
     0.500000000  0.250000000  0.450684135
     0.250000000  0.250000000  0.352052406
     0.500000000  0.000000000  0.352052406
     0.249909655  0.999999827  0.649710822
     0.499999975  0.249746272  0.649555862
     0.249903387  0.250021089  0.549504847
     0.500000116  0.000000006  0.549435457
[...]
     0.000000000  0.250000000  0.450684135
     0.750000000  0.250000000  0.352052406
     0.000000000  0.000000000  0.352052406
     0.750090209  0.999999879  0.649710738
     0.999999998  0.249934171  0.649755467
     0.750096622  0.250021004  0.549504838
     0.000000002  0.000000075  0.549502891
     0.750000000  0.500000000  0.450684135
     0.000000000  0.750000000  0.450684135
     0.750000000  0.750000000  0.352052406
     0.000000000  0.500000000  0.352052406
     0.750262592  0.499999965  0.649903405
     0.000000014  0.750065601  0.649755421
     0.750096575  0.749978818  0.549504849
     0.000000054  0.499999760  0.549525334

  ion indices of the primitive-cell ions
   primitive index   ion index
                 1           1
                 2           2
                 3           3
                 4           4
                 5           5
                 6           6
                 7           7
                 8           8
                 9           9
[...]
   0.00000045  4.20242898 11.70689345

--------------------------------------- Iteration      FINAL  ---------------------------------------

--------------------OUTCAR has been truncated-------------------------

[...]

--------------------OUTCAR has been truncated-------------------------

  Number of pair interactions contributing to vdW energy: 1248636
  Edisp (eV):   -6.09756

  FORCE on cell =-STRESS in cart. coord.  units (eV):
  Direction    XX          YY          ZZ          XY          YZ          ZX
  Alpha Z   985.69205   985.69205   985.69205
  Ewald  154723.57864154723.55704************     0.00000    -0.02504     0.00441
  Hartree165366.14970165366.13523************     0.00000    -0.00256     0.00062
  E(xc)   -2091.91095 -2091.91097 -2094.85051    -0.00000    -0.00009     0.00002
  Local  ************************329880.36682    -0.00000     0.01964    -0.00377
  n-local -1231.50463 -1231.50432 -1253.85864     0.00000     0.00058    -0.00012
  augment   897.17237   897.17236   887.10881    -0.00000     0.00008    -0.00001
  Kinetic  7750.69160  7750.68991  7788.54510    -0.00000     0.00110     0.00006
  Fock    -2021.86321 -2021.86320 -2018.73051    -0.00000     0.00010    -0.00001
  vdW        -8.36914    -8.36910    -7.98252     0.00000     0.00005    -0.00001
  Total     -31.05854   -31.06162    -2.17937    -0.00000    -0.00615     0.00119
  in kB     -33.06561   -33.06889    -2.32021    -0.00000    -0.00655     0.00126

 VOLUME and BASIS-vectors are now :
  energy-cutoff  :      600.00
  volume of cell :     1504.93
      direct lattice vectors                 reciprocal lattice vectors
     8.404861995  0.000000000  0.000000000     0.118978753  0.000000000  0.000000000
     0.000000000  8.404861995  0.000000000     0.000000000  0.118978753  0.000000000
     0.000000000  0.000000000 21.303646496     0.000000000  0.000000000  0.046940321

  length of vectors
     8.404861995  8.404861995 21.303646496     0.118978753  0.118978753  0.046940321

 FORCES acting on ions:
    Electron-Ion                     Ewald-Force                    Non-Local-Force
   0.276E-02 -.154E-02 -.960E+03   -.392E-02 0.303E-02 0.960E+03   -.152E-02 0.197E-02 0.253E-01
   0.228E-02 0.945E-03 -.960E+03   -.384E-02 -.219E-02 0.960E+03   -.204E-02 -.129E-02 0.232E-01
   0.200E-02 0.759E-03 -.960E+03   -.335E-02 -.196E-02 0.960E+03   -.178E-02 -.124E-02 0.280E-01
   0.226E-02 -.190E-02 -.960E+03   -.315E-02 0.355E-02 0.960E+03   -.116E-02 0.219E-02 0.267E-01
   0.155E-02 -.379E+02 -.244E+03   -.166E-02 0.426E+02 0.247E+03   0.224E-03 -.458E+01 -.319E+01
   0.160E-02 0.379E+02 -.244E+03   -.170E-02 -.426E+02 0.247E+03   0.230E-03 0.458E+01 -.319E+01
   -.381E+02 -.169E-02 -.236E+03   0.429E+02 0.183E-02 0.233E+03   -.467E+01 -.290E-03 0.310E+01
   0.381E+02 -.170E-02 -.236E+03   -.429E+02 0.184E-02 0.233E+03   0.467E+01 -.290E-03 0.310E+01
   0.379E+02 0.117E-02 -.244E+03   -.426E+02 -.127E-02 0.247E+03   0.458E+01 0.209E-03 -.319E+01
   -.379E+02 0.119E-02 -.244E+03   0.426E+02 -.129E-02 0.247E+03   -.459E+01 0.212E-03 -.319E+01
   0.194E-02 -.381E+02 -.236E+03   -.208E-02 0.429E+02 0.233E+03   0.309E-03 -.467E+01 0.310E+01
   0.193E-02 0.381E+02 -.236E+03   -.208E-02 -.429E+02 0.233E+03   0.308E-03 0.467E+01 0.310E+01
   0.379E+02 0.108E-02 -.244E+03   -.426E+02 -.117E-02 0.247E+03   0.458E+01 0.199E-03 -.319E+01
   -.379E+02 0.112E-02 -.244E+03   0.426E+02 -.121E-02 0.247E+03   -.459E+01 0.205E-03 -.319E+01
   0.170E-02 -.381E+02 -.236E+03   -.182E-02 0.429E+02 0.233E+03   0.269E-03 -.467E+01 0.310E+01
   0.170E-02 0.381E+02 -.236E+03   -.183E-02 -.429E+02 0.233E+03   0.269E-03 0.467E+01 0.310E+01
   0.120E-02 -.379E+02 -.244E+03   -.127E-02 0.426E+02 0.247E+03   0.171E-03 -.458E+01 -.319E+01
   0.121E-02 0.379E+02 -.244E+03   -.129E-02 -.426E+02 0.247E+03   0.173E-03 0.459E+01 -.319E+01
   -.381E+02 -.198E-02 -.236E+03   0.429E+02 0.214E-02 0.233E+03   -.467E+01 -.330E-03 0.310E+01
   0.381E+02 -.197E-02 -.236E+03   -.429E+02 0.212E-02 0.233E+03   0.467E+01 -.328E-03 0.310E+01
   -.606E-02 0.175E-06 0.213E+04   0.648E-02 -.612E-06 -.212E+04   -.267E-03 0.836E-06 -.641E+01
   0.181E-05 -.147E-01 0.213E+04   -.122E-05 0.151E-01 -.212E+04   0.329E-06 -.294E-03 -.641E+01
   -.146E-01 -.620E-01 0.797E+03   0.184E-01 0.665E-01 -.798E+03   -.248E-02 -.291E-02 0.400E+00
   0.328E-04 0.105E-04 0.797E+03   -.247E-04 -.129E-04 -.797E+03   -.510E-05 0.160E-05 0.387E+00
   -.697E-01 0.979E-05 -.527E+03   0.744E-01 -.170E-04 0.528E+03   -.118E-02 0.351E-05 -.254E+00
   -.120E-04 -.588E-01 -.528E+03   0.154E-04 0.622E-01 0.528E+03   -.234E-05 -.398E-02 -.249E+00
   -.201E-01 -.311E-03 -.185E+04   0.221E-01 -.581E-02 0.184E+04   -.183E-03 0.534E-02 0.567E+01
   -.544E-03 -.130E-02 -.183E+04   0.608E-03 0.128E-02 0.183E+04   -.358E-04 0.116E-04 0.551E+01
   -.500E-02 0.339E-06 0.213E+04   0.540E-02 0.644E-06 -.212E+04   -.258E-03 -.161E-06 -.641E+01
   0.339E-05 0.147E-01 0.213E+04   -.331E-05 -.151E-01 -.212E+04   0.138E-05 0.294E-03 -.641E+01
   -.147E-01 0.619E-01 0.797E+03   0.185E-01 -.665E-01 -.798E+03   -.247E-02 0.291E-02 0.400E+00
   0.160E-05 -.261E-04 0.797E+03   -.290E-06 0.175E-04 -.797E+03   -.185E-06 0.616E-05 0.398E+00
   -.253E-01 -.590E-04 -.528E+03   0.340E-01 0.699E-04 0.528E+03   -.462E-02 -.718E-05 -.246E+00
   0.147E-03 0.588E-01 -.528E+03   -.167E-03 -.622E-01 0.528E+03   0.124E-04 0.398E-02 -.249E+00
   -.192E-01 0.100E-02 -.185E+04   0.211E-01 0.515E-02 0.184E+04   -.103E-03 -.536E-02 0.567E+01
   0.411E-03 0.674E-03 -.183E+04   -.485E-03 -.682E-03 0.183E+04   0.380E-04 -.558E-05 0.550E+01
   0.607E-02 -.714E-06 0.213E+04   -.648E-02 0.136E-05 -.212E+04   0.267E-03 0.906E-07 -.641E+01
   -.180E-05 -.157E-01 0.213E+04   0.121E-05 0.162E-01 -.212E+04   -.210E-06 -.325E-03 -.641E+01
   0.147E-01 -.620E-01 0.797E+03   -.184E-01 0.665E-01 -.798E+03   0.247E-02 -.290E-02 0.400E+00
   -.425E-04 -.214E-04 0.797E+03   0.429E-04 0.145E-04 -.798E+03   -.605E-07 0.555E-05 0.384E+00
   0.699E-01 -.888E-05 -.527E+03   -.745E-01 0.207E-04 0.528E+03   0.117E-02 -.809E-05 -.254E+00
   -.487E-04 0.138E-01 -.528E+03   0.410E-04 -.526E-02 0.528E+03   0.249E-05 -.854E-02 -.251E+00
   0.206E-01 0.420E-03 -.185E+04   -.226E-01 -.663E-02 0.184E+04   0.161E-03 0.539E-02 0.567E+01
   0.486E-03 0.526E-03 -.183E+04   -.531E-03 -.538E-03 0.183E+04   0.163E-04 -.302E-05 0.550E+01
   0.500E-02 0.313E-06 0.213E+04   -.540E-02 -.149E-05 -.212E+04   0.257E-03 0.115E-06 -.641E+01
   -.172E-05 0.157E-01 0.213E+04   0.327E-05 -.162E-01 -.212E+04   -.197E-06 0.324E-03 -.641E+01
   0.147E-01 0.620E-01 0.797E+03   -.185E-01 -.665E-01 -.798E+03   0.247E-02 0.291E-02 0.400E+00
   0.158E-04 0.840E-05 0.797E+03   -.115E-04 -.128E-04 -.797E+03   -.275E-05 0.130E-05 0.399E+00
   0.253E-01 0.765E-04 -.528E+03   -.340E-01 -.852E-04 0.528E+03   0.463E-02 0.602E-05 -.246E+00
   -.772E-04 -.138E-01 -.528E+03   0.821E-04 0.530E-02 0.528E+03   -.394E-05 0.855E-02 -.251E+00
   0.188E-01 -.323E-03 -.185E+04   -.208E-01 0.654E-02 0.184E+04   0.148E-03 -.538E-02 0.567E+01
   -.789E-03 -.117E-02 -.183E+04   0.831E-03 0.116E-02 0.183E+04   -.167E-04 0.708E-05 0.550E+01
   -.260E-01 -.522E-05 0.598E+03   0.273E-01 0.104E-04 -.597E+03   -.144E-02 -.562E-05 -.824E-01
   0.886E-05 -.423E-01 0.597E+03   -.128E-04 0.412E-01 -.597E+03   0.512E-05 0.134E-02 -.889E-01
   -.380E-02 -.114E-01 0.160E+04   0.430E-02 0.120E-01 -.160E+04   -.623E-03 -.653E-03 0.312E+01
   0.324E-05 0.985E-06 0.160E+04   -.271E-05 -.908E-06 -.160E+04   -.106E-06 -.378E-06 0.312E+01
   -.651E+00 -.369E-03 -.140E+04   0.685E+00 0.359E-03 0.141E+04   -.297E-01 0.163E-04 -.462E+01
   -.199E-03 -.684E+00 -.140E+04   0.218E-03 0.715E+00 0.141E+04   -.192E-04 -.236E-01 -.462E+01
   0.150E-01 -.217E-01 -.389E+03   -.125E-01 0.174E-01 0.388E+03   -.515E-02 0.348E-02 0.415E+00
   -.359E-04 -.401E-04 -.391E+03   0.551E-04 0.342E-04 0.391E+03   -.243E-04 0.348E-05 0.157E+00
[...]
   0.380E-02 -.115E-01 0.160E+04   -.430E-02 0.120E-01 -.160E+04   0.623E-03 -.652E-03 0.312E+01
   -.498E-05 -.112E-05 0.160E+04   0.341E-05 0.107E-05 -.160E+04   0.400E-06 0.194E-06 0.312E+01
   0.651E+00 -.484E-04 -.140E+04   -.685E+00 0.102E-04 0.141E+04   0.297E-01 0.382E-04 -.462E+01
   -.306E-03 0.686E+00 -.140E+04   0.330E-03 -.713E+00 0.141E+04   -.214E-04 0.220E-01 -.462E+01
   -.150E-01 -.217E-01 -.389E+03   0.125E-01 0.174E-01 0.388E+03   0.514E-02 0.349E-02 0.415E+00
   -.132E-03 0.101E-03 -.391E+03   0.141E-03 -.995E-04 0.391E+03   -.361E-05 0.544E-07 0.162E+00
   0.167E-01 -.805E-06 0.597E+03   -.182E-01 0.628E-05 -.597E+03   0.192E-02 -.659E-05 -.910E-01
   -.381E-05 0.461E-01 0.598E+03   -.106E-06 -.441E-01 -.597E+03   0.477E-05 -.250E-02 -.828E-01
   0.380E-02 0.115E-01 0.160E+04   -.430E-02 -.120E-01 -.160E+04   0.623E-03 0.652E-03 0.312E+01
   0.782E-06 0.215E-05 0.160E+04   0.362E-06 -.144E-05 -.160E+04   -.240E-06 -.661E-06 0.312E+01
   -.637E+00 -.148E-04 -.140E+04   0.664E+00 -.194E-04 0.141E+04   -.204E-01 0.362E-04 -.463E+01
   0.189E-03 -.685E+00 -.140E+04   -.213E-03 0.713E+00 0.141E+04   0.169E-04 -.221E-01 -.462E+01
   -.151E-01 0.217E-01 -.389E+03   0.127E-01 -.174E-01 0.388E+03   0.514E-02 -.349E-02 0.415E+00
   -.945E-04 -.433E-04 -.391E+03   0.997E-04 0.380E-04 0.391E+03   -.689E-05 0.323E-05 0.152E+00
   0.986E-02 -.223E-02 0.188E+02   0.156E-12 -.227E-12 -.682E-12   -.912E-02 0.208E-02 -.166E+02

 POSITION                                       TOTAL-FORCE (eV/Angst)
      4.20246      4.20240     16.85373        -0.002746      0.003551      0.000708
      0.00000      4.20238     16.85377        -0.003686     -0.002589     -0.002150
      4.20243     -0.00005     16.85370        -0.003210     -0.002496      0.000462
      0.00002     -0.00004     16.85371        -0.002095      0.003946     -0.000360
      4.20243      5.09612     17.47830         0.000130     -0.003015      0.002971
      4.20243      3.30882     17.47827         0.000134     -0.000232      0.004999
      5.10117      4.20245     16.23283        -0.001133     -0.000165      0.004528
      3.30365      4.20245     16.23281         0.003657     -0.000163      0.006053
      7.51127      4.20235     17.47831        -0.000482      0.000120      0.004883
      0.89346      4.20235     17.47828         0.003889      0.000123      0.007014
      8.40482      5.10103     16.23287         0.000174     -0.000049      0.004023
      8.40482      3.30363     16.23285         0.000173      0.002447      0.005463
      3.30890      8.40478     17.47832        -0.001069      0.000116      0.004715
      5.09584      8.40478     17.47830         0.004038      0.000121      0.006575
      4.20239      0.89850     16.23278         0.000151      0.001900      0.002999
      4.20238      7.50617     16.23276         0.000149      0.000411      0.004384
     -0.00001      0.89353     17.47830         0.000100      0.000509      0.004745
     -0.00001      7.51140     17.47827         0.000098     -0.004121      0.006997
      0.89862      0.00002     16.23280         0.000769     -0.000188      0.003172
      7.50620      0.00002     16.23279         0.001168     -0.000186      0.004344
      2.10122      0.00000      7.50000         0.000139      0.000001      0.405327
      4.20243      2.10122      7.50000        -0.000002      0.000153      0.405723
      2.10122      2.10122      9.60122         0.001008      0.001259      0.027656
      4.20243      0.00000      9.60122        -0.000001     -0.000000      0.040224
      2.10106      8.40486     11.71244         0.003417     -0.000003      0.004222
      4.20243      2.10140     11.71295        -0.000002     -0.000669      0.003892
      2.10111      2.10107     13.78624         0.001601     -0.000384      0.000733
      4.20243      8.40486     13.80657         0.000022     -0.000010     -0.000150
      2.10122      4.20243      7.50000         0.000084      0.000001      0.405730
      4.20243      6.30365      7.50000        -0.000001     -0.000152      0.405723
      2.10122      6.30365      9.60122         0.001009     -0.001261      0.027659
      4.20243      4.20243      9.60122        -0.000002     -0.000001      0.041432
      2.10116      4.20243     11.71337         0.003769      0.000004      0.001964
      4.20243      6.30346     11.71295        -0.000008      0.000672      0.003891
      2.10111      6.30379     13.78624         0.001610      0.000387      0.000720
      4.20243      4.20243     13.80824        -0.000034     -0.000014     -0.003088
      6.30365      0.00000      7.50000        -0.000143      0.000001      0.405327
      0.00000      2.10122      7.50000        -0.000004      0.000104      0.405280
      6.30365      2.10122      9.60122        -0.001012      0.001259      0.027659
      0.00000      0.00000      9.60122        -0.000003     -0.000000      0.038010
      6.30381      8.40486     11.71244        -0.003437      0.000003      0.004230
      0.00000      2.10152     11.71269        -0.000007     -0.000735      0.002705
      6.30376      2.10107     13.78624        -0.001618     -0.000414      0.000728
      0.00000     -0.00000     13.80617        -0.000030     -0.000016      0.004129
      6.30365      4.20243      7.50000        -0.000092     -0.000000      0.405732
      0.00000      6.30365      7.50000        -0.000002     -0.000104      0.405280
      6.30365      6.30365      9.60122        -0.001011     -0.001259      0.027656
      0.00000      4.20243      9.60122        -0.000002     -0.000002      0.039610
      6.30370      4.20243     11.71337        -0.003769     -0.000001      0.001942
      0.00000      6.30334     11.71269        -0.000002      0.000738      0.002706
      6.30376      6.30379     13.78623        -0.001600      0.000434      0.000743
      0.00000      4.20243     13.80785         0.000021     -0.000010     -0.000061
      2.10122      0.00000      9.60122        -0.000322     -0.000001      0.046943
      4.20243      2.10122      9.60122        -0.000001      0.000472      0.047298
      2.10122      2.10122      7.50000        -0.000206     -0.000212     -0.494313
      4.20243      0.00000      7.50000        -0.000003      0.000000     -0.494506
      2.10078     -0.00000     13.84056        -0.001986      0.000010      0.001549
      4.20243      2.10055     13.84167        -0.000006      0.001750     -0.001845
      2.10145      2.10142     11.70564        -0.003522     -0.000442     -0.004298
      4.20243     -0.00000     11.70790        -0.000011     -0.000002     -0.005394
[...]
      0.00000      2.10122      9.60122        -0.000001      0.000842      0.048111
      6.30365      2.10122      7.50000         0.000201     -0.000212     -0.494316
      0.00000      0.00000      7.50000        -0.000004      0.000001     -0.494272
      6.30408     -0.00000     13.84056         0.001984      0.000005      0.001511
      0.00000      2.10150     13.84109        -0.000004      0.000353     -0.000640
      6.30341      2.10141     11.70564         0.003512     -0.000434     -0.004300
      0.00000     -0.00000     11.70746         0.000003      0.000002     -0.001699
      6.30365      4.20243      9.60122         0.000598     -0.000001      0.048750
      0.00000      6.30365      9.60122        -0.000001     -0.000845      0.048109
      6.30365      6.30365      7.50000         0.000200      0.000213     -0.494310
      0.00000      4.20243      7.50000        -0.000002      0.000000     -0.494469
      6.30328      4.20243     13.84236         0.000424      0.000007     -0.004763
      0.00000      6.30336     13.84109        -0.000009     -0.000380     -0.000641
      6.30341      6.30345     11.70564         0.003510      0.000437     -0.004302
      0.00000      4.20243     11.70844        -0.000006     -0.000001     -0.005780
    total drift:                                0.000247     -0.000049      0.011507

  FREE ENERGIE OF THE ION-ELECTRON SYSTEM (eV)
  free  energy   TOTEN  =      -549.27331209 eV

  energy  without entropy=     -549.27331209  energy(sigma->0) =     -549.27331209

 d Force = 0.3261991E-04[ 0.104E-05, 0.642E-04]  d Energy = 0.4222411E-04-0.960E-05
 d Force = 0.1193687E+01[ 0.119E+01, 0.119E+01]  d Ewald  = 0.1193693E+01-0.660E-05

 Conjugate gradient step on ions:
 trial-energy change:   -0.000042  1 .order   -0.000033   -0.000064   -0.000001
  (g-gl).g = 0.111E-03      g.g   = 0.113E-03  gl.gl    = 0.123E-03
 g(Force)  = 0.113E-03   g(Stress)= 0.000E+00 ortho     = 0.404E-05
 gamma     =   0.90086
 trial     =   0.54883
 opt step  =   0.55356  (harmonic =   0.55791) maximal distance =0.00045747
 next E    =  -549.273312   (d E  =  -0.00004)

 reached required accuracy - stopping structural energy minimisation