 vasp.6.3.0 20Jan22 (build Apr  1 2022 16:44:48) gamma-only
 executed on        HPECrayEX_GCC date 2023.03.08  20:00:28

 INCAR:
   SYSTEM = MgO-rocksalt
   ISMEAR = 0
   SIGMA = 0.05
   EDIFF = 1E-7
   ALGO = ALL
   ISTART = 0
   IBRION = 2
   NSW = 1000
   ISYM = 0
   ISIF = 2
   EDIFFG = -0.02
   DIPOL = 0.5 0.5 0.5
   IDIPOL = 3
   LDIPOL = .TRUE.
   LHFCALC = .TRUE.
   GGA = PE
   IVDW = 13
   VDW_S8 = 1.2007
   VDW_A1 = 0.4009
   VDW_A2 = 5.0293
   ENCUT = 520
   PREC = Accurate
   LASPH = .TRUE.
   LREAL = Auto
   ISPIN = 1
   NELM = 200
   NELMIN = 8
   NCORE = 8
   KPAR = 1
   LWAVE = .FALSE.
   LCHARG = .FALSE.

 POTCAR:    PAW_PBE C 08Apr2002
 POTCAR:    PAW_PBE H 15Jun2001
 POTCAR:    PAW_PBE Mg 13Apr2007
 POTCAR:    PAW_PBE O 08Apr2002
 POTCAR:    PAW_PBE C 08Apr2002
   VRHFIN =C: s2p2

   TITEL  = PAW_PBE C 08Apr2002
   POMASS =   12.011; ZVAL   =    4.000    mass and valenz
   ENMAX  =  400.000; ENMIN  =  300.000 eV

   TITEL  = PAW_PBE H 15Jun2001
   POMASS =    1.000; ZVAL   =    1.000    mass and valenz
   ENMAX  =  250.000; ENMIN  =  200.000 eV

[...]

   TITEL  = PAW_PBE O 08Apr2002
   POMASS =   16.000; ZVAL   =    6.000    mass and valenz
   ENMAX  =  400.000; ENMIN  =  300.000 eV

 Optimization of the real space projectors (new method)

 maximal supplied QI-value         = 25.13
 optimisation between [QCUT,QGAM] = [ 11.56, 23.12] = [ 37.43,149.72] Ry
 Optimized for a Real-space Cutoff    1.04 Angstroem

   l    n(q)    QCUT    max X(q) W(low)/X(q) W(high)/X(q)  e(spline)
   0      7    11.561   115.676    0.20E-03    0.60E-03    0.21E-06
   0      7    11.561    87.132    0.20E-03    0.59E-03    0.21E-06
   1      7    11.561     4.429    0.23E-03    0.35E-03    0.15E-06
   1      7    11.561     2.733    0.18E-03    0.25E-03    0.12E-06
 Optimization of the real space projectors (new method)

[...]

   l    n(q)    QCUT    max X(q) W(low)/X(q) W(high)/X(q)  e(spline)
   0      9    11.527    28.265    0.62E-04    0.53E-04    0.73E-07
   0      9    11.527    10.429    0.52E-04    0.40E-04    0.58E-07
   1      8    11.527    13.073    0.98E-04    0.18E-03    0.86E-07
   1      8    11.527     9.625    0.79E-04    0.15E-03    0.74E-07
   2      8    11.527     4.652    0.22E-03    0.72E-04    0.47E-07
 Optimization of the real space projectors (new method)

 maximal supplied QI-value         = 24.76
 optimisation between [QCUT,QGAM] = [ 11.64, 23.27] = [ 37.91,151.63] Ry
 Optimized for a Real-space Cutoff    1.14 Angstroem

   l    n(q)    QCUT    max X(q) W(low)/X(q) W(high)/X(q)  e(spline)
   0      8    11.635    20.381    0.10E-03    0.33E-03    0.24E-06
   0      8    11.635    15.268    0.11E-03    0.35E-03    0.26E-06
   1      7    11.635     5.964    0.24E-03    0.31E-03    0.30E-06
   1      7    11.635     5.382    0.22E-03    0.25E-03    0.26E-06
  PAW_PBE C 08Apr2002                   :
  PAW_PBE H 15Jun2001                   :
  PAW_PBE Mg 13Apr2007                  :
  PAW_PBE O 08Apr2002                   :

 POSCAR:  C  H Mg  O
  positions in direct lattice
  velocities in cartesian coordinates
|           W    W    AA    RRRRR   N    N  II  N    N   GGGG   !!!           |
|           W    W   A  A   R    R  NN   N  II  NN   N  G    G  !!!           |
|           W    W  A    A  R    R  N N  N  II  N N  N  G       !!!           |
|           W WW W  AAAAAA  RRRRR   N  N N  II  N  N N  G  GGG   !            |
|           WW  WW  A    A  R   R   N   NN  II  N   NN  G    G                |
|           W    W  A    A  R    R  N    N  II  N    N   GGGG   !!!           |
|     Specifying the vdW parameters                                           |
|     VDW_S8 = 1.201                                                          |
|     VDW_A1 = 0.401                                                          |
|     VDW_A2 = 5.029                                                          |
|     in the INCAR file will overwrite the defaults for pbe0. Please make     |
|     sure that is what you intended.                                         |

 ion  position               nearest neighbor table
   1  0.478  0.466  0.793-   7 1.08   2 1.39   6 1.39
   2  0.560  0.456  0.791-   8 1.08   1 1.39   3 1.39
   3  0.593  0.380  0.793-   9 1.08   4 1.39   2 1.39
   4  0.543  0.313  0.796-  10 1.08   3 1.39   5 1.39
   5  0.461  0.323  0.798-  11 1.08   6 1.39   4 1.39
   6  0.428  0.400  0.796-  12 1.08   5 1.39   1 1.39
   7  0.452  0.526  0.792-   1 1.08
   8  0.599  0.508  0.789-   2 1.08
   9  0.657  0.372  0.792-   3 1.08
  10  0.569  0.254  0.797-   4 1.08
  11  0.422  0.271  0.800-   5 1.08
  12  0.364  0.408  0.797-   6 1.08
  13  0.125  0.000  0.353- 143 2.09 144 2.09 160 2.09 183 2.09 141 2.09  30 2.95  54 2.95  70 2.95
                            14 2.95  16 2.95  55 2.95  15 2.95  32 2.95
  14  0.250  0.125  0.353- 143 2.09 144 2.09 152 2.09 159 2.09 142 2.09  21 2.95  29 2.95  37 2.95
                            13 2.95  16 2.95  31 2.95  15 2.95  24 2.95
  15  0.125  0.125  0.451- 141 2.09 142 2.09 149 2.09 158 2.09 143 2.09 147 2.09  32 2.95  40 2.95
                            16 2.95  24 2.95  13 2.95  21 2.95  14 2.95  30 2.95  17 2.96  34 2.96
  16  0.250  0.000  0.451- 141 2.09 142 2.09 157 2.09 182 2.09 144 2.09 148 2.09  55 2.95  71 2.95
                            15 2.95  31 2.95  13 2.95  29 2.95  14 2.95  54 2.95  17 2.96  33 2.96
  17  0.125  0.000  0.549- 148 2.09 147 2.09 164 2.09 187 2.09 141 2.09 145 2.12  59 2.94  36 2.94
                            19 2.94  20 2.94  58 2.95  34 2.95  18 2.95  74 2.95  16 2.96  15 2.96
  18  0.250  0.125  0.549- 163 2.09 156 2.09 147 2.09 148 2.09 142 2.10 146 2.12  35 2.94  19 2.94
                            28 2.94  20 2.94  25 2.95  33 2.95  17 2.95  41 2.95  31 2.96  24 2.96
  19  0.125  0.125  0.647- 147 2.07 146 2.09 153 2.09 145 2.09 162 2.09  25 2.94  18 2.94  17 2.94
                            34 2.94  20 2.95  44 2.95  36 2.95  28 2.95
  20  0.250  0.000  0.647- 148 2.08 146 2.09 161 2.09 186 2.09 145 2.09  33 2.94  18 2.94  17 2.94
                            58 2.94  19 2.95  75 2.95  59 2.95  35 2.95
  21  0.125  0.250  0.353- 143 2.09 151 2.09 152 2.09 168 2.09 149 2.09  22 2.95  30 2.95  38 2.95
                            14 2.95  15 2.95  23 2.95  40 2.95  24 2.95
  22  0.250  0.375  0.353- 151 2.09 152 2.09 167 2.09 176 2.09 150 2.09  37 2.95  45 2.95  61 2.95
                            21 2.95  24 2.95  48 2.95  23 2.95  39 2.95
  23  0.125  0.375  0.451- 149 2.09 150 2.09 166 2.09 173 2.09 151 2.09 155 2.09  48 2.95  64 2.95
                            24 2.95  40 2.95  21 2.95  38 2.95  22 2.95  45 2.95  49 2.96  42 2.96
  24  0.250  0.250  0.451- 142 2.09 149 2.09 150 2.09 165 2.09 152 2.09 156 2.09  31 2.95  39 2.95
                            15 2.95  23 2.95  37 2.95  22 2.95  14 2.95  21 2.95  25 2.96  18 2.96
  25  0.125  0.250  0.549- 156 2.09 155 2.09 147 2.09 172 2.09 149 2.10 153 2.12  19 2.94  27 2.94
                            44 2.94  28 2.94  18 2.95  42 2.95  34 2.95  26 2.95  24 2.96  23 2.96
  26  0.250  0.375  0.549- 171 2.08 156 2.09 180 2.09 155 2.09 150 2.10 154 2.12  52 2.94  28 2.94
                            27 2.94  43 2.95  41 2.95  65 2.95  25 2.95  49 2.95  39 2.96  24 2.96
  27  0.125  0.375  0.647- 155 2.07 177 2.09 153 2.09 170 2.09 154 2.09  25 2.94  49 2.94  42 2.94
                            26 2.94  28 2.95  52 2.95  68 2.95  44 2.95
  28  0.250  0.250  0.647- 156 2.07 169 2.09 154 2.09 146 2.09 153 2.09  26 2.94  41 2.94  18 2.94
                            25 2.94  35 2.95  27 2.95  19 2.95  43 2.96
  29  0.375  0.000  0.353- 144 2.09 159 2.09 199 2.09 224 2.09 157 2.09  54 2.95  94 2.95 134 2.95
                            14 2.95  31 2.95  96 2.95  16 2.95  71 2.95
  30  0.000  0.125  0.353- 143 2.09 160 2.09 168 2.09 223 2.09 158 2.09  21 2.95  93 2.95 101 2.95
                            13 2.95  15 2.95  95 2.95  32 2.95  40 2.95
  31  0.375  0.125  0.451- 142 2.09 157 2.09 165 2.09 222 2.09 159 2.09 163 2.09  96 2.95 104 2.95
                            16 2.95  24 2.95  14 2.95  29 2.95  37 2.95  94 2.95  18 2.96  98 2.96
  32  0.000  0.000  0.451- 141 2.09 158 2.09 198 2.09 221 2.09 160 2.09 164 2.09  95 2.95 135 2.95
                            15 2.95  55 2.95  30 2.95  13 2.95  70 2.95  93 2.95  74 2.96  17 2.96
  33  0.375  0.000  0.549- 163 2.09 228 2.09 148 2.09 203 2.09 157 2.10 161 2.12 100 2.94  20 2.94
                            35 2.94  75 2.94  18 2.95  58 2.95 138 2.95  98 2.95  31 2.96  16 2.96
  34  1.000  0.125  0.549- 172 2.09 147 2.09 227 2.09 164 2.09 158 2.10 162 2.12  36 2.94  44 2.94
                            99 2.94  19 2.94 105 2.95  25 2.95  97 2.95  17 2.95  40 2.96  95 2.96
  35  0.375  0.125  0.647- 163 2.07 169 2.09 226 2.09 146 2.09 161 2.09  98 2.94  41 2.94  18 2.94
                            33 2.94  28 2.95 100 2.95  20 2.95 108 2.96
  36  1.000  0.000  0.647- 164 2.07 225 2.09 162 2.09 145 2.09 202 2.09  97 2.94  34 2.94  17 2.94
                            74 2.94  59 2.95 139 2.95  99 2.95  19 2.95
  37  0.375  0.250  0.353- 152 2.09 159 2.09 167 2.09 232 2.09 165 2.09  22 2.95  94 2.95 102 2.95
                            14 2.95  24 2.95  31 2.95 104 2.95  39 2.95
  38  0.000  0.375  0.353- 151 2.09 168 2.09 192 2.09 231 2.09 166 2.09  45 2.95 101 2.95 125 2.95
                            21 2.95  40 2.95 103 2.95  23 2.95  64 2.95
  39  0.375  0.375  0.451- 171 2.09 165 2.09 150 2.09 189 2.09 230 2.09 167 2.09 104 2.95 128 2.95
                            24 2.95  48 2.95  37 2.95  22 2.95  61 2.95 102 2.95 106 2.96  41 2.96
  40  0.000  0.250  0.451- 149 2.09 158 2.09 166 2.09 229 2.09 168 2.09 172 2.09  95 2.95 103 2.95
                            15 2.95  23 2.95 101 2.95  30 2.95  38 2.95  21 2.95  34 2.96  42 2.96
  41  0.375  0.250  0.549- 171 2.08 236 2.09 156 2.09 163 2.09 165 2.10 169 2.12  35 2.94  28 2.94
                           108 2.94  43 2.94  26 2.95 106 2.95  98 2.95  18 2.95  39 2.96 104 2.96
  42  1.000  0.375  0.549- 172 2.09 196 2.09 155 2.09 235 2.09 166 2.10 170 2.12  68 2.94  44 2.94
                           107 2.94  27 2.94 105 2.95  25 2.95 129 2.95  49 2.95  40 2.96 103 2.96
  43  0.376  0.375  0.647- 234 2.08 171 2.08 193 2.09 169 2.09 154 2.10 132 2.94 106 2.94 108 2.94
                            65 2.94  41 2.94  26 2.95  52 2.96  28 2.96
  44  1.000  0.250  0.647- 172 2.08 170 2.09 162 2.09 153 2.09 233 2.09  42 2.94  34 2.94  25 2.94
                           105 2.94  19 2.95  99 2.95  27 2.95 107 2.95
  45  0.125  0.500  0.353- 151 2.09 175 2.09 176 2.09 192 2.09 173 2.09  38 2.95  46 2.95  62 2.95
                            22 2.95  48 2.95  23 2.95  64 2.95  47 2.95
  46  0.250  0.625  0.353- 175 2.09 176 2.09 184 2.09 191 2.09 174 2.09  53 2.95  61 2.95  69 2.95
                            45 2.95  48 2.95  63 2.95  47 2.95  56 2.95
  47  0.125  0.625  0.451- 173 2.09 174 2.09 181 2.09 190 2.09 175 2.09 179 2.09  64 2.95  72 2.95
                            48 2.95  56 2.95  45 2.95  53 2.95  46 2.95  62 2.95  66 2.96  57 2.96
  48  0.250  0.500  0.451- 150 2.09 173 2.09 174 2.09 189 2.09 176 2.09 180 2.09  47 2.95  63 2.95
[...]
   2.08747045 12.52345308 11.68232709
   4.17469787 14.61068524 11.68259352
   2.08715114 14.61088746 13.75019069
   4.17453433 12.52317589 13.75156128
[...]
   8.34911183 10.43638978  9.58727796
  14.61094570 10.43638978  7.50000000
   8.34911183  8.34911183  7.50000000
  14.61088301  8.34901702 13.80067881
   8.34888663 10.43530300 13.80848490
  14.61104777 10.43652919 11.67574474
   8.34863928  8.35447652 11.67312910
  14.61094570 12.52366774  9.58727796
   8.34911183 14.61094570  9.58727796
  14.61094570 14.61094570  7.50000000
   8.34911183 12.52366774  7.50000000
  14.61131878 12.52365221 13.80092766
   8.34897530 14.61057115 13.80133142
  14.61066682 14.61084509 11.67544789
   8.34882620 12.52301254 11.67701547

--------------------------------------- Iteration      FINAL  ---------------------------------------

--------------------OUTCAR has been truncated-------------------------

[...]

--------------------OUTCAR has been truncated-------------------------

  FORCE on cell =-STRESS in cart. coord.  units (eV):
  Direction    XX          YY          ZZ          XY          YZ          ZX
  Alpha Z  1063.62054  1063.62054  1063.62054
  Ewald  209900.10801209898.35671************    -1.18722   -55.26813   -42.49413
  Hartree224903.65145224902.66681************    -0.51952   -32.39260   -24.79652
  E(xc)   -3607.33245 -3607.33713 -3602.53863    -0.00108    -0.05076    -0.04140
  Local  ************************437682.44860     1.55589    85.51924    65.65973
  n-local -1742.62125 -1742.62955 -1826.46739     0.00358     0.16743     0.12251
  augment   817.02883   817.02948   824.63188     0.00001    -0.00310    -0.00136
  Kinetic 18509.36195 18509.52489 18736.26106     0.12953     1.80336     1.39446
  Fock    -1789.31054 -1789.30602 -1776.67278     0.00558     0.13844     0.10568
  vdW       -36.97217   -36.97263   -25.94135     0.00006     0.00272     0.00194
  Total    -120.97274  -120.99133     1.21118    -0.01317    -0.08342    -0.04910
  in kB     -32.69315   -32.69818     0.32732    -0.00356    -0.02254    -0.01327

 VOLUME and BASIS-vectors are now :
  energy-cutoff  :      520.00
  volume of cell :     5928.45
      direct lattice vectors                 reciprocal lattice vectors
    16.698223653  0.000000000  0.000000000     0.059886610  0.000000000  0.000000000
     0.000000000 16.698223653  0.000000000     0.000000000  0.059886610  0.000000000
     0.000000000  0.000000000 21.261833870     0.000000000  0.000000000  0.047032632

  length of vectors
    16.698223653 16.698223653 21.261833870     0.059886610  0.059886610  0.047032632

 FORCES acting on ions:
    Electron-Ion                     Ewald-Force                    Non-Local-Force
   0.702E+02 -.165E+03 -.546E+03   -.707E+02 0.166E+03 0.546E+03   0.445E+00 -.801E+00 -.116E+00
   -.107E+03 -.143E+03 -.546E+03   0.108E+03 0.144E+03 0.547E+03   -.686E+00 -.829E+00 -.970E-01
   -.178E+03 0.214E+02 -.545E+03   0.179E+03 -.215E+02 0.545E+03   -.798E+00 0.125E+00 -.683E-01
   -.700E+02 0.165E+03 -.547E+03   0.704E+02 -.166E+03 0.547E+03   -.371E+00 0.809E+00 -.923E-01
   0.107E+03 0.143E+03 -.547E+03   -.108E+03 -.144E+03 0.547E+03   0.593E+00 0.739E+00 -.136E+00
   0.178E+03 -.216E+02 -.546E+03   -.179E+03 0.217E+02 0.546E+03   0.760E+00 -.109E+00 -.437E-01
   0.315E+02 -.736E+02 -.137E+03   -.338E+02 0.791E+02 0.136E+03   0.225E+01 -.523E+01 0.139E+00
   -.480E+02 -.641E+02 -.137E+03   0.516E+02 0.689E+02 0.136E+03   -.345E+01 -.456E+01 0.353E+00
   -.793E+02 0.956E+01 -.136E+03   0.852E+02 -.103E+02 0.136E+03   -.564E+01 0.676E+00 0.127E+00
   -.315E+02 0.736E+02 -.137E+03   0.339E+02 -.791E+02 0.137E+03   -.228E+01 0.523E+01 -.103E+00
   0.480E+02 0.640E+02 -.137E+03   -.516E+02 -.688E+02 0.137E+03   0.344E+01 0.456E+01 -.238E+00
   0.795E+02 -.965E+01 -.137E+03   -.854E+02 0.104E+02 0.137E+03   0.564E+01 -.709E+00 -.141E+00
   0.737E+00 0.714E+00 0.311E+03   -.736E+00 -.712E+00 -.309E+03   0.135E-02 -.358E-03 -.242E+01
   0.140E+01 0.140E+01 0.312E+03   -.139E+01 -.140E+01 -.310E+03   -.102E-02 -.646E-03 -.242E+01
   0.143E+01 0.171E+01 0.105E+03   -.143E+01 -.171E+01 -.105E+03   0.124E-02 0.133E-02 0.146E+00
   0.170E+01 0.139E+01 0.105E+03   -.170E+01 -.139E+01 -.105E+03   -.380E-03 -.382E-03 0.146E+00
   0.179E+01 0.175E+01 -.971E+02   -.179E+01 -.174E+01 0.972E+02   -.286E-02 -.400E-02 -.382E-01
   0.450E+01 0.451E+01 -.937E+02   -.449E+01 -.450E+01 0.937E+02   -.137E-01 -.107E-01 -.254E-01
   0.448E+01 0.463E+01 -.300E+03   -.448E+01 -.463E+01 0.298E+03   -.668E-02 -.200E-03 0.240E+01
   0.460E+01 0.439E+01 -.300E+03   -.460E+01 -.438E+01 0.298E+03   -.333E-02 -.499E-02 0.240E+01
   0.108E+01 0.904E+00 0.312E+03   -.108E+01 -.902E+00 -.309E+03   -.492E-03 -.499E-03 -.242E+01
   0.185E+01 0.148E+00 0.313E+03   -.185E+01 -.148E+00 -.310E+03   -.118E-02 -.484E-03 -.242E+01
   0.210E+01 0.198E+00 0.106E+03   -.209E+01 -.199E+00 -.106E+03   -.110E-02 -.179E-02 0.151E+00
   0.305E+01 0.194E+01 0.107E+03   -.304E+01 -.193E+01 -.107E+03   -.168E-02 -.137E-02 0.153E+00
   0.375E+01 0.243E+01 -.944E+02   -.374E+01 -.243E+01 0.945E+02   -.142E-01 -.355E-02 -.308E-01
   0.823E+01 0.588E+00 -.889E+02   -.817E+01 -.587E+00 0.889E+02   -.703E-01 -.885E-03 0.104E-01
   0.847E+01 0.556E+00 -.297E+03   -.847E+01 -.556E+00 0.295E+03   -.585E-02 -.179E-03 0.240E+01
   0.146E+02 0.835E+01 -.291E+03   -.145E+02 -.833E+01 0.289E+03   -.393E-01 -.193E-01 0.240E+01
   0.876E+00 0.105E+01 0.312E+03   -.874E+00 -.105E+01 -.309E+03   -.219E-02 -.865E-03 -.242E+01
   -.941E-01 0.105E+01 0.312E+03   0.939E-01 -.105E+01 -.309E+03   0.742E-04 0.125E-02 -.242E+01
   0.187E+01 0.306E+01 0.107E+03   -.187E+01 -.305E+01 -.107E+03   -.286E-02 0.135E-03 0.150E+00
   -.116E+00 0.937E+00 0.104E+03   0.116E+00 -.935E+00 -.104E+03   0.155E-04 -.759E-04 0.141E+00
   0.233E+01 0.364E+01 -.944E+02   -.233E+01 -.363E+01 0.945E+02   -.318E-02 -.116E-01 -.327E-01
   -.270E+00 0.243E+01 -.966E+02   0.270E+00 -.243E+01 0.966E+02   0.102E-03 -.168E-02 -.380E-01
   0.799E+01 0.146E+02 -.291E+03   -.797E+01 -.145E+02 0.289E+03   -.230E-01 -.386E-01 0.240E+01
   -.275E+00 0.219E+01 -.302E+03   0.274E+00 -.218E+01 0.300E+03   0.745E-03 -.155E-02 0.241E+01
   0.133E+01 0.137E+01 0.313E+03   -.133E+01 -.136E+01 -.311E+03   -.136E-02 -.101E-02 -.242E+01
   -.123E+00 0.112E+00 0.312E+03   0.122E+00 -.111E+00 -.309E+03   0.114E-03 -.177E-02 -.242E+01
   0.282E+01 0.350E+00 0.111E+03   -.282E+01 -.349E+00 -.111E+03   0.115E-03 -.171E-02 0.108E+00
   -.198E+00 0.121E+01 0.105E+03   0.198E+00 -.121E+01 -.105E+03   0.252E-03 -.116E-03 0.146E+00
   0.616E+01 0.636E+01 -.847E+02   -.613E+01 -.633E+01 0.848E+02   -.306E-01 -.384E-01 -.258E-01
   -.436E+00 0.267E+00 -.949E+02   0.436E+00 -.269E+00 0.950E+02   0.740E-04 0.218E-02 -.378E-01
   0.229E+02 0.283E+01 -.264E+03   -.228E+02 -.283E+01 0.262E+03   -.154E+00 -.107E-01 0.239E+01
   -.653E+00 0.304E+01 -.300E+03   0.653E+00 -.304E+01 0.298E+03   -.138E-02 -.579E-03 0.240E+01
   0.112E+01 -.739E+00 0.312E+03   -.111E+01 0.737E+00 -.310E+03   0.806E-03 0.419E-03 -.242E+01
   0.147E+01 -.141E+01 0.312E+03   -.147E+01 0.141E+01 -.310E+03   -.114E-02 0.145E-02 -.242E+01
   0.154E+01 -.174E+01 0.105E+03   -.154E+01 0.173E+01 -.105E+03   0.107E-02 0.206E-02 0.143E+00
   0.319E+01 -.159E+01 0.108E+03   -.318E+01 0.158E+01 -.108E+03   -.118E-02 0.100E-02 0.142E+00
   0.403E+01 -.199E+01 -.941E+02   -.401E+01 0.199E+01 0.941E+02   -.171E-01 0.250E-02 -.306E-01
   0.503E+01 -.469E+01 -.929E+02   -.502E+01 0.468E+01 0.929E+02   -.903E-02 0.992E-02 -.186E-01
   0.510E+01 -.480E+01 -.299E+03   -.509E+01 0.480E+01 0.298E+03   -.949E-02 0.421E-02 0.240E+01
   0.163E+02 -.723E+01 -.289E+03   -.162E+02 0.721E+01 0.287E+03   -.626E-01 0.174E-01 0.240E+01
   0.767E+00 -.879E+00 0.311E+03   -.766E+00 0.878E+00 -.309E+03   0.842E-05 0.448E-03 -.242E+01
   0.106E+01 -.136E+00 0.312E+03   -.105E+01 0.136E+00 -.309E+03   -.466E-03 -.317E-03 -.242E+01
   0.975E+00 -.175E+00 0.104E+03   -.973E+00 0.175E+00 -.104E+03   0.156E-02 -.156E-02 0.141E+00
   0.182E+01 -.174E+01 0.105E+03   -.182E+01 0.174E+01 -.105E+03   -.384E-03 0.670E-03 0.147E+00
   0.195E+01 -.217E+01 -.969E+02   -.195E+01 0.217E+01 0.970E+02   -.268E-02 0.304E-02 -.342E-01
   0.245E+01 -.403E+00 -.966E+02   -.245E+01 0.402E+00 0.966E+02   -.229E-02 0.180E-02 -.346E-01
   0.226E+01 -.396E+00 -.302E+03   -.226E+01 0.396E+00 0.300E+03   0.221E-02 -.325E-03 0.241E+01
   0.524E+01 -.557E+01 -.299E+03   -.524E+01 0.557E+01 0.297E+03   -.203E-02 0.986E-02 0.240E+01
[...]
   -.327E+01 -.355E+01 0.901E+03   0.327E+01 0.355E+01 -.905E+03   0.618E-02 0.587E-02 0.292E+01
   0.390E+00 -.367E+01 0.906E+03   -.390E+00 0.367E+01 -.910E+03   -.515E-03 0.400E-02 0.291E+01
   -.276E+02 -.117E+02 -.869E+03   0.275E+02 0.117E+02 0.874E+03   0.187E-01 0.175E-02 -.454E+01
   0.317E+01 -.647E+02 -.828E+03   -.317E+01 0.645E+02 0.833E+03   -.516E-03 0.166E+00 -.452E+01
   -.102E+02 -.960E+01 -.282E+03   0.102E+02 0.959E+01 0.282E+03   0.568E-02 0.136E-01 0.294E+00
   0.217E+01 -.197E+02 -.233E+03   -.215E+01 0.195E+02 0.233E+03   -.134E-01 0.125E+00 0.308E-01
   -.400E+01 -.412E+01 0.313E+03   0.400E+01 0.412E+01 -.313E+03   0.310E-02 0.153E-02 -.590E-01
   0.364E+00 -.933E+00 0.316E+03   -.362E+00 0.936E+00 -.316E+03   -.269E-02 -.358E-02 -.475E-01
   -.237E+01 -.353E+00 0.899E+03   0.237E+01 0.352E+00 -.903E+03   0.319E-02 0.535E-03 0.292E+01
   0.265E+00 -.419E+01 0.902E+03   -.265E+00 0.418E+01 -.906E+03   -.401E-03 0.134E-01 0.292E+01
   -.108E+02 -.109E+02 -.881E+03   0.108E+02 0.109E+02 0.887E+03   0.526E-02 0.648E-02 -.455E+01
   0.831E+00 -.344E+01 -.875E+03   -.832E+00 0.344E+01 0.881E+03   0.863E-03 -.144E-02 -.455E+01
   -.534E+01 -.867E+00 -.289E+03   0.534E+01 0.869E+00 0.288E+03   -.168E-02 -.201E-02 0.298E+00
   0.809E+00 -.158E+02 -.275E+03   -.806E+00 0.157E+02 0.275E+03   -.216E-02 0.359E-01 0.305E+00
   -.505E-02 -.692E-01 0.517E+02   0.902E-12 0.913E-12 -.819E-11   0.160E-01 0.489E-01 -.433E+02

 POSITION                                       TOTAL-FORCE (eV/Angst)
      7.97776      7.78280     16.85885         0.003357      0.002498     -0.000964
      9.35539      7.61661     16.82560        -0.003385     -0.011394     -0.000634
      9.90131      6.33877     16.85625        -0.004407     -0.002170      0.001908
      9.06910      5.22992     16.92593         0.006790     -0.003069     -0.003952
      7.69000      5.39615     16.96153         0.012869     -0.002747     -0.003536
      7.14551      6.67196     16.92530         0.009689     -0.000081     -0.002816
      7.55055      8.77856     16.83217        -0.001317     -0.002263      0.002027
     10.00493      8.48048     16.76587         0.003778     -0.002393      0.001783
     10.97798      6.20957     16.82905        -0.000827     -0.005814      0.000520
      9.49825      4.23497     16.94734        -0.006034      0.004147     -0.001144
      7.03982      4.53118     17.00941        -0.006893     -0.007337      0.000539
      6.07001      6.80475     16.94960        -0.016845     -0.001215      0.002587
      2.08728      0.00000      7.50000         0.002490      0.000988      0.484783
      4.17456      2.08728      7.50000         0.002726      0.003266      0.485865
      2.08728      2.08728      9.58728         0.004351      0.003877      0.039005
      4.17456      0.00000      9.58728         0.001875      0.002049      0.039671
      2.08759      0.00022     11.68226        -0.000486     -0.001000     -0.002007
      4.17526      2.08784     11.68286        -0.001213      0.000078     -0.001786
      2.08769      2.08732     13.75107        -0.001424      0.001356     -0.001952
      4.17479      0.00014     13.75142         0.000212      0.000475     -0.003044
      2.08728      4.17456      7.50000         0.002912      0.001713      0.485703
      4.17456      6.26183      7.50000         0.003817     -0.000075      0.490057
      2.08728      6.26183      9.58728         0.011583     -0.002206      0.040246
      4.17456      4.17456      9.58728         0.008646      0.007001      0.043222
      2.08788      4.17464     11.68287         0.000262      0.000458     -0.002627
      4.17662      6.26179     11.68314         0.003543      0.000424     -0.001931
      2.08795      6.26171     13.75144         0.000252      0.000625     -0.003415
      4.17639      4.17583     13.75111        -0.000014     -0.000106     -0.006341
      6.26183      0.00000      7.50000        -0.000038      0.002431      0.485012
      0.00000      2.08728      7.50000        -0.000285      0.002897      0.484692
      6.26183      2.08728      9.58728         0.004000      0.010775      0.042473
      0.00000      0.00000      9.58728        -0.000181      0.001498      0.038201
      6.26182      0.00018     11.68263        -0.000177      0.001528     -0.002625
     16.69816      2.08763     11.68228        -0.000063     -0.001358     -0.001268
      6.26334      2.08898     13.74974        -0.001186      0.000033     -0.005018
     16.69814      0.00003     13.75009         0.000290     -0.000738      0.000821
      6.26183      4.17456      7.50000         0.002023      0.002720      0.489953
      0.00000      6.26183      7.50000        -0.000370     -0.001318      0.483893
      6.26183      6.26183      9.58728        -0.008662     -0.000989      0.044366
      0.00000      4.17456      9.58728        -0.000423      0.000559      0.038542
      6.26342      4.17672     11.68303         0.000776     -0.000632     -0.000900
     16.69820      6.26141     11.68254        -0.000098     -0.000086     -0.001380
      6.27228      6.26334     13.75547        -0.001319      0.000143      0.002287
     16.69821      4.17450     13.75121        -0.000802     -0.000223     -0.001870
      2.08728      8.34911      7.50000         0.004111     -0.001397      0.485141
      4.17456     10.43639      7.50000         0.003014     -0.002455      0.485827
      2.08728     10.43639      9.58728         0.003752     -0.000063      0.036952
      4.17456      8.34911      9.58728         0.009239     -0.007235      0.042709
      2.08764      8.34882     11.68205         0.001726     -0.000721     -0.002338
      4.17474     10.43597     11.68207         0.000470     -0.000120     -0.000631
      2.08756     10.43601     13.75072        -0.001572      0.000239     -0.002500
      4.17614      8.34818     13.74835        -0.000552      0.001686     -0.004763
      2.08728     12.52367      7.50000         0.001385     -0.001136      0.485493
      4.17456     14.61095      7.50000         0.001235     -0.000614      0.485486
      2.08728     14.61095      9.58728         0.003394     -0.001903      0.037653
      4.17456     12.52367      9.58728         0.002017     -0.002066      0.038172
      2.08747     12.52345     11.68233        -0.000353      0.000502     -0.001644
      4.17470     14.61069     11.68259        -0.001442      0.001076     -0.001989
      2.08715     14.61089     13.75019        -0.000255     -0.000056      0.000146
      4.17453     12.52318     13.75156         0.000484      0.000734     -0.003229
[...]
      8.34911     10.43639      9.58728        -0.002272      0.018640      0.035362
     14.61095     10.43639      7.50000         0.001972      0.002045     -0.568814
      8.34911      8.34911      7.50000        -0.000238      0.001371     -0.573285
     14.61088      8.34902     13.80068        -0.002061     -0.000324      0.002189
      8.34889     10.43530     13.80848         0.000454     -0.000512     -0.001557
     14.61105     10.43653     11.67574         0.000193      0.000357      0.003092
      8.34864      8.35448     11.67313        -0.000440     -0.000344      0.004021
     14.61095     12.52367      9.58728         0.003083      0.000736      0.046181
      8.34911     14.61095      9.58728        -0.000912     -0.001451      0.054595
     14.61095     14.61095      7.50000         0.000964      0.000160     -0.568664
      8.34911     12.52367      7.50000        -0.000199      0.004605     -0.572063
     14.61132     12.52365     13.80093        -0.000429     -0.000450      0.000499
      8.34898     14.61057     13.80133        -0.000335      0.000094      0.000558
     14.61067     14.61085     11.67545         0.000612     -0.000618      0.002254
      8.34883     12.52301     11.67702         0.000055     -0.000405      0.000809
    total drift:                                0.017685     -0.007700     -0.113108

  FREE ENERGIE OF THE ION-ELECTRON SYSTEM (eV)
  free  energy   TOTEN  =     -1982.40854980 eV

  energy  without entropy=    -1982.40854980  energy(sigma->0) =    -1982.40854980

 reached required accuracy - stopping structural energy minimisation