 vasp.6.3.0 20Jan22 (build Apr  1 2022 16:44:48) complex
 executed on        HPECrayEX_GCC date 2022.10.11  00:54:32

 INCAR:
   SYSTEM = MgO-rocksalt
   ISMEAR = 0
   SIGMA = 0.05
   EDIFF = 1E-6
   ALGO = ALL
   ISTART = 0
   IBRION = -1
   NSW = 0
   ISYM = 0
   DIPOL = 0.5 0.5 0.5
   IDIPOL = 3
   LDIPOL = .TRUE.
   LHFCALC = .TRUE.
   GGA = B5
   AEXX = 0.2
   AGGAX = 0.72
   AGGAC = 0.81
   ALDAC = 0.19
   IVDW = 1
   VDW_S6 = 1.05
   VDW_C6 = 0.63 0.70
   VDW_R0 = 1.243 1.342
   ENCUT = 600
   PREC = Accurate
   LASPH = .TRUE.
   LREAL = .FALSE.
   ISPIN = 1
   NELM = 200
   NELMIN = 8
   NCORE = 8
   KPAR = 1
   LWAVE = .FALSE.
   LCHARG = .FALSE.

 POTCAR:    PAW_PBE Mg_pv 13Apr2007
 POTCAR:    PAW_PBE O 08Apr2002
 POTCAR:    PAW_PBE Mg_pv 13Apr2007
   VRHFIN =Mg: p6s2

   TITEL  = PAW_PBE Mg_pv 13Apr2007
   POMASS =   24.305; ZVAL   =    8.000    mass and valenz
   ENMAX  =  403.929; ENMIN  =  302.947 eV

   TITEL  = PAW_PBE O 08Apr2002
   POMASS =   16.000; ZVAL   =    6.000    mass and valenz
   ENMAX  =  400.000; ENMIN  =  300.000 eV

  PAW_PBE Mg_pv 13Apr2007               :
  PAW_PBE O 08Apr2002                   :

 POSCAR: Mg  O
  positions in direct lattice
 exchange correlation table for  LEXCH =       12
   RHO(1)=    0.500       N(1)  =     2000
   RHO(2)=  100.500       N(2)  =     4000

 ion  position               nearest neighbor table
   1  0.250  0.000  0.352-  35 2.10  36 2.10  43 2.10  52 2.10  33 2.10
   2  0.500  0.250  0.352-  35 2.10  36 2.10  44 2.10  51 2.10  34 2.10
   3  0.250  0.250  0.451-  33 2.10  34 2.10  41 2.10  50 2.10  35 2.10  39 2.11
   4  0.500  0.000  0.451-  33 2.10  34 2.10  42 2.10  49 2.10  36 2.10  40 2.10
   5  0.250  1.000  0.550-  40 2.10  39 2.10  47 2.10  56 2.10  33 2.11  37 2.13
   6  0.500  0.250  0.550-  48 2.10  55 2.10  39 2.10  40 2.10  34 2.11  38 2.12
   7  0.250  0.250  0.648-  39 2.09  37 2.10  38 2.10  54 2.10  45 2.10
   8  0.500  1.000  0.648-  40 2.09  46 2.10  38 2.10  53 2.10  37 2.10
   9  0.250  0.500  0.352-  35 2.10  43 2.10  44 2.10  60 2.10  41 2.10
  10  0.500  0.750  0.352-  36 2.10  43 2.10  44 2.10  59 2.10  42 2.10
  11  0.250  0.750  0.451-  33 2.10  41 2.10  42 2.10  58 2.10  43 2.10  47 2.11
  12  0.500  0.500  0.451-  34 2.10  41 2.10  42 2.10  57 2.10  44 2.10  48 2.11
  13  0.250  0.500  0.550-  48 2.10  39 2.10  47 2.10  64 2.10  41 2.11  45 2.13
  14  0.500  0.750  0.550-  48 2.10  63 2.10  47 2.10  40 2.10  42 2.11  46 2.12
  15  0.250  0.750  0.648-  47 2.09  37 2.10  46 2.10  62 2.10  45 2.10
  16  0.500  0.500  0.648-  38 2.10  46 2.10  45 2.10  61 2.10  48 2.10
  17  0.750  0.000  0.352-  36 2.10  51 2.10  52 2.10  59 2.10  49 2.10
  18  0.000  0.250  0.352-  35 2.10  51 2.10  52 2.10  60 2.10  50 2.10
  19  0.750  0.250  0.451-  34 2.10  49 2.10  50 2.10  57 2.10  51 2.10  55 2.11
  20  0.000  0.000  0.451-  33 2.10  49 2.10  50 2.10  58 2.10  52 2.10  56 2.11
  21  0.750  1.000  0.550-  40 2.10  55 2.10  63 2.10  56 2.10  49 2.11  53 2.13
  22  0.000  0.250  0.550-  39 2.10  55 2.10  64 2.10  56 2.10  50 2.11  54 2.13
  23  0.750  0.250  0.648-  55 2.09  53 2.10  38 2.10  54 2.10  61 2.10
  24  1.000  0.000  0.648-  56 2.09  53 2.10  37 2.10  54 2.10  62 2.10
  25  0.750  0.500  0.352-  44 2.10  51 2.10  59 2.10  60 2.10  57 2.10
  26  0.000  0.750  0.352-  43 2.10  52 2.10  59 2.10  60 2.10  58 2.10
  27  0.750  0.750  0.451-  42 2.10  49 2.10  57 2.10  58 2.10  59 2.10  63 2.11
  28  0.000  0.500  0.451-  41 2.10  50 2.10  57 2.10  58 2.10  60 2.10  64 2.11
  29  0.750  0.500  0.550-  48 2.10  55 2.10  63 2.10  64 2.10  57 2.11  61 2.13
  30  0.000  0.750  0.550-  47 2.10  63 2.10  64 2.10  56 2.10  58 2.11  62 2.13
  31  0.750  0.750  0.648-  63 2.09  53 2.10  46 2.10  62 2.10  61 2.10
  32  0.000  0.500  0.648-  64 2.09  45 2.10  61 2.10  54 2.10  62 2.10
  33  0.250  0.000  0.451-   3 2.10   4 2.10  11 2.10  20 2.10   1 2.10   5 2.11
  34  0.500  0.250  0.451-   3 2.10   4 2.10  12 2.10  19 2.10   2 2.10   6 2.11
  35  0.250  0.250  0.352-   1 2.10   2 2.10   9 2.10  18 2.10   3 2.10
  36  0.500  0.000  0.352-   1 2.10   2 2.10  10 2.10  17 2.10   4 2.10
  37  0.250  1.000  0.650-  15 2.10   7 2.10  24 2.10   8 2.10   5 2.13
  38  0.500  0.250  0.650-   8 2.10   7 2.10  23 2.10  16 2.10   6 2.12
  39  0.250  0.250  0.550-   7 2.09  22 2.10  13 2.10   5 2.10   6 2.10   3 2.11
  40  0.500  0.000  0.549-   8 2.09  21 2.10   5 2.10   6 2.10  14 2.10   4 2.10
  41  0.250  0.500  0.451-   3 2.10  11 2.10  12 2.10  28 2.10   9 2.10  13 2.11
  42  0.500  0.750  0.451-   4 2.10  11 2.10  12 2.10  27 2.10  10 2.10  14 2.11
  43  0.250  0.750  0.352-   1 2.10   9 2.10  10 2.10  26 2.10  11 2.10
  44  0.500  0.500  0.352-   2 2.10   9 2.10  10 2.10  25 2.10  12 2.10
  45  0.250  0.500  0.650-  32 2.10  16 2.10  15 2.10   7 2.10  13 2.13
  46  0.500  0.750  0.650-   8 2.10  15 2.10  31 2.10  16 2.10  14 2.12
  47  0.250  0.750  0.550-  15 2.09  30 2.10  13 2.10   5 2.10  14 2.10  11 2.11
  48  0.500  0.500  0.550-  13 2.10  29 2.10   6 2.10  14 2.10  16 2.10  12 2.11
  49  0.750  0.000  0.451-   4 2.10  19 2.10  20 2.10  27 2.10  17 2.10  21 2.11
  50  0.000  0.250  0.451-   3 2.10  19 2.10  20 2.10  28 2.10  18 2.10  22 2.11
  51  0.750  0.250  0.352-   2 2.10  17 2.10  18 2.10  25 2.10  19 2.10
  52  0.000  0.000  0.352-   1 2.10  17 2.10  18 2.10  26 2.10  20 2.10
  53  0.750  1.000  0.650-  31 2.10  23 2.10  24 2.10   8 2.10  21 2.13
  54  1.000  0.250  0.650-  24 2.10  23 2.10   7 2.10  32 2.10  22 2.13
  55  0.750  0.250  0.550-  23 2.09  22 2.10  29 2.10  21 2.10   6 2.10  19 2.11
  56  0.000  0.000  0.550-  24 2.09  22 2.10  30 2.10   5 2.10  21 2.10  20 2.11
  57  0.750  0.500  0.451-  12 2.10  19 2.10  27 2.10  28 2.10  25 2.10  29 2.11
  58  0.000  0.750  0.451-  11 2.10  20 2.10  27 2.10  28 2.10  26 2.10  30 2.11
  59  0.750  0.750  0.352-  10 2.10  17 2.10  25 2.10  26 2.10  27 2.10
  60  0.000  0.500  0.352-   9 2.10  18 2.10  25 2.10  26 2.10  28 2.10
  61  0.750  0.500  0.650-  32 2.10  16 2.10  31 2.10  23 2.10  29 2.13
  62  0.000  0.750  0.650-  24 2.10  31 2.10  15 2.10  32 2.10  30 2.13
  63  0.750  0.750  0.550-  31 2.09  30 2.10  29 2.10  21 2.10  14 2.10  27 2.11
  64  0.000  0.500  0.550-  32 2.09  22 2.10  30 2.10  29 2.10  13 2.10  28 2.11

IMPORTANT INFORMATION: All symmetrisations will be switched off!
NOSYMM: (Re-)initialisation of all symmetry stuff for point group C_1.

                                     Primitive cell

  volume of cell :    1504.9259

  direct lattice vectors                    reciprocal lattice vectors
     8.404861995  0.000000000  0.000000000     0.118978753  0.000000000  0.000000000
     0.000000000  8.404861995  0.000000000     0.000000000  0.118978753  0.000000000
     0.000000000  0.000000000 21.303646496     0.000000000  0.000000000  0.046940321

  length of vectors
     8.404861995  8.404861995 21.303646496     0.118978753  0.118978753  0.046940321

  position of ions in fractional coordinates (direct lattice)
     0.250000000  0.000000000  0.352052406
     0.500000000  0.250000000  0.352052406
     0.250000000  0.250000000  0.450684135
     0.500000000  0.000000000  0.450684135
     0.250043199  0.999999918  0.549725061
     0.500000085  0.250159571  0.549852836
     0.250051584  0.249754850  0.647552537
     0.500000097  0.999999780  0.647560896
     0.250000000  0.500000000  0.352052406
     0.500000000  0.750000000  0.352052406
     0.250000000  0.750000000  0.450684135
     0.500000000  0.500000000  0.450684135
     0.250169332  0.499999894  0.549858041
     0.500000093  0.749840404  0.549852830
     0.250051899  0.750244941  0.647552425
     0.499999782  0.499999870  0.648412252
     0.750000000  0.000000000  0.352052406
     0.000000000  0.250000000  0.352052406
     0.750000000  0.250000000  0.450684135
     0.000000000  0.000000000  0.450684135
     0.749956456  0.999999939  0.549725121
     0.000000020  0.250038579  0.549757268
     0.749948451  0.249754553  0.647552496
     0.999999867  0.000000162  0.647643108
     0.750000000  0.500000000  0.352052406
     0.000000000  0.750000000  0.352052406
     0.750000000  0.750000000  0.450684135
     0.000000000  0.500000000  0.450684135
     0.749831476  0.499999890  0.549858178
     0.000000032  0.749961254  0.549757188
     0.749948165  0.750245215  0.647552385
     0.000000026  0.499999738  0.647604791
     0.250000000  0.000000000  0.450684135
     0.500000000  0.250000000  0.450684135
     0.250000000  0.250000000  0.352052406
     0.500000000  0.000000000  0.352052406
     0.249909655  0.999999827  0.649710822
     0.499999975  0.249746272  0.649555862
     0.249903387  0.250021089  0.549504847
     0.500000116  0.000000006  0.549435457
     0.250000000  0.500000000  0.450684135
     0.500000000  0.750000000  0.450684135
     0.250000000  0.750000000  0.352052406
     0.500000000  0.500000000  0.352052406
     0.249737426  0.499999986  0.649903413
     0.499999969  0.750253468  0.649555893
     0.249903461  0.749978717  0.549504850
     0.500000001  0.499999846  0.549664849
     0.750000000  0.000000000  0.450684135
     0.000000000  0.250000000  0.450684135
     0.750000000  0.250000000  0.352052406
     0.000000000  0.000000000  0.352052406
     0.750090209  0.999999879  0.649710738
     0.999999998  0.249934171  0.649755467
     0.750096622  0.250021004  0.549504838
     0.000000002  0.000000075  0.549502891
     0.750000000  0.500000000  0.450684135
     0.000000000  0.750000000  0.450684135
     0.750000000  0.750000000  0.352052406
     0.000000000  0.500000000  0.352052406
     0.750262592  0.499999965  0.649903405
     0.000000014  0.750065601  0.649755421
     0.750096575  0.749978818  0.549504849
     0.000000054  0.499999760  0.549525334

  ion indices of the primitive-cell ions
   primitive index   ion index
                 1           1
                 2           2
                 3           3
                 4           4
                 5           5
                 6           6
                 7           7
                 8           8
                 9           9
                10          10
                11          11
                12          12
                13          13
                14          14
                15          15
                16          16
                17          17
                18          18
                19          19
                20          20
                21          21
                22          22
                23          23
                24          24
                25          25
                26          26
                27          27
                28          28
                29          29
                30          30
                31          31
                32          32
                33          33
                34          34
                35          35
                36          36
                37          37
                38          38
                39          39
                40          40
                41          41
                42          42
                43          43
                44          44
[...]
   0.50000000  0.75000000  0.45068414
   0.25000000  0.75000000  0.35205241
   0.50000000  0.50000000  0.35205241
   0.24973743  0.49999999  0.64990341
   0.49999997  0.75025347  0.64955589
   0.24990346  0.74997872  0.54950485
   0.50000000  0.49999985  0.54966485
   0.75000000  0.00000000  0.45068414
   0.00000000  0.25000000  0.45068414
   0.75000000  0.25000000  0.35205241
   0.00000000  0.00000000  0.35205241
   0.75009021  0.99999988  0.64971074
   1.00000000  0.24993417  0.64975547
   0.75009662  0.25002100  0.54950484
   0.00000000  0.00000008  0.54950289
   0.75000000  0.50000000  0.45068414
   0.00000000  0.75000000  0.45068414
   0.75000000  0.75000000  0.35205241
   0.00000000  0.50000000  0.35205241
   0.75026259  0.49999996  0.64990341
   0.00000001  0.75006560  0.64975542
   0.75009657  0.74997882  0.54950485
   0.00000005  0.49999976  0.54952533

 position of ions in cartesian coordinates  (Angst):
   2.10121550  0.00000000  7.50000000
   4.20243100  2.10121550  7.50000000
   2.10121550  2.10121550  9.60121550
   4.20243100  0.00000000  9.60121550
   2.10157858  8.40486131 11.71114837
   4.20243171  2.10255667 11.71387044
   2.10164905  2.09915505 13.79523034
   4.20243182  8.40486014 13.79540841
   2.10121550  4.20243100  7.50000000
   4.20243100  6.30364650  7.50000000
   2.10121550  6.30364650  9.60121550
   4.20243100  4.20243100  9.60121550
   2.10263871  4.20243011 11.71398132
   4.20243178  6.30230511 11.71387032
   2.10165171  6.30570519 13.79522795
   4.20242917  4.20242990 13.81354540
   6.30364650  0.00000000  7.50000000
   0.00000000  2.10121550  7.50000000
   6.30364650  2.10121550  9.60121550
   0.00000000  0.00000000  9.60121550
   6.30328052  8.40486148 11.71114966
   0.00000016  2.10153975 11.71183449
   6.30321323  2.09915255 13.79522946
   8.40486088  0.00000136 13.79715982
   6.30364650  4.20243100  7.50000000
   0.00000000  6.30364650  7.50000000
   6.30364650  6.30364650  9.60121550
   0.00000000  4.20243100  9.60121550
   6.30223008  4.20243007 11.71398425
   0.00000026  6.30332084 11.71183280
   6.30321083  6.30570750 13.79522710
   0.00000022  4.20242880 13.79634354
   2.10121550  0.00000000  9.60121550
   4.20243100  2.10121550  9.60121550
   2.10121550  2.10121550  7.50000000
   4.20243100  0.00000000  7.50000000
   2.10045616  8.40486054 13.84120969
   4.20243079  2.09908295 13.83790846
   2.10040348  2.10139275 11.70645701
   4.20243197  0.00000005 11.70497875
   2.10121550  4.20243100  9.60121550
   4.20243100  6.30364650  9.60121550
   2.10121550  6.30364650  7.50000000
   4.20243100  4.20243100  7.50000000
   2.09900860  4.20243088 13.84531256
   4.20243074  6.30577686 13.83790913
   2.10040410  6.30346761 11.70645706
   4.20243101  4.20242970 11.70986564
   6.30364650  0.00000000  9.60121550
   0.00000000  2.10121550  9.60121550
   6.30364650  2.10121550  7.50000000
   0.00000000  0.00000000  7.50000000
   6.30440469  8.40486098 13.84120789
   8.40486197  2.10066222 13.84216077
   6.30445859  2.10139203 11.70645682
   0.00000002  0.00000063 11.70641533
   6.30364650  4.20243100  9.60121550
   0.00000000  6.30364650  9.60121550
   6.30364650  6.30364650  7.50000000
   0.00000000  4.20243100  7.50000000
   6.30585354  4.20243070 13.84531240
   0.00000012  6.30419786 13.84215979
   6.30445819  6.30346846 11.70645705
   0.00000045  4.20242898 11.70689345

--------------------------------------- Iteration      FINAL  ---------------------------------------

--------------------OUTCAR has been truncated-------------------------

[...]

--------------------OUTCAR has been truncated-------------------------

  DFT-D2 method for vdW energy calculation

  Parameters of vdW forcefield:
         C6(Jnm^6/mol)     R0(A)
   Mg       0.630          1.243
   O        0.700          1.342

  vdW correction parametrized for the method Eý      

  IVDW =   1
  VDW_RADIUS =    50.000 A
  VDW_S6 =     1.050
  VDW_SR =     1.000
  VDW_D =    20.000
  LVDW_EWALD = F

  Number of pair interactions contributing to vdW energy:  731244
  Edisp (eV):   -5.17293

 VOLUME and BASIS-vectors are now :
  energy-cutoff  :      600.00
  volume of cell :     1504.93
      direct lattice vectors                 reciprocal lattice vectors
     8.404861995  0.000000000  0.000000000     0.118978753  0.000000000  0.000000000
     0.000000000  8.404861995  0.000000000     0.000000000  0.118978753  0.000000000
     0.000000000  0.000000000 21.303646496     0.000000000  0.000000000  0.046940321

  length of vectors
     8.404861995  8.404861995 21.303646496     0.118978753  0.118978753  0.046940321

 FORCES acting on ions:
    Electron-Ion                     Ewald-Force                    Non-Local-Force
   -.249E-01 0.969E-05 0.209E+04   0.254E-01 -.530E-05 -.208E+04   -.325E-03 -.807E-05 -.641E+01
   -.963E-05 -.750E-01 0.209E+04   0.891E-05 0.767E-01 -.208E+04   0.224E-05 -.116E-02 -.641E+01
   -.187E+00 -.302E+00 0.693E+03   0.190E+00 0.314E+00 -.693E+03   -.142E-02 -.748E-02 0.393E+00
   0.153E-03 0.953E-05 0.693E+03   -.148E-03 -.609E-05 -.693E+03   -.116E-05 0.185E-05 0.367E+00
   0.236E-01 0.114E-03 -.697E+03   -.410E-01 -.854E-04 0.697E+03   0.781E-02 -.146E-04 -.201E+00
   0.264E-03 -.685E+00 -.697E+03   -.261E-03 0.748E+00 0.698E+03   -.122E-04 -.530E-01 -.296E+00
   -.595E-03 -.902E+00 -.208E+04   -.696E-01 0.860E+00 0.207E+04   0.422E-01 0.511E-01 0.549E+01
   0.926E-03 -.455E-03 -.208E+04   -.958E-03 0.474E-03 0.207E+04   0.633E-05 -.316E-06 0.549E+01
   -.402E-01 -.107E-05 0.209E+04   0.412E-01 0.628E-05 -.208E+04   -.716E-03 -.519E-05 -.641E+01
   -.742E-05 0.750E-01 0.209E+04   0.110E-04 -.767E-01 -.208E+04   -.561E-05 0.117E-02 -.641E+01
   -.187E+00 0.302E+00 0.693E+03   0.190E+00 -.314E+00 -.693E+03   -.144E-02 0.749E-02 0.394E+00
   -.291E-03 -.698E-04 0.692E+03   0.311E-03 0.679E-04 -.692E+03   -.146E-04 0.167E-05 0.427E+00
   -.358E+00 -.116E-03 -.699E+03   0.403E+00 0.103E-03 0.699E+03   -.419E-01 0.880E-05 -.216E+00
   0.199E-03 0.685E+00 -.697E+03   -.196E-03 -.749E+00 0.698E+03   -.984E-05 0.530E-01 -.296E+00
   0.921E-03 0.902E+00 -.208E+04   -.712E-01 -.860E+00 0.207E+04   0.422E-01 -.511E-01 0.549E+01
   -.957E-03 0.209E-03 -.208E+04   0.964E-03 -.229E-03 0.208E+04   0.239E-04 0.532E-05 0.561E+01
   0.249E-01 0.774E-05 0.209E+04   -.254E-01 -.739E-05 -.208E+04   0.324E-03 -.235E-06 -.641E+01
   0.894E-05 -.597E-01 0.209E+04   -.824E-05 0.609E-01 -.208E+04   -.494E-05 -.772E-03 -.641E+01
   0.187E+00 -.303E+00 0.693E+03   -.190E+00 0.314E+00 -.693E+03   0.141E-02 -.748E-02 0.393E+00
   0.365E-04 0.921E-04 0.693E+03   -.595E-04 -.690E-04 -.693E+03   0.144E-04 -.135E-04 0.384E+00
   -.249E-01 0.201E-03 -.697E+03   0.423E-01 -.170E-03 0.697E+03   -.773E-02 -.248E-04 -.201E+00
   -.166E-03 -.288E+00 -.697E+03   0.184E-03 0.290E+00 0.697E+03   -.110E-04 -.465E-02 -.225E+00
   0.802E-03 -.904E+00 -.208E+04   0.694E-01 0.862E+00 0.207E+04   -.422E-01 0.511E-01 0.549E+01
   -.488E-03 0.127E-02 -.208E+04   0.544E-03 -.131E-02 0.207E+04   -.324E-04 -.305E-05 0.549E+01
   0.402E-01 -.607E-05 0.209E+04   -.412E-01 0.830E-05 -.208E+04   0.707E-03 -.338E-05 -.641E+01
   0.605E-05 0.597E-01 0.209E+04   -.103E-04 -.609E-01 -.208E+04   0.547E-05 0.777E-03 -.641E+01
   0.187E+00 0.303E+00 0.693E+03   -.190E+00 -.314E+00 -.693E+03   0.143E-02 0.748E-02 0.394E+00
   0.121E-04 -.102E-03 0.692E+03   -.165E-04 0.760E-04 -.693E+03   0.912E-05 0.174E-04 0.390E+00
   0.360E+00 -.175E-03 -.699E+03   -.405E+00 0.165E-03 0.699E+03   0.418E-01 0.124E-04 -.216E+00
   -.143E-03 0.288E+00 -.697E+03   0.148E-03 -.290E+00 0.697E+03   -.623E-05 0.465E-02 -.225E+00
   -.651E-03 0.903E+00 -.208E+04   0.709E-01 -.862E+00 0.207E+04   -.422E-01 -.510E-01 0.549E+01
   0.485E-04 -.883E-03 -.208E+04   -.568E-04 0.932E-03 0.207E+04   0.100E-04 -.952E-05 0.544E+01
   -.372E-01 0.182E-04 0.519E+03   0.388E-01 -.899E-05 -.519E+03   -.222E-02 -.116E-04 -.702E-01
   0.339E-05 -.253E+00 0.519E+03   -.642E-05 0.243E+00 -.519E+03   -.113E-05 0.112E-01 -.942E-01
   -.260E-01 -.509E-01 0.157E+04   0.266E-01 0.524E-01 -.157E+04   -.743E-03 -.191E-02 0.312E+01
   0.943E-05 0.319E-05 0.157E+04   -.232E-05 -.363E-05 -.157E+04   -.129E-05 0.218E-06 0.312E+01
   -.130E+00 0.312E-05 -.158E+04   0.109E+00 -.263E-04 0.158E+04   0.334E-01 0.214E-04 -.460E+01
   -.268E-04 -.702E+00 -.158E+04   0.392E-04 0.711E+00 0.158E+04   -.375E-05 0.856E-02 -.448E+01
   -.201E+00 -.433E+00 -.517E+03   0.197E+00 0.434E+00 0.517E+03   0.115E-01 -.229E-02 0.309E+00
   0.979E-03 -.842E-04 -.516E+03   -.104E-02 0.105E-03 0.516E+03   0.356E-04 -.296E-04 0.311E+00
   -.126E+00 -.417E-04 0.519E+03   0.117E+00 0.433E-04 -.519E+03   0.103E-01 0.578E-07 -.957E-01
   -.569E-05 0.253E+00 0.519E+03   0.581E-05 -.243E+00 -.519E+03   -.176E-05 -.113E-01 -.942E-01
   -.260E-01 0.509E-01 0.157E+04   0.266E-01 -.524E-01 -.157E+04   -.746E-03 0.191E-02 0.312E+01
   -.249E-04 -.194E-05 0.157E+04   0.207E-04 0.496E-05 -.157E+04   -.207E-05 0.349E-06 0.312E+01
   -.455E+00 0.253E-04 -.158E+04   0.404E+00 -.164E-04 0.158E+04   0.797E-01 -.241E-04 -.457E+01
   -.131E-03 0.702E+00 -.158E+04   0.130E-03 -.712E+00 0.158E+04   0.193E-05 -.852E-02 -.448E+01
   -.201E+00 0.433E+00 -.517E+03   0.197E+00 -.434E+00 0.517E+03   0.115E-01 0.231E-02 0.309E+00
   -.108E-02 -.251E-03 -.520E+03   0.118E-02 0.259E-03 0.520E+03   -.815E-04 -.275E-06 0.124E+00
   0.371E-01 0.365E-04 0.519E+03   -.386E-01 -.261E-04 -.519E+03   0.221E-02 -.127E-04 -.703E-01
   0.601E-05 -.163E+00 0.519E+03   -.734E-05 0.164E+00 -.519E+03   0.151E-05 -.118E-02 -.822E-01
   0.260E-01 -.509E-01 0.157E+04   -.266E-01 0.525E-01 -.157E+04   0.744E-03 -.191E-02 0.312E+01
   -.551E-05 0.838E-05 0.157E+04   -.241E-05 -.555E-05 -.157E+04   0.829E-06 -.172E-05 0.312E+01
   0.130E+00 0.189E-03 -.158E+04   -.109E+00 -.198E-03 0.158E+04   -.334E-01 0.197E-04 -.460E+01
   -.150E-03 -.344E+00 -.158E+04   0.162E-03 0.380E+00 0.158E+04   -.159E-04 -.354E-01 -.463E+01
   0.201E+00 -.433E+00 -.517E+03   -.197E+00 0.435E+00 0.517E+03   -.115E-01 -.230E-02 0.309E+00
   0.141E-03 0.592E-03 -.517E+03   -.179E-03 -.603E-03 0.517E+03   0.270E-04 0.467E-05 0.254E+00
   0.126E+00 -.530E-04 0.519E+03   -.118E+00 0.570E-04 -.519E+03   -.103E-01 0.103E-05 -.957E-01
   0.111E-04 0.163E+00 0.519E+03   -.209E-04 -.164E+00 -.519E+03   0.441E-05 0.117E-02 -.822E-01
   0.260E-01 0.509E-01 0.157E+04   -.266E-01 -.525E-01 -.157E+04   0.748E-03 0.191E-02 0.312E+01
   0.142E-04 -.505E-05 0.157E+04   -.138E-04 0.556E-05 -.157E+04   0.126E-05 0.253E-05 0.312E+01
   0.455E+00 -.190E-04 -.158E+04   -.405E+00 0.268E-04 0.158E+04   -.796E-01 -.207E-04 -.457E+01
   -.104E-03 0.344E+00 -.158E+04   0.123E-03 -.380E+00 0.158E+04   -.205E-04 0.353E-01 -.463E+01
   0.201E+00 0.433E+00 -.517E+03   -.197E+00 -.435E+00 0.517E+03   -.115E-01 0.231E-02 0.309E+00
   -.744E-03 -.520E-03 -.517E+03   0.840E-03 0.532E-03 0.517E+03   -.818E-04 0.406E-05 0.300E+00
   0.134E-03 0.134E-04 0.183E+02   0.182E-12 0.145E-12 -.682E-11   -.128E-03 -.194E-04 -.161E+02

 POSITION                                       TOTAL-FORCE (eV/Angst)
      2.10122      0.00000      7.50000         0.000126     -0.000004      0.406351
      4.20243      2.10122      7.50000         0.000001      0.000424      0.407367
      2.10122      2.10122      9.60122         0.001053      0.003396      0.031571
      4.20243      0.00000      9.60122         0.000004      0.000005      0.031000
      2.10158      8.40486     11.71115        -0.008141      0.000013      0.006460
      4.20243      2.10256     11.71387        -0.000011      0.004868     -0.011622
      2.10165      2.09916     13.79523        -0.022351      0.012952      0.027676
      4.20243      8.40486     13.79541        -0.000023      0.000016      0.018071
      2.10122      4.20243      7.50000         0.000229      0.000001      0.407519
      4.20243      6.30365      7.50000        -0.000002     -0.000422      0.407354
      2.10122      6.30365      9.60122         0.001057     -0.003401      0.031561
      4.20243      4.20243      9.60122         0.000004      0.000001      0.038227
      2.10264      4.20243     11.71398        -0.001218     -0.000004      0.005348
      4.20243      6.30231     11.71387        -0.000007     -0.004880     -0.011628
      2.10165      6.30571     13.79523        -0.022405     -0.012940      0.027674
      4.20243      4.20243     13.81355         0.000031     -0.000013     -0.101966
      6.30365      0.00000      7.50000        -0.000127      0.000000      0.406354
      0.00000      2.10122      7.50000        -0.000004      0.000320      0.406973
      6.30365      2.10122      9.60122        -0.001052      0.003394      0.031565
      0.00000      0.00000      9.60122        -0.000009      0.000009      0.031972
      6.30328      8.40486     11.71115         0.008182      0.000005      0.006426
      0.00000      2.10154     11.71183         0.000006     -0.002274      0.012179
      6.30321      2.09915     13.79523         0.022344      0.012982      0.027725
      8.40486      0.00000     13.79716         0.000020     -0.000034      0.015745
      6.30365      4.20243      7.50000        -0.000232     -0.000001      0.407535
      0.00000      6.30365      7.50000         0.000002     -0.000320      0.406974
      6.30365      6.30365      9.60122        -0.001052     -0.003403      0.031563
      0.00000      4.20243      9.60122         0.000005     -0.000006      0.036374
      6.30223      4.20243     11.71398         0.001158      0.000004      0.005330
      0.00000      6.30332     11.71183        -0.000003      0.002263      0.012204
      6.30321      6.30571     13.79523         0.022391     -0.012985      0.027698
      0.00000      4.20243     13.79634         0.000002      0.000035      0.040566
      2.10122      0.00000      9.60122        -0.001054     -0.000004      0.043761
      4.20243      2.10122      9.60122        -0.000004      0.003624      0.049615
      2.10122      2.10122      7.50000        -0.000251     -0.000647     -0.493913
      4.20243      0.00000      7.50000         0.000006     -0.000000     -0.493649
      2.10046      8.40486     13.84121         0.017468      0.000001     -0.013032
      4.20243      2.09908     13.83791         0.000008      0.020685      0.034469
      2.10040      2.10139     11.70646         0.009360     -0.001126     -0.004505
      4.20243      0.00000     11.70498        -0.000018     -0.000013      0.009365
      2.10122      4.20243      9.60122         0.002982      0.000002      0.049645
      4.20243      6.30365      9.60122        -0.000002     -0.003630      0.049616
      2.10122      6.30365      7.50000        -0.000253      0.000635     -0.493905
      4.20243      4.20243      7.50000        -0.000007      0.000004     -0.494490
      2.09901      4.20243     13.84531         0.041615     -0.000019     -0.011245
      4.20243      6.30578     13.83791         0.000001     -0.020674      0.034450
      2.10040      6.30347     11.70646         0.009359      0.001133     -0.004523
      4.20243      4.20243     11.70987         0.000007      0.000009     -0.003223
      6.30365      0.00000      9.60122         0.001060     -0.000004      0.043755
      0.00000      2.10122      9.60122         0.000000     -0.000390      0.043087
      6.30365      2.10122      7.50000         0.000257     -0.000654     -0.493916
      0.00000      0.00000      7.50000        -0.000007      0.000001     -0.493337
      6.30440      8.40486     13.84121        -0.017454      0.000014     -0.013021
      8.40486      2.10066     13.84216        -0.000006     -0.004176     -0.021336
      6.30446      2.10139     11.70646        -0.009349     -0.001120     -0.004495
      0.00000      0.00000     11.70642        -0.000008     -0.000007     -0.009932
      6.30365      4.20243      9.60122        -0.002969      0.000006      0.049657
      0.00000      6.30365      9.60122        -0.000005      0.000384      0.043093
      6.30365      6.30365      7.50000         0.000253      0.000653     -0.493914
      0.00000      4.20243      7.50000         0.000002      0.000003     -0.493977
      6.30585      4.20243     13.84531        -0.041622     -0.000016     -0.011253
      0.00000      6.30420     13.84216        -0.000005      0.004184     -0.021364
      6.30446      6.30347     11.70646        -0.009347      0.001120     -0.004520
      0.00000      4.20243     11.70689         0.000004      0.000018     -0.005111
    total drift:                               -0.000005     -0.000007      0.007696

  FREE ENERGIE OF THE ION-ELECTRON SYSTEM (eV)
  free  energy   TOTEN  =      -438.72161673 eV

  energy  without entropy=     -438.72161673  energy(sigma->0) =     -438.72161673