 vasp.6.4.2 20Jul23 (build Feb 22 2024 13:53:45) complex
 executed on              LinuxNV date 2024.08.27  22:17:27
 OpenACC runtime initialized ...    4 GPUs detected

 INCAR:
   SYSTEM = Oxide-Surface
   ISMEAR = 0
   SIGMA = 0.05
   EDIFF = 1E-5
   ALGO = Normal
   IBRION = -1
   NSW = 0
   ISYM = 0
   DIPOL = 0.5 0.5 0.5
   IDIPOL = 3
   LDIPOL = .TRUE.
   ISTART = 1
   LHFCALC = .TRUE.
   GGA = PE
   IVDW = 21
   VDW_SR = 0.96
   HFRCUT = -1
   ENCUT = 520
   PREC = Normal
   PRECFOCK = Normal
   LASPH = .TRUE.
   LREAL = Auto
   ISPIN = 1
   NELM = 200
   NELMIN = 8
   NCORE = 1
   KPAR = 1
   LWAVE = .FALSE.
   LCHARG = .FALSE.

 POTCAR:    PAW_PBE N 08Apr2002
 POTCAR:    PAW_PBE O 08Apr2002
 POTCAR:    PAW_PBE Mg_pv 13Apr2007
 POTCAR:    PAW_PBE O 08Apr2002
 POTCAR:    PAW_PBE N 08Apr2002
   VRHFIN =N: s2p3

   TITEL  = PAW_PBE N 08Apr2002
   POMASS =   14.001; ZVAL   =    5.000    mass and valenz
   ENMAX  =  400.000; ENMIN  =  300.000 eV

[...]

   TITEL  = PAW_PBE Mg_pv 13Apr2007
   POMASS =   24.305; ZVAL   =    8.000    mass and valenz
   ENMAX  =  403.929; ENMIN  =  302.947 eV

   TITEL  = PAW_PBE O 08Apr2002
   POMASS =   16.000; ZVAL   =    6.000    mass and valenz
   ENMAX  =  400.000; ENMIN  =  300.000 eV

 Optimization of the real space projectors (new method)

 maximal supplied QI-value         = 25.13
 optimisation between [QCUT,QGAM] = [ 11.56, 23.12] = [ 37.43,149.72] Ry
 Optimized for a Real-space Cutoff    1.25 Angstroem

   l    n(q)    QCUT    max X(q) W(low)/X(q) W(high)/X(q)  e(spline)
   0      9    11.561    79.467    0.52E-04    0.16E-03    0.37E-06
   0      9    11.561    66.151    0.51E-04    0.16E-03    0.37E-06
   1      8    11.561    18.886    0.46E-03    0.28E-03    0.80E-06
   1      8    11.561    13.488    0.47E-03    0.29E-03    0.82E-06
 Optimization of the real space projectors (new method)

[...]

   l    n(q)    QCUT    max X(q) W(low)/X(q) W(high)/X(q)  e(spline)
   1      8    11.527     2.974    0.16E-03    0.13E-03    0.98E-07
   1      8    11.527     4.279    0.42E-03    0.30E-03    0.22E-06
   0      8    11.527    16.381    0.13E-03    0.20E-03    0.72E-07
   0      8    11.527     5.611    0.88E-04    0.13E-03    0.50E-07
   2      7    11.527     4.652    0.25E-03    0.73E-04    0.51E-07
 Optimization of the real space projectors (new method)

 maximal supplied QI-value         = 24.76
 optimisation between [QCUT,QGAM] = [ 11.64, 23.27] = [ 37.91,151.63] Ry
 Optimized for a Real-space Cutoff    1.04 Angstroem

   l    n(q)    QCUT    max X(q) W(low)/X(q) W(high)/X(q)  e(spline)
   0      7    11.635    20.381    0.14E-03    0.49E-03    0.18E-06
   0      7    11.635    15.268    0.16E-03    0.52E-03    0.19E-06
   1      7    11.635     5.964    0.30E-03    0.44E-03    0.22E-06
   1      7    11.635     5.382    0.27E-03    0.34E-03    0.19E-06
  PAW_PBE N 08Apr2002                   :
  PAW_PBE O 08Apr2002                   :
  PAW_PBE Mg_pv 13Apr2007               :
  PAW_PBE O 08Apr2002                   :

 POSCAR:  N  O Mg  O
  positions in direct lattice
 exchange correlation table for  LEXCH =        8
   RHO(1)=    0.500       N(1)  =     2000
   RHO(2)=  100.500       N(2)  =     4000

 ion  position               nearest neighbor table
   1  0.493  0.519  0.704-   2 1.14
   2  0.471  0.594  0.759-   1 1.14   3 1.20
   3  0.448  0.673  0.816-   2 1.20
   4  0.000  0.750  0.184-  36 2.11  38 2.11  39 2.11  46 2.11  55 2.11
   5  0.250  0.000  0.184-  37 2.11  38 2.11  39 2.11  47 2.11  54 2.11
   6  0.000  0.000  0.308-  38 2.11  37 2.11  36 2.11  44 2.11  53 2.11  42 2.12
   7  0.250  0.750  0.308-  39 2.11  37 2.11  36 2.11  45 2.11  52 2.11  43 2.12
   8  1.000  0.750  0.433-  50 2.11  59 2.11  42 2.11  43 2.11  36 2.12  40 2.15
   9  0.250  0.000  0.433-  51 2.11  58 2.11  43 2.11  42 2.11  37 2.12  41 2.15
  10  1.000  0.000  0.557-  48 2.11  57 2.11  42 2.11  41 2.11  40 2.11
  11  0.250  0.750  0.556-  43 2.10  40 2.11  41 2.11  49 2.11  56 2.11
  12  0.000  0.250  0.184-  44 2.11  38 2.11  46 2.11  47 2.11  63 2.11
  13  0.250  0.500  0.184-  45 2.11  39 2.11  46 2.11  47 2.11  62 2.11
  14  0.000  0.500  0.308-  46 2.11  44 2.11  45 2.11  36 2.11  61 2.11  50 2.12
  15  0.250  0.250  0.308-  47 2.11  44 2.11  45 2.11  37 2.11  60 2.11  51 2.12
  16  1.000  0.250  0.433-  67 2.11  51 2.11  50 2.11  42 2.11  44 2.12  48 2.15
  17  0.250  0.500  0.433-  66 2.11  51 2.11  43 2.11  50 2.11  45 2.13  49 2.15
  18  1.000  0.500  0.556-  65 2.10  49 2.10  50 2.11  48 2.11  40 2.11
  19  0.250  0.250  0.556-  51 2.11  64 2.11  48 2.11  41 2.11  49 2.11
  20  0.500  0.750  0.184-  52 2.11  39 2.11  54 2.11  55 2.11  62 2.11
  21  0.750  0.000  0.184-  53 2.11  38 2.11  54 2.11  55 2.11  63 2.11
  22  0.500  0.000  0.308-  54 2.11  52 2.11  53 2.11  37 2.11  60 2.11  58 2.12
  23  0.750  0.750  0.308-  55 2.11  52 2.11  53 2.11  36 2.11  61 2.11  59 2.12
  24  0.500  0.750  0.433-  66 2.11  59 2.11  43 2.11  58 2.11  52 2.13  56 2.15
  25  0.750  0.000  0.433-  67 2.11  58 2.11  59 2.11  42 2.11  53 2.12  57 2.15
  26  0.500  0.000  0.556-  64 2.10  56 2.11  58 2.11  57 2.11  41 2.11
  27  0.750  0.750  0.556-  59 2.10  65 2.11  40 2.11  57 2.11  56 2.11
  28  0.500  0.250  0.184-  60 2.11  54 2.11  47 2.11  62 2.11  63 2.11
  29  0.750  0.500  0.184-  61 2.11  55 2.11  46 2.11  62 2.11  63 2.11
  30  0.500  0.500  0.308-  62 2.11  52 2.11  60 2.11  61 2.11  45 2.11  66 2.13
  31  0.750  0.250  0.308-  63 2.11  53 2.11  60 2.11  61 2.11  44 2.11  67 2.12
  32  0.500  0.250  0.433-  66 2.11  67 2.11  51 2.11  58 2.12  60 2.13  64 2.14
  33  0.750  0.500  0.433-  66 2.11  67 2.11  59 2.11  50 2.11  61 2.13  65 2.14
  34  0.500  0.499  0.559-  64 2.11  65 2.12  49 2.12  56 2.12  66 2.15
  35  0.750  0.250  0.556-  67 2.11  64 2.11  65 2.11  48 2.11  57 2.11
  36  0.000  0.750  0.308-   4 2.11   6 2.11   7 2.11  14 2.11  23 2.11   8 2.12
  37  0.250  0.000  0.308-   5 2.11   6 2.11   7 2.11  15 2.11  22 2.11   9 2.12
  38  0.000  0.000  0.184-   6 2.11   5 2.11   4 2.11  12 2.11  21 2.11
  39  0.250  0.750  0.184-   7 2.11   5 2.11   4 2.11  13 2.11  20 2.11
  40  0.000  0.750  0.559-  11 2.11  27 2.11  10 2.11  18 2.11   8 2.15
  41  0.250  1.000  0.559-  11 2.11  10 2.11  19 2.11  26 2.11   9 2.15
  42  0.000  1.000  0.432-  10 2.11   8 2.11   9 2.11  25 2.11  16 2.11   6 2.12
  43  0.250  0.750  0.432-  11 2.10  24 2.11   8 2.11   9 2.11  17 2.11   7 2.12
  44  0.000  0.250  0.308-  12 2.11   6 2.11  14 2.11  15 2.11  31 2.11  16 2.12
  45  0.250  0.500  0.308-  13 2.11   7 2.11  14 2.11  15 2.11  30 2.11  17 2.13
  46  0.000  0.500  0.184-  14 2.11  12 2.11  13 2.11   4 2.11  29 2.11
  47  0.250  0.250  0.184-  15 2.11  12 2.11  13 2.11   5 2.11  28 2.11
  48  0.000  0.250  0.559-  10 2.11  19 2.11  18 2.11  35 2.11  16 2.15
  49  0.249  0.500  0.559-  18 2.10  11 2.11  19 2.11  34 2.12  17 2.15
  50  0.000  0.500  0.432-  18 2.11   8 2.11  16 2.11  17 2.11  33 2.11  14 2.12
  51  0.250  0.250  0.432-  19 2.11   9 2.11  16 2.11  17 2.11  32 2.11  15 2.12
  52  0.500  0.750  0.308-  20 2.11   7 2.11  22 2.11  23 2.11  30 2.11  24 2.13
  53  0.750  0.000  0.308-  21 2.11   6 2.11  22 2.11  23 2.11  31 2.11  25 2.12
  54  0.500  0.000  0.184-  22 2.11  20 2.11  21 2.11   5 2.11  28 2.11
  55  0.750  0.750  0.184-  23 2.11  20 2.11  21 2.11   4 2.11  29 2.11
  56  0.500  0.751  0.560-  26 2.11  11 2.11  27 2.11  34 2.12  24 2.15
  57  0.750  1.000  0.559-  10 2.11  27 2.11  35 2.11  26 2.11  25 2.15
  58  0.500  1.000  0.432-  26 2.11   9 2.11  25 2.11  24 2.11  32 2.12  22 2.12
  59  0.750  0.750  0.432-  27 2.10   8 2.11  24 2.11  25 2.11  33 2.11  23 2.12
  60  0.500  0.250  0.308-  28 2.11  22 2.11  15 2.11  30 2.11  31 2.11  32 2.13
  61  0.750  0.500  0.308-  29 2.11  23 2.11  14 2.11  30 2.11  31 2.11  33 2.13
  62  0.500  0.500  0.184-  30 2.11  20 2.11  28 2.11  29 2.11  13 2.11
  63  0.750  0.250  0.184-  31 2.11  21 2.11  28 2.11  29 2.11  12 2.11
  64  0.500  0.249  0.559-  26 2.10  19 2.11  35 2.11  34 2.11  32 2.14
  65  0.751  0.500  0.559-  18 2.10  27 2.11  35 2.11  34 2.12  33 2.14
  66  0.500  0.500  0.433-  24 2.11  17 2.11  33 2.11  32 2.11  30 2.13  34 2.15
  67  0.750  0.250  0.432-  35 2.11  25 2.11  16 2.11  33 2.11  32 2.11  31 2.12

IMPORTANT INFORMATION: All symmetrisations will be switched off!
NOSYMM: (Re-)initialisation of all symmetry stuff for point group C_1.

                                     Primitive cell

  volume of cell :    1211.2538

  direct lattice vectors                    reciprocal lattice vectors
     8.440984654  0.000000000  0.000000000     0.118469591  0.000000000  0.000000000
     0.000000000  8.440984654  0.000000000     0.000000000  0.118469591  0.000000000
     0.000000000  0.000000000 17.000000000     0.000000000  0.000000000  0.058823529

  length of vectors
     8.440984654  8.440984654 17.000000000     0.118469591  0.118469591  0.058823529

  position of ions in fractional coordinates (direct lattice)
     0.493401810  0.519418636  0.703797525
     0.471142627  0.594219820  0.758820503
     0.447551698  0.673306372  0.816300477
     0.000003678  0.750014635  0.183699523
     0.250003678  0.000014635  0.183699523
     0.000003678  0.000014635  0.307831651
     0.250003678  0.750014635  0.307831651
     0.999958025  0.749958546  0.432677010
     0.250062895  0.000098256  0.432697074
     0.999978292  0.000093413  0.556574763
     0.249803788  0.750119214  0.556064616
     0.000003678  0.250014635  0.183699523
     0.250003678  0.500014635  0.183699523
     0.000003678  0.500014635  0.307831651
     0.250003678  0.250014635  0.307831651
     0.999996322  0.250085902  0.432737287
     0.250470277  0.499951058  0.432993793
     0.999914270  0.499958742  0.556347633
     0.250074935  0.249987426  0.556432786
     0.500003678  0.750014635  0.183699523
     0.750003678  0.000014635  0.183699523
     0.500003678  0.000014635  0.307831651
     0.750003678  0.750014635  0.307831651
     0.500022849  0.749528416  0.433004734
     0.749934873  0.000060439  0.432720256
     0.500004313  0.000298773  0.556352798
     0.750109261  0.749994940  0.556245449
     0.500003678  0.250014635  0.183699523
     0.750003678  0.500014635  0.183699523
     0.500003678  0.500014635  0.307831651
     0.750003678  0.250014635  0.307831651
     0.500018596  0.250408803  0.433022603
     0.749557443  0.499957022  0.433006493
     0.500185527  0.499326999  0.559321507
     0.749946987  0.250008855  0.556456309
     0.000003678  0.750014635  0.307831651
     0.250003678  0.000014635  0.307831651
     0.000003678  0.000014635  0.183699523
     0.250003678  0.750014635  0.183699523
     0.000015879  0.750145562  0.559430108
     0.249854125  0.999935043  0.559420358
     0.000005749  0.999985365  0.432483484
     0.249992579  0.750062832  0.432464910
     0.000003678  0.250014635  0.307831651
     0.250003678  0.500014635  0.307831651
     0.000003678  0.500014635  0.183699523
     0.250003678  0.250014635  0.183699523
     0.000025477  0.249903447  0.559432479
     0.249186912  0.500166699  0.559369032
     0.000048645  0.500056722  0.432413803
     0.249905202  0.249983746  0.432457768
[...]
   O         196.048          4.870         19.143          3.54501074
   O         201.210          4.891         19.393          3.59138171
   O         189.327          4.841         18.812          3.48371457
   O         244.073          5.051         21.359          3.95545391
   O         244.756          5.053         21.389          3.96098504
   O         237.285          5.027         21.060          3.90006077
   O         237.272          5.027         21.060          3.89995421
   O         196.236          4.870         19.152          3.54671009
   O         196.071          4.870         19.144          3.54522230
   O         198.016          4.878         19.239          3.56275553
   O         198.383          4.879         19.257          3.56605864
   O         240.359          5.038         21.196          3.92524427
   O         244.631          5.053         21.384          3.95996894

  vdW correction parametrized for the method ÀÎ>    þ

  IVDW =  21
  VDW_RADIUS =    50.000 A
  VDW_IDAMPF =  0
  VDW_S6 =     1.000
  VDW_SR =     0.960
  VDW_D =    20.000
  LVDW_ONECELL = F F F
  LVDW_SAMETYPE T T T T
  LVDW_EWALD = F

  Number of pair interactions contributing to vdW energy:  978317
  Edisp (eV):   -4.01008

 VOLUME and BASIS-vectors are now :
  energy-cutoff  :      520.00
  volume of cell :     1211.25
      direct lattice vectors                 reciprocal lattice vectors
     8.440984654  0.000000000  0.000000000     0.118469591  0.000000000  0.000000000
     0.000000000  8.440984654  0.000000000     0.000000000  0.118469591  0.000000000
     0.000000000  0.000000000 17.000000000     0.000000000  0.000000000  0.058823529

  length of vectors
     8.440984654  8.440984654 17.000000000     0.118469591  0.118469591  0.058823529

 FORCES acting on ions
    electron-ion (+dipol)            ewald-force                    non-local-force                 convergence-correction
   -.482E+02 0.162E+03 -.700E+03   0.563E+02 -.189E+03 0.660E+03   -.764E+01 0.257E+02 0.375E+02   0.103E-02 -.330E-02 0.852E-01
   -.446E+01 0.148E+02 -.616E+03   0.429E+01 -.141E+02 0.616E+03   0.310E+00 -.112E+01 -.128E+01   0.155E-02 -.520E-02 0.712E-01
   0.502E+02 -.168E+03 -.631E+03   -.612E+02 0.205E+03 0.684E+03   0.960E+01 -.322E+02 -.471E+02   0.905E-04 -.188E-03 0.672E-01
   0.576E+00 -.109E+01 0.170E+04   -.572E+00 0.109E+01 -.169E+04   -.240E-02 -.208E-03 -.677E+01   -.220E-03 0.990E-04 -.130E+00
   0.176E+01 -.148E+01 0.170E+04   -.176E+01 0.147E+01 -.169E+04   -.386E-02 0.521E-02 -.677E+01   -.403E-03 0.566E-03 -.130E+00
   0.244E+00 -.651E+00 0.581E+03   -.247E+00 0.660E+00 -.581E+03   0.188E-02 -.564E-02 0.460E+00   -.424E-04 0.919E-04 -.900E-01
   0.116E+01 -.835E+00 0.582E+03   -.113E+01 0.813E+00 -.582E+03   -.182E-01 0.134E-01 0.469E+00   0.149E-03 -.288E-03 -.889E-01
   0.826E+00 -.354E+01 -.523E+03   -.836E+00 0.351E+01 0.523E+03   0.938E-02 0.249E-01 -.116E+00   0.350E-05 -.105E-02 -.135E-01
   0.428E+01 -.212E+01 -.524E+03   -.425E+01 0.215E+01 0.524E+03   -.234E-01 -.225E-01 -.127E+00   0.845E-03 -.484E-04 -.136E-01
   0.223E+01 -.563E+01 -.164E+04   -.223E+01 0.565E+01 0.164E+04   0.389E-02 -.202E-01 0.570E+01   -.227E-03 0.539E-03 0.670E-01
   0.300E+02 -.240E+02 -.160E+04   -.301E+02 0.241E+02 0.159E+04   0.741E-01 -.391E-01 0.577E+01   0.335E-02 -.374E-02 0.668E-01
   0.426E+00 0.108E+01 0.170E+04   -.424E+00 -.108E+01 -.169E+04   -.111E-02 0.174E-03 -.678E+01   -.165E-03 -.953E-04 -.131E+00
   0.216E+01 0.151E+01 0.170E+04   -.215E+01 -.150E+01 -.169E+04   -.538E-02 -.535E-02 -.679E+01   -.501E-03 -.569E-03 -.129E+00
   0.281E+00 0.654E+00 0.582E+03   -.279E+00 -.662E+00 -.582E+03   -.132E-02 0.520E-02 0.413E+00   -.342E-04 -.739E-04 -.892E-01
   0.101E+01 0.829E+00 0.582E+03   -.995E+00 -.806E+00 -.582E+03   -.877E-02 -.143E-01 0.447E+00   0.159E-03 0.282E-03 -.893E-01
   0.595E+00 0.351E+01 -.527E+03   -.600E+00 -.348E+01 0.527E+03   0.375E-02 -.242E-01 -.140E+00   0.275E-04 0.105E-02 -.133E-01
   0.624E+01 0.221E+01 -.515E+03   -.610E+01 -.224E+01 0.516E+03   -.120E+00 0.224E-01 -.278E+00   0.922E-03 0.769E-04 -.107E-01
   0.356E+01 0.603E+01 -.163E+04   -.359E+01 -.606E+01 0.162E+04   0.271E-01 0.202E-01 0.572E+01   0.132E-03 -.527E-03 0.674E-01
   0.220E+02 0.220E+02 -.162E+04   -.221E+02 -.220E+02 0.162E+04   -.339E-02 0.385E-01 0.576E+01   0.234E-02 0.363E-02 0.684E-01
   -.600E+00 -.150E+01 0.169E+04   0.596E+00 0.149E+01 -.169E+04   0.249E-02 0.139E-02 -.678E+01   0.217E-03 0.200E-03 -.129E+00
   -.175E+01 -.133E+01 0.170E+04   0.175E+01 0.132E+01 -.169E+04   0.386E-02 0.392E-02 -.678E+01   0.401E-03 0.517E-03 -.130E+00
   -.247E+00 -.802E+00 0.582E+03   0.249E+00 0.793E+00 -.582E+03   -.168E-02 0.555E-02 0.419E+00   0.269E-04 0.106E-03 -.892E-01
   -.116E+01 -.798E+00 0.582E+03   0.113E+01 0.779E+00 -.582E+03   0.190E-01 0.110E-01 0.466E+00   -.150E-03 -.281E-03 -.891E-01
   -.877E+00 -.546E+01 -.514E+03   0.887E+00 0.533E+01 0.514E+03   -.886E-02 0.116E+00 -.171E+00   -.256E-04 -.113E-02 -.107E-01
   -.426E+01 -.189E+01 -.525E+03   0.423E+01 0.191E+01 0.525E+03   0.233E-01 -.167E-01 -.130E+00   -.849E-03 -.599E-04 -.134E-01
   -.249E+01 -.115E+02 -.162E+04   0.250E+01 0.116E+02 0.161E+04   -.332E-02 -.101E+00 0.571E+01   0.236E-03 -.407E-03 0.665E-01
   -.289E+02 -.218E+02 -.161E+04   0.290E+02 0.219E+02 0.160E+04   -.698E-01 -.134E-01 0.577E+01   -.331E-02 -.334E-02 0.675E-01
   -.433E+00 0.146E+01 0.170E+04   0.432E+00 -.146E+01 -.169E+04   0.110E-02 -.115E-02 -.679E+01   0.170E-03 -.194E-03 -.130E+00
   -.214E+01 0.135E+01 0.170E+04   0.213E+01 -.134E+01 -.169E+04   0.529E-02 -.396E-02 -.679E+01   0.499E-03 -.521E-03 -.130E+00
   -.283E+00 0.803E+00 0.582E+03   0.282E+00 -.799E+00 -.582E+03   0.611E-03 -.279E-02 0.507E+00   0.243E-04 -.853E-04 -.883E-01
   -.101E+01 0.792E+00 0.582E+03   0.994E+00 -.774E+00 -.582E+03   0.858E-02 -.110E-01 0.438E+00   -.151E-03 0.273E-03 -.894E-01
   -.621E+00 0.540E+01 -.517E+03   0.625E+00 -.526E+01 0.517E+03   -.359E-02 -.118E+00 -.431E+00   -.146E-04 0.116E-02 -.114E-01
   -.620E+01 0.196E+01 -.516E+03   0.607E+01 -.198E+01 0.517E+03   0.121E+00 0.170E-01 -.350E+00   -.933E-03 0.727E-04 -.110E-01
   -.590E+01 0.181E+02 -.153E+04   0.594E+01 -.183E+02 0.152E+04   -.362E-01 0.135E+00 0.493E+01   -.310E-03 0.940E-03 0.810E-01
   -.216E+02 0.203E+02 -.163E+04   0.216E+02 -.203E+02 0.162E+04   0.295E-02 0.161E-01 0.576E+01   -.233E-02 0.326E-02 0.687E-01
   0.201E+00 -.632E+00 0.436E+03   -.199E+00 0.620E+00 -.436E+03   -.205E-02 0.144E-01 -.852E-01   -.236E-04 -.215E-03 -.696E-01
   0.839E+00 -.518E+00 0.436E+03   -.826E+00 0.518E+00 -.436E+03   -.152E-01 0.597E-03 -.933E-01   0.118E-03 0.700E-04 -.696E-01
   0.339E+00 -.875E+00 0.128E+04   -.338E+00 0.872E+00 -.128E+04   -.128E-02 0.291E-02 0.303E+01   -.126E-03 0.343E-03 -.999E-01
   0.166E+01 -.101E+01 0.127E+04   -.165E+01 0.100E+01 -.128E+04   -.914E-02 0.328E-02 0.304E+01   -.381E-03 0.118E-03 -.988E-01
   0.297E+01 -.909E+01 -.124E+04   -.298E+01 0.906E+01 0.125E+04   0.687E-02 0.376E-01 -.449E+01   -.147E-03 -.157E-02 0.504E-01
   0.116E+02 -.752E+01 -.124E+04   -.116E+02 0.753E+01 0.125E+04   -.401E-01 -.102E-01 -.450E+01   0.109E-02 0.279E-03 0.503E-01
   0.484E+00 -.129E+01 -.391E+03   -.486E+00 0.130E+01 0.391E+03   0.150E-02 -.917E-02 0.202E+00   -.111E-04 0.275E-04 -.144E-01
   0.409E+01 -.338E+01 -.382E+03   -.408E+01 0.336E+01 0.381E+03   -.667E-02 0.153E-01 0.345E+00   0.853E-03 -.950E-03 -.134E-01
   0.169E+00 0.632E+00 0.436E+03   -.170E+00 -.621E+00 -.435E+03   0.140E-02 -.130E-01 -.111E+00   -.267E-04 0.214E-03 -.698E-01
   0.953E+00 0.525E+00 0.436E+03   -.972E+00 -.526E+00 -.436E+03   0.213E-01 0.191E-02 -.149E+00   0.115E-03 -.674E-04 -.691E-01
   0.410E+00 0.883E+00 0.127E+04   -.408E+00 -.880E+00 -.128E+04   -.216E-02 -.259E-02 0.302E+01   -.147E-03 -.339E-03 -.995E-01
   0.128E+01 0.985E+00 0.127E+04   -.127E+01 -.983E+00 -.128E+04   -.502E-02 -.253E-02 0.302E+01   -.272E-03 -.118E-03 -.996E-01
   0.175E+01 0.877E+01 -.125E+04   -.175E+01 -.873E+01 0.125E+04   -.125E-03 -.428E-01 -.449E+01   -.583E-04 0.156E-02 0.514E-01
   0.322E+02 0.918E+01 -.120E+04   -.320E+02 -.920E+01 0.121E+04   -.184E+00 0.618E-02 -.445E+01   0.375E-02 -.157E-03 0.534E-01
   0.567E+00 0.131E+01 -.386E+03   -.571E+00 -.132E+01 0.385E+03   0.361E-02 0.713E-02 0.250E+00   0.547E-04 -.269E-04 -.134E-01
   0.363E+01 0.330E+01 -.385E+03   -.361E+01 -.328E+01 0.385E+03   -.246E-01 -.177E-01 0.257E+00   0.642E-03 0.932E-03 -.135E-01
   -.206E+00 -.747E+00 0.436E+03   0.206E+00 0.770E+00 -.436E+03   0.133E-03 -.246E-01 -.150E+00   0.283E-04 -.213E-03 -.690E-01
   -.838E+00 -.486E+00 0.436E+03   0.826E+00 0.488E+00 -.435E+03   0.147E-01 -.281E-02 -.102E+00   -.110E-03 0.733E-04 -.697E-01
   -.347E+00 -.124E+01 0.127E+04   0.346E+00 0.123E+01 -.128E+04   0.141E-02 0.666E-02 0.303E+01   0.129E-03 0.448E-03 -.992E-01
   -.164E+01 -.928E+00 0.127E+04   0.163E+01 0.926E+00 -.128E+04   0.904E-02 0.220E-02 0.303E+01   0.383E-03 0.932E-04 -.991E-01
   -.396E+01 -.311E+02 -.119E+04   0.396E+01 0.309E+02 0.120E+04   -.479E-02 0.221E+00 -.439E+01   0.100E-03 -.442E-02 0.530E-01
   -.114E+02 -.623E+01 -.124E+04   0.114E+02 0.624E+01 0.125E+04   0.401E-01 -.280E-02 -.449E+01   -.110E-02 0.187E-03 0.507E-01
   -.498E+00 -.167E+01 -.384E+03   0.500E+00 0.169E+01 0.384E+03   -.141E-02 -.172E-01 0.254E+00   0.170E-04 -.180E-03 -.136E-01
   -.405E+01 -.327E+01 -.383E+03   0.404E+01 0.325E+01 0.383E+03   0.720E-02 0.202E-01 0.309E+00   -.842E-03 -.875E-03 -.134E-01
   -.169E+00 0.735E+00 0.436E+03   0.170E+00 -.751E+00 -.435E+03   -.858E-03 0.180E-01 -.151E+00   0.254E-04 0.207E-03 -.693E-01
   -.949E+00 0.488E+00 0.436E+03   0.967E+00 -.490E+00 -.436E+03   -.196E-01 0.299E-02 -.150E+00   -.105E-03 -.708E-04 -.692E-01
   -.425E+00 0.127E+01 0.127E+04   0.423E+00 -.126E+01 -.128E+04   0.248E-02 -.693E-02 0.302E+01   0.153E-03 -.457E-03 -.986E-01
   -.127E+01 0.914E+00 0.128E+04   0.127E+01 -.913E+00 -.128E+04   0.508E-02 -.165E-02 0.301E+01   0.270E-03 -.942E-04 -.998E-01
   -.210E+01 0.268E+02 -.122E+04   0.210E+01 -.267E+02 0.122E+04   -.171E-02 -.143E+00 -.449E+01   0.331E-04 0.387E-02 0.531E-01
   -.306E+02 0.747E+01 -.121E+04   0.305E+02 -.748E+01 0.122E+04   0.163E+00 0.417E-02 -.448E+01   -.357E-02 -.897E-04 0.534E-01
   -.607E+00 0.176E+01 -.382E+03   0.613E+00 -.179E+01 0.382E+03   -.603E-02 0.238E-01 -.235E+00   -.550E-04 0.162E-03 -.118E-01
   -.361E+01 0.320E+01 -.386E+03   0.359E+01 -.318E+01 0.386E+03   0.243E-01 -.219E-01 0.248E+00   -.655E-03 0.875E-03 -.135E-01
   -.306E+01 0.103E+02 0.386E+02   0.576E-12 0.284E-12 0.341E-12   0.224E+01 -.754E+01 -.291E+02   0.262E-02 -.861E-02 -.211E+01

 POSITION                                       TOTAL-FORCE (eV/Angst)
      4.16480      4.38440     11.96456        -0.419997      1.413807      2.200133
      3.97691      5.01580     12.89995         0.173731     -0.581131     -0.924820
      3.77778      5.68337     13.87711         0.249833     -0.830762     -1.188260
      0.00003      6.33086      3.12289         0.001025      0.000028      0.545981
      2.11028      0.00012      3.12289         0.001716     -0.002239      0.545609
      0.00003      0.00012      5.23314        -0.000910      0.002558      0.033800
      2.11028      6.33086      5.23314         0.008302     -0.006447      0.035678
      8.44063      6.33039      7.35551        -0.000151     -0.003062      0.048916
      2.11078      0.00083      7.35585         0.002059      0.000845      0.047980
      8.44080      0.00079      9.46177         0.000194     -0.000821     -0.148428
      2.10859      6.33174      9.45310        -0.010672      0.007972     -0.155342
      0.00003      2.11037      3.12289         0.000444     -0.000035      0.551008
      2.11028      4.22062      3.12289         0.002160      0.002362      0.549887
      0.00003      4.22062      5.23314         0.000428     -0.002383      0.049027
      2.11028      2.11037      5.23314         0.004819      0.006946      0.039958
      8.44095      2.11097      7.35653        -0.000413      0.002184      0.046727
      2.11422      4.22008      7.36089         0.000405     -0.001336      0.041524
      8.44026      4.22014      9.45791         0.000939     -0.000579     -0.147062
      2.11088      2.11014      9.45936        -0.008556     -0.006657     -0.151259
      4.22052      6.33086      3.12289        -0.001122     -0.000506      0.545521
      6.33077      0.00012      3.12289        -0.001760     -0.001678      0.547707
      4.22052      0.00012      5.23314         0.000685     -0.002184      0.047715
      6.33077      6.33086      5.23314        -0.008865     -0.005668      0.037286
      4.22069      6.32676      7.36108         0.000188     -0.000823      0.039278
      6.33019      0.00051      7.35624        -0.002046      0.001115      0.047205
      4.22053      0.00252      9.45800        -0.000002     -0.001541     -0.147429
      6.33166      6.33070      9.45617         0.010234      0.007721     -0.154466
      4.22052      2.11037      3.12289        -0.000496      0.000320      0.552463
      6.33077      4.22062      3.12289        -0.002144      0.001740      0.552227
      4.22052      4.22062      5.23314        -0.000086      0.000342      0.056566
      6.33077      2.11037      5.23314        -0.004792      0.005569      0.041428
      4.22065      2.11370      7.36138         0.000097      0.002071      0.038440
      6.32700      4.22013      7.36111        -0.000965     -0.001253      0.040577
      4.22206      4.21481      9.50847         0.002427     -0.009738     -0.217757
      6.33029      2.11032      9.45976         0.007717     -0.006223     -0.150041
      0.00003      6.33086      5.23314        -0.000529      0.005156      0.058343
      2.11028      0.00012      5.23314        -0.005334     -0.000111      0.057079
      0.00003      0.00012      3.12289        -0.000405      0.000950     -0.443489
      2.11028      6.33086      3.12289        -0.002884      0.001064     -0.441026
      0.00013      6.33197      9.51031        -0.001167      0.001754     -0.110721
      2.10901      8.44044      9.51015        -0.000126      0.002268     -0.112044
      0.00005      8.44086      7.35222         0.000225     -0.001399      0.005086
      2.11018      6.33127      7.35190        -0.001272      0.002660      0.011853
      0.00003      2.11037      5.23314         0.000510     -0.004544      0.054226
      2.11028      4.22062      5.23314         0.005795      0.001051      0.062638
      0.00003      4.22062      3.12289        -0.000692     -0.000707     -0.446728
      2.11028      2.11037      3.12289        -0.001550     -0.000695     -0.446709
      0.00022      2.10943      9.51035         0.000060     -0.004024     -0.112378
      2.10338      4.22190      9.50927        -0.010045     -0.003624     -0.115498
      0.00041      4.22097      7.35103         0.000212      0.001103      0.004897
      2.10945      2.11011      7.35178        -0.003056     -0.002937      0.012310
      4.22052      6.33086      5.23314        -0.000047     -0.006770      0.062765
      6.33077      0.00012      5.23314         0.005165     -0.001139      0.056053
      4.22052      0.00012      3.12289         0.000420      0.002146     -0.443383
      6.33077      6.33086      3.12289         0.002818      0.000704     -0.443528
      4.21977      6.33800      9.51522         0.000257      0.016278     -0.116736
      6.33184      8.44035      9.51055        -0.000083      0.002166     -0.111958
      4.22043      8.43964      7.35109        -0.000261     -0.001863      0.006121
      6.33067      6.33140      7.35218         0.001124      0.003058      0.012424
      4.22052      2.11037      5.23314        -0.000364      0.004977      0.064856
      6.33077      4.22062      5.23314        -0.005280      0.001391      0.063453
      4.22052      4.22062      3.12289         0.000787     -0.002145     -0.447059
      6.33077      2.11037      3.12289         0.001560     -0.000415     -0.447935
      4.22040      2.10272      9.50165        -0.000146     -0.003838     -0.104460
      6.33763      4.22131      9.50569         0.007633     -0.002904     -0.113266
      4.22031      4.22133      7.35999        -0.000807      0.003298      0.014740
      6.33165      2.10974      7.35154         0.003058     -0.003424      0.012293
    total drift:                                0.002095      0.001802      0.137880

  FREE ENERGIE OF THE ION-ELECTRON SYSTEM (eV)
  free  energy   TOTEN  =      -496.22230812 eV

  energy  without entropy=     -496.22230812  energy(sigma->0) =     -496.22230812