 vasp.6.3.0 20Jan22 (build Apr  1 2022 16:44:48) complex
 executed on        HPECrayEX_GCC date 2022.11.09  20:09:24

 INCAR:
   SYSTEM = MgO-rocksalt
   ISMEAR = 0
   SIGMA = 0.05
   EDIFF = 1E-7
   ALGO = ALL
   ISTART = 0
   IBRION = 2
   NSW = 1000
   ISYM = 0
   ISIF = 2
   EDIFFG = -0.015
   DIPOL = 0.5 0.5 0.5
   IDIPOL = 3
   LDIPOL = .TRUE.
   LHFCALC = .TRUE.
   GGA = PE
   IVDW = 13
   VDW_S8 = 1.2007
   VDW_A1 = 0.4009
   VDW_A2 = 5.0293
   ENCUT = 600
   PREC = Accurate
   LASPH = .TRUE.
   LREAL = .FALSE.
   ISPIN = 2
   MAGMOM = 1.0 0.0 0.0 0.0 0.0 0.0 0.0 0.0 0.0 0.0 0.0 0.0 0.0 0.0 0.0 0.0 0.0 0.0 0.0 0.0 0.0 0.0 0.0 0.0 0.0 0.0 0.0 0.0 0.0 0.0 0.0 0.0 0.0 0.0 0.0 0.0 0.0 0.0 0.0 0.0 0.0 0.0 0.0 0.0 0.0 0.0 0.0 0.0 0.0 0.0 0.0 0.0 0.0 0.0 0.0 0.0 0.0 0.0 0.0 0.0 0.0 0.0 0.0 0.0 0.0 0.0
   NELM = 200
   NELMIN = 8
   NCORE = 8
   KPAR = 1
   LWAVE = .FALSE.
   LCHARG = .FALSE.

 POTCAR:    PAW_PBE N 08Apr2002
 POTCAR:    PAW_PBE O 08Apr2002
 POTCAR:    PAW_PBE Mg_pv 13Apr2007
 POTCAR:    PAW_PBE O 08Apr2002
 POTCAR:    PAW_PBE N 08Apr2002
   VRHFIN =N: s2p3

   TITEL  = PAW_PBE N 08Apr2002
   POMASS =   14.001; ZVAL   =    5.000    mass and valenz
   ENMAX  =  400.000; ENMIN  =  300.000 eV

[...]

   TITEL  = PAW_PBE Mg_pv 13Apr2007
   POMASS =   24.305; ZVAL   =    8.000    mass and valenz
   ENMAX  =  403.929; ENMIN  =  302.947 eV

   TITEL  = PAW_PBE O 08Apr2002
   POMASS =   16.000; ZVAL   =    6.000    mass and valenz
   ENMAX  =  400.000; ENMIN  =  300.000 eV

  PAW_PBE N 08Apr2002                   :
  PAW_PBE O 08Apr2002                   :
  PAW_PBE Mg_pv 13Apr2007               :
  PAW_PBE O 08Apr2002                   :

 POSCAR:  N  O Mg  O
  positions in direct lattice
  velocities in cartesian coordinates
|           W    W    AA    RRRRR   N    N  II  N    N   GGGG   !!!           |
|           W    W   A  A   R    R  NN   N  II  NN   N  G    G  !!!           |
|           W    W  A    A  R    R  N N  N  II  N N  N  G       !!!           |
|           W WW W  AAAAAA  RRRRR   N  N N  II  N  N N  G  GGG   !            |
|           WW  WW  A    A  R   R   N   NN  II  N   NN  G    G                |
|           W    W  A    A  R    R  N    N  II  N    N   GGGG   !!!           |
|     Specifying the vdW parameters                                           |
|     VDW_S8 = 1.201                                                          |
|     VDW_A1 = 0.401                                                          |
|     VDW_A2 = 5.029                                                          |
|     in the INCAR file will overwrite the defaults for pbe0. Please make     |
|     sure that is what you intended.                                         |

 ion  position               nearest neighbor table
   1  0.500  0.500  0.765-   2 1.16
   2  0.500  0.500  0.819-   1 1.16
   3  0.250  0.000  0.353-  37 2.09  38 2.09  45 2.09  54 2.09  35 2.09
   4  0.500  0.250  0.353-  37 2.09  38 2.09  46 2.09  53 2.09  36 2.09
   5  0.250  0.250  0.451-  35 2.09  36 2.09  43 2.09  52 2.09  37 2.09  41 2.09
   6  0.500  0.000  0.451-  35 2.09  36 2.09  44 2.09  51 2.09  38 2.09  42 2.10
   7  0.250  0.000  0.549-  41 2.08  49 2.09  42 2.09  58 2.09  35 2.09  39 2.12
   8  0.500  0.251  0.550-  50 2.08  57 2.09  41 2.09  42 2.09  36 2.10  40 2.13
   9  0.249  0.250  0.647-  41 2.08  56 2.08  47 2.09  39 2.09  40 2.09
  10  0.500  1.000  0.647-  42 2.08  48 2.09  40 2.09  55 2.09  39 2.09
  11  0.250  0.500  0.353-  37 2.09  45 2.09  46 2.09  62 2.09  43 2.09
  12  0.500  0.750  0.353-  38 2.09  45 2.09  46 2.09  61 2.09  44 2.09
  13  0.250  0.750  0.451-  35 2.09  43 2.09  44 2.09  60 2.09  45 2.09  49 2.09
  14  0.500  0.500  0.451-  36 2.09  43 2.09  44 2.09  59 2.09  46 2.09  50 2.10
  15  0.250  0.500  0.550-  50 2.08  49 2.09  41 2.09  66 2.09  43 2.10  47 2.10
  16  0.500  0.749  0.550-  50 2.08  49 2.09  65 2.09  42 2.09  44 2.10  48 2.13
  17  0.250  0.750  0.647-  49 2.08  64 2.08  47 2.09  39 2.09  48 2.09
  18  0.500  0.500  0.649-  40 2.09  48 2.09  47 2.10  63 2.10  50 2.11
  19  0.750  0.000  0.353-  38 2.09  53 2.09  54 2.09  61 2.09  51 2.09
  20  0.000  0.250  0.353-  37 2.09  53 2.09  54 2.09  62 2.09  52 2.09
  21  0.750  0.250  0.451-  36 2.09  51 2.09  52 2.09  59 2.09  53 2.09  57 2.09
  22  0.000  0.000  0.451-  35 2.09  51 2.09  52 2.09  60 2.09  54 2.09  58 2.09
  23  0.750  1.000  0.549-  65 2.08  57 2.09  42 2.09  58 2.09  51 2.09  55 2.12
  24  0.000  0.250  0.549-  66 2.09  58 2.09  41 2.09  57 2.09  52 2.09  56 2.12
  25  0.750  0.250  0.647-  57 2.08  56 2.08  63 2.09  55 2.09  40 2.09
  26  0.000  1.000  0.647-  58 2.08  64 2.09  56 2.09  39 2.09  55 2.09
  27  0.750  0.500  0.353-  46 2.09  53 2.09  61 2.09  62 2.09  59 2.09
  28  0.000  0.750  0.353-  45 2.09  54 2.09  61 2.09  62 2.09  60 2.09
  29  0.750  0.750  0.451-  44 2.09  51 2.09  59 2.09  60 2.09  61 2.09  65 2.09
  30  0.000  0.500  0.451-  66 2.09  52 2.09  59 2.09  60 2.09  43 2.09  62 2.09
  31  0.750  0.500  0.550-  50 2.08  57 2.09  65 2.09  66 2.09  59 2.10  63 2.10
  32  1.000  0.750  0.549-  66 2.09  58 2.09  65 2.09  49 2.09  60 2.09  64 2.12
  33  0.751  0.750  0.647-  65 2.08  64 2.08  63 2.09  55 2.09  48 2.09
  34  0.000  0.500  0.647-  66 2.07  63 2.08  47 2.08  56 2.09  64 2.09
  35  0.250  0.000  0.451-   5 2.09   6 2.09  13 2.09  22 2.09   3 2.09   7 2.09
  36  0.500  0.250  0.451-   5 2.09   6 2.09  14 2.09  21 2.09   4 2.09   8 2.10
  37  0.250  0.250  0.353-   3 2.09   4 2.09  11 2.09  20 2.09   5 2.09
  38  0.500  0.000  0.353-   3 2.09   4 2.09  12 2.09  19 2.09   6 2.09
  39  0.250  1.000  0.649-  26 2.09  10 2.09   9 2.09  17 2.09   7 2.12
  40  0.500  0.250  0.650-  10 2.09  18 2.09  25 2.09   9 2.09   8 2.13
  41  0.250  0.250  0.549-   9 2.08   7 2.08   8 2.09  24 2.09  15 2.09   5 2.09
  42  0.500  1.000  0.549-  10 2.08  23 2.09   7 2.09  16 2.09   8 2.09   6 2.10
  43  0.250  0.500  0.451-   5 2.09  13 2.09  14 2.09  30 2.09  11 2.09  15 2.10
  44  0.500  0.750  0.451-   6 2.09  13 2.09  14 2.09  29 2.09  12 2.09  16 2.10
  45  0.250  0.750  0.353-   3 2.09  11 2.09  12 2.09  28 2.09  13 2.09
  46  0.500  0.500  0.353-   4 2.09  11 2.09  12 2.09  27 2.09  14 2.09
  47  0.249  0.500  0.649-  34 2.08  17 2.09   9 2.09  18 2.10  15 2.10
  48  0.500  0.750  0.650-  10 2.09  18 2.09  17 2.09  33 2.09  16 2.13
  49  0.250  0.750  0.549-  17 2.08   7 2.09  16 2.09  32 2.09  15 2.09  13 2.09
  50  0.500  0.500  0.550-  16 2.08   8 2.08  31 2.08  15 2.08  14 2.10  18 2.11
  51  0.750  0.000  0.451-   6 2.09  21 2.09  22 2.09  29 2.09  19 2.09  23 2.09
  52  0.000  0.250  0.451-   5 2.09  21 2.09  22 2.09  30 2.09  20 2.09  24 2.09
  53  0.750  0.250  0.353-   4 2.09  19 2.09  20 2.09  27 2.09  21 2.09
  54  0.000  0.000  0.353-   3 2.09  19 2.09  20 2.09  28 2.09  22 2.09
  55  0.750  0.000  0.649-  26 2.09  10 2.09  33 2.09  25 2.09  23 2.12
  56  1.000  0.250  0.649-   9 2.08  25 2.08  26 2.09  34 2.09  24 2.12
  57  0.750  0.250  0.549-  25 2.08  23 2.09   8 2.09  24 2.09  31 2.09  21 2.09
  58  1.000  1.000  0.549-  26 2.08  32 2.09  24 2.09  23 2.09   7 2.09  22 2.09
  59  0.750  0.500  0.451-  14 2.09  21 2.09  29 2.09  30 2.09  27 2.09  31 2.10
  60  0.000  0.750  0.451-  13 2.09  22 2.09  29 2.09  30 2.09  28 2.09  32 2.09
  61  0.750  0.750  0.353-  12 2.09  19 2.09  27 2.09  28 2.09  29 2.09
  62  0.000  0.500  0.353-  11 2.09  20 2.09  27 2.09  28 2.09  30 2.09
  63  0.751  0.500  0.649-  34 2.08  25 2.09  33 2.09  18 2.10  31 2.10
  64  0.000  0.750  0.649-  33 2.08  17 2.08  26 2.09  34 2.09  32 2.12
  65  0.750  0.750  0.549-  33 2.08  23 2.08  16 2.09  32 2.09  31 2.09  29 2.09
  66  1.000  0.500  0.549-  34 2.07  30 2.09  32 2.09  24 2.09  31 2.09  15 2.09

IMPORTANT INFORMATION: All symmetrisations will be switched off!
NOSYMM: (Re-)initialisation of all symmetry stuff for point group C_1.

                                     Primitive cell

  volume of cell :    1482.1129

  direct lattice vectors                    reciprocal lattice vectors
     8.349111827  0.000000000  0.000000000     0.119773219  0.000000000  0.000000000
     0.000000000  8.349111827  0.000000000     0.000000000  0.119773219  0.000000000
     0.000000000  0.000000000 21.261833870     0.000000000  0.000000000  0.047032632

  length of vectors
     8.349111827  8.349111827 21.261833870     0.119773219  0.119773219  0.047032632

  position of ions in fractional coordinates (direct lattice)
     0.500000230  0.500000136  0.764545115
     0.500000206  0.500000360  0.818868200
     0.250000000  0.000000000  0.352744737
     0.500000000  0.250000000  0.352744737
     0.250000000  0.250000000  0.450914912
     0.500000000  0.000000000  0.450914912
     0.250083950  0.000004389  0.549444293
     0.500002665  0.250502507  0.549753772
     0.249461228  0.250015491  0.646865682
     0.500000038  0.999999990  0.647145295
     0.250000000  0.500000000  0.352744737
     0.500000000  0.750000000  0.352744737
     0.250000000  0.750000000  0.450914912
     0.500000000  0.500000000  0.450914912
     0.250312983  0.500000669  0.549604002
     0.499997301  0.749497467  0.549753877
     0.249544065  0.749899735  0.646853784
     0.500000006  0.499999952  0.648670201
     0.750000000  0.000000000  0.352744737
     0.000000000  0.250000000  0.352744737
     0.750000000  0.250000000  0.450914912
     0.000000000  0.000000000  0.450914912
     0.749916069  0.999995558  0.549444324
     0.000002978  0.250014664  0.549344400
     0.750455976  0.250100197  0.646853633
     0.000000029  0.999999973  0.646941119
     0.750000000  0.500000000  0.352744737
     0.000000000  0.750000000  0.352744737
     0.750000000  0.750000000  0.450914912
     0.000000000  0.500000000  0.450914912
     0.749687069  0.499999334  0.549604045
     0.999997103  0.749985316  0.549344485
     0.750538824  0.749984482  0.646865632
     0.000000009  0.499999951  0.646564085
     0.250000000  0.000000000  0.450914912
     0.500000000  0.250000000  0.450914912
     0.250000000  0.250000000  0.352744737
     0.500000000  0.000000000  0.352744737
     0.249950751  0.999962597  0.649231579
     0.499963984  0.249825879  0.649984123
     0.250156082  0.249729889  0.549198665
     0.500000050  0.999999926  0.549486394
     0.250000000  0.500000000  0.450914912
     0.500000000  0.750000000  0.450914912
     0.250000000  0.750000000  0.352744737
     0.500000000  0.500000000  0.352744737
     0.248838553  0.499961582  0.648601935
     0.500036024  0.750174115  0.649984257
     0.250171700  0.750253073  0.549228557
     0.500000058  0.500000030  0.549577535
     0.750000000  0.000000000  0.450914912
     0.000000000  0.250000000  0.450914912
     0.750000000  0.250000000  0.352744737
     0.000000000  0.000000000  0.352744737
     0.750049307  0.000037429  0.649231621
     0.999961714  0.249681309  0.649152559
     0.749828312  0.249746924  0.549228465
     0.999999984  0.999999931  0.549158416
     0.750000000  0.500000000  0.450914912
     0.000000000  0.750000000  0.450914912
     0.750000000  0.750000000  0.352744737
     0.000000000  0.500000000  0.352744737
     0.751161500  0.500038331  0.648602081
[...]
   0.00000000  0.00000000  9.58727796
   6.26113312  8.34907474 11.68219394
   0.00002486  2.08740039 11.68006938
   6.26564087  2.08811451 13.75329449
   0.00000024  8.34911160 13.75515460
   6.26183387  4.17455591  7.50000000
   0.00000000  6.26183387  7.50000000
   6.26183387  6.26183387  9.58727796
   0.00000000  4.17455591  9.58727796
   6.25922118  4.17455035 11.68558991
   8.34908764  6.26171127 11.68007117
   6.26633257  6.26170431 13.75354961
   0.00000008  4.17455551 13.74713815
   2.08727796  0.00000000  9.58727796
   4.17455591  2.08727796  9.58727796
   2.08727796  2.08727796  7.50000000
   4.17455591  0.00000000  7.50000000
   2.08686677  8.34879955 13.80385398
   4.17425522  2.08582420 13.81985443
   2.08858110  2.08502277 11.67697077
   4.17455633  8.34911121 11.68308842
   2.08727796  4.17455591  9.58727796
   4.17455591  6.26183387  9.58727796
   2.08727796  6.26183387  7.50000000
   4.17455591  4.17455591  7.50000000
   2.07758091  4.17423516 13.79046658
   4.17485668  6.26328758 13.81985730
   2.08871150  6.26394681 11.67760635
   4.17455639  4.17455616 11.68502624
   6.26183387  0.00000000  9.58727796
   0.00000000  2.08727796  9.58727796
   6.26183387  2.08727796  7.50000000
   0.00000000  0.00000000  7.50000000
   6.26224554  0.00031250 13.80385486
   8.34879218  2.08461717 13.80217387
   6.26040043  2.08516500 11.67760439
   8.34911169  8.34911125 11.67611500
   6.26183387  4.17455591  9.58727796
   0.00000000  6.26183387  9.58727796
   6.26183387  6.26183387  7.50000000
   0.00000000  4.17455591  7.50000000
   6.27153136  4.17487595 13.79046969
   0.00031966  6.26449449 13.80217670
   6.26053091  6.26408853 11.67697213
   8.34911171  4.17455610 11.67242970

--------------------------------------- Iteration      FINAL  ---------------------------------------

--------------------OUTCAR has been truncated-------------------------

[...]

--------------------OUTCAR has been truncated-------------------------

  FORCE on cell =-STRESS in cart. coord.  units (eV):
  Direction    XX          YY          ZZ          XY          YZ          ZX
  Alpha Z   933.41042   933.41042   933.41042
  Ewald  162402.10762162404.82692************    -0.03061     0.00071     0.00035
  Hartree172902.40708172891.54210************    -0.26059     0.00027     0.00021
  E(xc)   -1896.43217 -1896.42768 -1898.77234     0.00003     0.00000     0.00000
  Local  ************************345029.05712     0.73384    -0.00093    -0.00055
  n-local  -742.46563  -735.66129  -771.01746     0.12451    -0.00002     0.00000
  augment   835.04783   832.61832   822.01072    -0.04421     0.00000     0.00000
  Kinetic  7587.72743  7557.45920  7581.08837    -0.54538    -0.00002    -0.00003
  Fock    -2522.59517 -2521.04792 -2520.36109     0.02835    -0.00001    -0.00000
  vdW        -9.17949    -9.17954    -6.44370     0.00000     0.00000    -0.00000
  Total     -29.92448   -30.21161    -2.15134     0.00595     0.00001    -0.00001
  in kB     -32.34863   -32.65902    -2.32562     0.00643     0.00001    -0.00001

 VOLUME and BASIS-vectors are now :
  energy-cutoff  :      600.00
  volume of cell :     1482.11
      direct lattice vectors                 reciprocal lattice vectors
     8.349111827  0.000000000  0.000000000     0.119773219  0.000000000  0.000000000
     0.000000000  8.349111827  0.000000000     0.000000000  0.119773219  0.000000000
     0.000000000  0.000000000 21.261833870     0.000000000  0.000000000  0.047032632

  length of vectors
     8.349111827  8.349111827 21.261833870     0.119773219  0.119773219  0.047032632

 FORCES acting on ions:
    Electron-Ion                     Ewald-Force                    Non-Local-Force
   0.362E-04 0.546E-03 -.109E+04   -.517E-04 -.635E-03 0.105E+04   0.138E-04 0.806E-04 0.395E+02
   -.118E-03 -.518E-03 -.153E+04   0.140E-03 0.646E-03 0.160E+04   -.187E-04 -.109E-03 -.543E+02
   0.113E+00 0.206E-03 0.214E+04   -.112E+00 -.274E-03 -.213E+04   -.808E-04 0.482E-04 -.683E+01
   -.469E-04 0.257E+00 0.214E+04   0.129E-03 -.255E+00 -.213E+04   -.579E-04 -.130E-02 -.683E+01
   0.509E+00 0.972E+00 0.739E+03   -.496E+00 -.975E+00 -.739E+03   -.809E-02 0.272E-02 0.431E+00
   0.267E-04 -.172E-04 0.738E+03   -.258E-04 0.170E-04 -.738E+03   -.592E-06 -.785E-07 0.467E+00
   0.287E+01 -.366E-01 -.656E+03   -.285E+01 0.374E-01 0.656E+03   -.213E-01 -.123E-03 -.149E+00
   0.603E-01 0.648E+01 -.649E+03   -.605E-01 -.638E+01 0.649E+03   -.130E-02 -.945E-01 -.346E-01
   0.203E+02 0.225E+02 -.203E+04   -.205E+02 -.224E+02 0.202E+04   0.132E+00 -.628E-01 0.585E+01
   0.315E-04 -.124E-03 -.204E+04   -.339E-04 0.123E-03 0.203E+04   0.223E-05 0.209E-05 0.580E+01
   0.122E+00 -.374E-04 0.214E+04   -.121E+00 0.121E-03 -.213E+04   -.978E-03 -.586E-04 -.683E+01
   0.610E-04 -.257E+00 0.214E+04   -.144E-03 0.255E+00 -.213E+04   0.580E-04 0.130E-02 -.683E+01
   0.513E+00 -.976E+00 0.739E+03   -.500E+00 0.980E+00 -.739E+03   -.796E-02 -.285E-02 0.438E+00
   0.152E-04 0.130E-04 0.740E+03   -.194E-04 -.138E-04 -.740E+03   0.271E-05 0.413E-06 0.491E+00
   0.473E+01 0.630E-01 -.645E+03   -.468E+01 -.631E-01 0.645E+03   -.476E-01 -.150E-02 -.458E+00
   -.600E-01 -.648E+01 -.649E+03   0.603E-01 0.638E+01 0.649E+03   0.130E-02 0.945E-01 -.346E-01
   0.203E+02 -.225E+02 -.203E+04   -.205E+02 0.224E+02 0.202E+04   0.133E+00 0.614E-01 0.585E+01
   -.591E-04 0.108E-03 -.195E+04   0.576E-04 -.110E-03 0.195E+04   0.439E-05 0.126E-05 0.518E+01
   -.113E+00 -.216E-03 0.214E+04   0.112E+00 0.284E-03 -.213E+04   0.808E-04 -.481E-04 -.683E+01
   0.195E-03 0.247E+00 0.214E+04   -.262E-03 -.246E+00 -.213E+04   0.483E-04 -.360E-03 -.682E+01
   -.513E+00 0.976E+00 0.739E+03   0.501E+00 -.980E+00 -.739E+03   0.796E-02 0.285E-02 0.438E+00
   -.195E-04 -.245E-04 0.737E+03   0.193E-04 0.244E-04 -.738E+03   0.293E-06 -.435E-08 0.430E+00
   -.287E+01 0.364E-01 -.656E+03   0.285E+01 -.372E-01 0.656E+03   0.213E-01 0.125E-03 -.149E+00
   -.374E-01 0.416E+01 -.655E+03   0.382E-01 -.415E+01 0.655E+03   -.112E-03 -.146E-01 -.142E+00
   -.203E+02 0.225E+02 -.203E+04   0.205E+02 -.224E+02 0.202E+04   -.133E+00 -.614E-01 0.585E+01
   -.876E-04 -.132E-03 -.206E+04   0.867E-04 0.130E-03 0.205E+04   0.152E-05 0.355E-05 0.582E+01
   -.122E+00 0.462E-04 0.214E+04   0.121E+00 -.129E-03 -.213E+04   0.978E-03 0.586E-04 -.683E+01
   -.208E-03 -.247E+00 0.214E+04   0.277E-03 0.246E+00 -.213E+04   -.484E-04 0.360E-03 -.682E+01
   -.509E+00 -.972E+00 0.739E+03   0.496E+00 0.975E+00 -.739E+03   0.809E-02 -.272E-02 0.431E+00
   -.125E-04 0.137E-04 0.740E+03   0.173E-04 -.144E-04 -.740E+03   -.313E-05 0.619E-06 0.341E+00
   -.473E+01 -.628E-01 -.645E+03   0.468E+01 0.629E-01 0.645E+03   0.476E-01 0.149E-02 -.458E+00
   0.371E-01 -.416E+01 -.655E+03   -.380E-01 0.415E+01 0.655E+03   0.109E-03 0.146E-01 -.142E+00
   -.203E+02 -.225E+02 -.203E+04   0.205E+02 0.224E+02 0.202E+04   -.132E+00 0.628E-01 0.585E+01
   0.341E-04 0.664E-04 -.204E+04   -.370E-04 -.681E-04 0.203E+04   0.144E-07 0.946E-06 0.583E+01
   0.318E+00 0.239E-02 0.553E+03   -.322E+00 -.127E-02 -.553E+03   0.517E-02 -.134E-02 -.104E+00
   0.149E-02 0.897E+00 0.554E+03   -.303E-02 -.911E+00 -.554E+03   0.178E-02 0.142E-01 -.104E+00
   0.890E-01 0.186E+00 0.161E+04   -.882E-01 -.185E+00 -.161E+04   -.103E-02 -.961E-03 0.300E+01
   0.506E-05 -.309E-05 0.161E+04   -.497E-05 0.310E-05 -.161E+04   -.661E-07 -.264E-07 0.300E+01
   0.844E+01 -.698E-01 -.156E+04   -.843E+01 0.700E-01 0.157E+04   -.122E-01 0.137E-02 -.450E+01
   0.491E-01 0.298E+02 -.153E+04   -.449E-01 -.297E+02 0.153E+04   -.548E-02 -.527E-01 -.439E+01
   0.288E+01 0.368E+01 -.482E+03   -.290E+01 -.364E+01 0.481E+03   0.165E-01 -.288E-01 0.340E+00
   0.562E-04 -.441E-04 -.484E+03   -.588E-04 0.450E-04 0.484E+03   0.330E-05 -.110E-05 0.338E+00
   0.380E+00 0.186E-02 0.554E+03   -.406E+00 -.343E-02 -.554E+03   0.307E-01 0.181E-02 -.114E+00
   -.143E-02 -.897E+00 0.554E+03   0.297E-02 0.911E+00 -.554E+03   -.178E-02 -.142E-01 -.104E+00
   0.892E-01 -.186E+00 0.161E+04   -.883E-01 0.186E+00 -.161E+04   -.104E-02 0.973E-03 0.300E+01
   0.445E-05 0.303E-05 0.161E+04   -.496E-05 -.304E-05 -.161E+04   0.579E-06 -.228E-07 0.300E+01
   0.273E+02 0.520E-01 -.152E+04   -.271E+02 -.482E-01 0.153E+04   -.244E+00 -.531E-02 -.461E+01
   -.491E-01 -.298E+02 -.153E+04   0.449E-01 0.297E+02 0.153E+04   0.547E-02 0.527E-01 -.439E+01
   0.290E+01 -.371E+01 -.482E+03   -.292E+01 0.367E+01 0.481E+03   0.184E-01 0.268E-01 0.332E+00
   -.107E-04 0.288E-04 -.478E+03   0.110E-04 -.295E-04 0.478E+03   0.236E-05 0.138E-05 -.275E-01
   -.318E+00 -.243E-02 0.553E+03   0.322E+00 0.132E-02 -.553E+03   -.517E-02 0.133E-02 -.104E+00
   0.219E-02 0.811E+00 0.553E+03   -.107E-02 -.800E+00 -.553E+03   -.134E-02 -.135E-01 -.814E-01
   -.892E-01 0.186E+00 0.161E+04   0.883E-01 -.186E+00 -.161E+04   0.104E-02 -.973E-03 0.300E+01
   -.489E-05 -.346E-05 0.161E+04   0.484E-05 0.346E-05 -.161E+04   0.100E-06 -.265E-07 0.300E+01
   -.844E+01 0.696E-01 -.156E+04   0.843E+01 -.698E-01 0.157E+04   0.122E-01 -.137E-02 -.450E+01
   -.685E-01 0.891E+01 -.156E+04   0.684E-01 -.886E+01 0.156E+04   0.158E-02 -.538E-01 -.451E+01
   -.290E+01 0.371E+01 -.482E+03   0.292E+01 -.367E+01 0.481E+03   -.184E-01 -.268E-01 0.332E+00
   -.330E-04 -.770E-04 -.488E+03   0.339E-04 0.788E-04 0.487E+03   -.265E-05 -.109E-05 0.300E+00
   -.380E+00 -.182E-02 0.554E+03   0.406E+00 0.339E-02 -.554E+03   -.307E-01 -.181E-02 -.114E+00
   -.225E-02 -.811E+00 0.553E+03   0.113E-02 0.800E+00 -.553E+03   0.134E-02 0.135E-01 -.814E-01
   -.890E-01 -.186E+00 0.161E+04   0.882E-01 0.185E+00 -.161E+04   0.103E-02 0.960E-03 0.300E+01
   -.452E-05 0.326E-05 0.161E+04   0.492E-05 -.326E-05 -.161E+04   -.513E-06 -.161E-07 0.300E+01
   -.273E+02 -.519E-01 -.152E+04   0.271E+02 0.480E-01 0.153E+04   0.244E+00 0.531E-02 -.461E+01
   0.683E-01 -.891E+01 -.156E+04   -.682E-01 0.886E+01 0.156E+04   -.158E-02 0.538E-01 -.451E+01
   -.288E+01 -.368E+01 -.482E+03   0.290E+01 0.364E+01 0.481E+03   -.165E-01 0.288E-01 0.340E+00
   0.927E-05 0.246E-04 -.480E+03   -.101E-04 -.243E-04 0.480E+03   -.172E-05 0.536E-06 0.280E+00
   0.893E-05 0.360E-04 0.399E+02   0.104E-12 -.153E-12 -.193E-11   -.780E-05 -.271E-04 -.320E+02

 POSITION                                       TOTAL-FORCE (eV/Angst)
      4.17456      4.17456     16.25740        -0.000000      0.000001     -0.001209
      4.17456      4.17456     17.40988        -0.000000     -0.000000      0.005725
      2.08728      0.00000      7.50000         0.000027     -0.000013      0.427371
      4.17456      2.08728      7.50000         0.000016      0.000486      0.427078
      2.08728      2.08728      9.58728         0.003449     -0.000296      0.055986
      4.17456      0.00000      9.58728         0.000000     -0.000000      0.066143
      2.08788     -0.00003     11.68728         0.000206      0.000628     -0.006569
      4.17468      2.09044     11.68889        -0.001660     -0.005114      0.000410
      2.08456      2.08889     13.75897        -0.000683      0.000429     -0.004154
      4.17456     -0.00000     13.76361         0.000000      0.000002     -0.006665
      2.08728      4.17456      7.50000         0.000297      0.000016      0.427856
      4.17456      6.26183      7.50000        -0.000016     -0.000486      0.427078
      2.08728      6.26183      9.58728         0.003314      0.000447      0.055652
      4.17456      4.17456      9.58728        -0.000001     -0.000000      0.067927
      2.08933      4.17469     11.68837        -0.001445     -0.001679     -0.000782
      4.17443      6.25867     11.68889         0.001652      0.005113      0.000411
      2.08449      6.26030     13.75917         0.000478     -0.001576     -0.002655
      4.17456      4.17456     13.79212         0.000003     -0.000000      0.009089
      6.26183      0.00000      7.50000        -0.000027      0.000013      0.427371
      0.00000      2.08728      7.50000        -0.000012      0.000214      0.426741
      6.26183      2.08728      9.58728        -0.003314     -0.000448      0.055650
      0.00000      0.00000      9.58728         0.000000     -0.000000      0.055980
      6.26123      0.00003     11.68728        -0.000206     -0.000625     -0.006574
     -0.00003      2.08804     11.68542         0.000662     -0.005776     -0.003598
      6.26462      2.08881     13.75917        -0.000479      0.001578     -0.002656
      0.00000     -0.00000     13.76122         0.000001      0.000002     -0.003942
      6.26183      4.17456      7.50000        -0.000297     -0.000016      0.427856
      0.00000      6.26183      7.50000         0.000012     -0.000214      0.426741
      6.26183      6.26183      9.58728        -0.003448      0.000297      0.055983
      0.00000      4.17456      9.58728         0.000001      0.000000      0.057045
      6.25978      4.17442     11.68837         0.001445      0.001676     -0.000780
      0.00003      6.26107     11.68542        -0.000655      0.005775     -0.003600
      6.26455      6.26022     13.75896         0.000681     -0.000432     -0.004150
      0.00000      4.17456     13.75578        -0.000003     -0.000001     -0.001219
      2.08728      0.00000      9.58728         0.001934     -0.000470      0.064602
      4.17456      2.08728      9.58728         0.000568      0.003249      0.073538
      2.08728      2.08728      7.50000        -0.000375     -0.000315     -0.564505
      4.17456      0.00000      7.50000         0.000000     -0.000000     -0.564138
      2.08728     -0.00009     13.81116        -0.001553      0.001892      0.010069
      4.17464      2.08484     13.81919        -0.002330     -0.002802      0.011992
      2.08838      2.08543     11.68019        -0.000497      0.004111      0.009958
      4.17456     -0.00000     11.68306         0.000001     -0.000000      0.008274
      2.08728      4.17456      9.58728         0.010410      0.000571      0.067361
      4.17456      6.26183      9.58728        -0.000567     -0.003249      0.073538
      2.08728      6.26183      7.50000        -0.000380      0.000320     -0.564528
      4.17456      4.17456      7.50000         0.000000     -0.000000     -0.565051
      2.07850      4.17466     13.79742        -0.005603     -0.002470      0.000397
      4.17447      6.26428     13.81919         0.002328      0.002802      0.011994
      2.08837      6.26369     11.68054        -0.000694     -0.003849      0.005411
      4.17456      4.17456     11.68646         0.000003      0.000001      0.005685
      6.26183      0.00000      9.58728        -0.001934      0.000470      0.064602
      0.00000      2.08728      9.58728        -0.000470     -0.005418      0.062792
      6.26183      2.08728      7.50000         0.000380     -0.000320     -0.564528
      0.00000      0.00000      7.50000         0.000000     -0.000000     -0.564310
      6.26183      0.00009     13.81116         0.001552     -0.001890      0.010066
     -0.00009      2.08573     13.80826         0.001879     -0.004008      0.012242
      6.26074      2.08542     11.68054         0.000694      0.003850      0.005413
      0.00000     -0.00000     11.68042        -0.000002      0.000001      0.006843
      6.26183      4.17456      9.58728        -0.010410     -0.000571      0.067362
      0.00000      6.26183      9.58728         0.000470      0.005417      0.062793
      6.26183      6.26183      7.50000         0.000375      0.000315     -0.564505
      0.00000      4.17456      7.50000        -0.000000     -0.000000     -0.564893
      6.27061      4.17445     13.79742         0.005602      0.002470      0.000401
      0.00009      6.26338     13.80826        -0.001875      0.004007      0.012245
      6.26074      6.26368     11.68018         0.000497     -0.004113      0.009959
      0.00000      4.17456     11.67614        -0.000003      0.000001      0.003381
    total drift:                               -0.000001     -0.000000      0.004432

  FREE ENERGIE OF THE ION-ELECTRON SYSTEM (eV)
  free  energy   TOTEN  =      -489.87683332 eV

  energy  without entropy=     -489.87683332  energy(sigma->0) =     -489.87683332

 d Force = 0.1093141E-04[ 0.879E-05, 0.131E-04]  d Energy = 0.1102808E-04-0.967E-07
 d Force =-0.3853496E+00[-0.385E+00,-0.385E+00]  d Ewald  =-0.3853496E+00 0.694E-09

 Conjugate gradient step on ions:
 trial-energy change:   -0.000011  1 .order   -0.000011   -0.000013   -0.000009
  (g-gl).g =-0.625E-04      g.g   = 0.162E-03  gl.gl    = 0.112E-02
 g(Force)  = 0.162E-03   g(Stress)= 0.000E+00 ortho     = 0.968E-05
 gamma     =  -0.05557
 trial     =   0.08089
 opt step  =   0.24678  (harmonic =   0.24678) maximal distance =0.00026405
 next E    =  -489.876842   (d E  =  -0.00002)

 reached required accuracy - stopping structural energy minimisation