 vasp.6.3.0 20Jan22 (build Mar 11 2022 13:48:16) complex

 executed on             LinuxIFC date 2024.02.13  07:21:36

 INCAR:
   SYSTEM = Oxide-Surface
   ISMEAR = 0
   SIGMA = 0.05
   EDIFF = 1E-5
   ALGO = ALL
   ISTART = 0
   IBRION = -1
   NSW = 0
   ISYM = 2
   DIPOL = 0.5 0.5 0.5
   IDIPOL = 3
   LDIPOL = .TRUE.
   GGA = PE
   IVDW = 263
   ENCUT = 600
   PREC = Accurate
   LASPH = .TRUE.
   LREAL = .FALSE.
   ISPIN = 1
   NELM = 200
   NELMIN = 8
   NCORE = 19
   KPAR = 1
   LWAVE = .FALSE.
   LCHARG = .FALSE.

 POTCAR:    PAW_PBE N 08Apr2002
 POTCAR:    PAW_PBE H 15Jun2001
 POTCAR:    PAW_PBE Mg_pv 13Apr2007
 POTCAR:    PAW_PBE O 08Apr2002
 POTCAR:    PAW_PBE N 08Apr2002
   VRHFIN =N: s2p3

   TITEL  = PAW_PBE N 08Apr2002
   POMASS =   14.001; ZVAL   =    5.000    mass and valenz
   ENMAX  =  400.000; ENMIN  =  300.000 eV

   TITEL  = PAW_PBE H 15Jun2001
   POMASS =    1.000; ZVAL   =    1.000    mass and valenz
   ENMAX  =  250.000; ENMIN  =  200.000 eV

   TITEL  = PAW_PBE Mg_pv 13Apr2007
   POMASS =   24.305; ZVAL   =    8.000    mass and valenz
   ENMAX  =  403.929; ENMIN  =  302.947 eV

   TITEL  = PAW_PBE O 08Apr2002
   POMASS =   16.000; ZVAL   =    6.000    mass and valenz
   ENMAX  =  400.000; ENMIN  =  300.000 eV

  PAW_PBE N 08Apr2002                   :
  PAW_PBE H 15Jun2001                   :
  PAW_PBE Mg_pv 13Apr2007               :
  PAW_PBE O 08Apr2002                   :

 POSCAR:  N  H Mg  O
  positions in direct lattice
 exchange correlation table for  LEXCH =        8
   RHO(1)=    0.500       N(1)  =     2000
   RHO(2)=  100.500       N(2)  =     4000

 ion  position               nearest neighbor table
   1  0.500  0.516  0.760-   4 1.02   3 1.02   2 1.02
   2  0.500  0.635  0.768-   1 1.02
   3  0.402  0.469  0.782-   1 1.02
   4  0.598  0.469  0.782-   1 1.02
   5  0.000  0.750  0.352-  37 2.11  39 2.11  40 2.11  47 2.11  56 2.11
   6  0.250  0.000  0.352-  38 2.11  39 2.11  40 2.11  48 2.11  55 2.11
   7  0.000  0.000  0.451-  39 2.11  38 2.11  37 2.11  45 2.11  54 2.11  43 2.12
   8  0.250  0.750  0.451-  40 2.11  38 2.11  37 2.11  46 2.11  53 2.11  44 2.12
   9  0.000  0.750  0.550-  51 2.11  44 2.11  60 2.11  43 2.11  37 2.12  41 2.16
  10  0.250  1.000  0.550-  59 2.11  52 2.11  44 2.11  43 2.11  38 2.12  42 2.16
  11  0.000  1.000  0.648-  43 2.10  42 2.11  58 2.11  49 2.11  41 2.11
  12  0.250  0.750  0.648-  44 2.09  41 2.11  42 2.11  50 2.11  57 2.11
  13  0.000  0.250  0.352-  45 2.11  39 2.11  47 2.11  48 2.11  64 2.11
  14  0.250  0.500  0.352-  46 2.11  40 2.11  47 2.11  48 2.11  63 2.11
  15  0.000  0.500  0.451-  47 2.11  45 2.11  46 2.11  37 2.11  62 2.11  51 2.11
  16  0.250  0.250  0.451-  48 2.11  45 2.11  46 2.11  38 2.11  61 2.11  52 2.12
  17  1.000  0.250  0.550-  51 2.11  68 2.11  52 2.11  43 2.11  45 2.12  49 2.16
  18  0.251  0.500  0.551-  67 2.10  52 2.11  44 2.11  51 2.12  46 2.13  50 2.15
  19  0.000  0.500  0.648-  66 2.09  50 2.09  51 2.10  49 2.12  41 2.12
  20  0.250  0.250  0.648-  52 2.10  42 2.11  49 2.11  65 2.11  50 2.11
  21  0.500  0.750  0.352-  53 2.11  40 2.11  55 2.11  56 2.11  63 2.11
  22  0.750  0.000  0.352-  54 2.11  39 2.11  55 2.11  56 2.11  64 2.11
  23  0.500  0.000  0.451-  55 2.11  53 2.11  54 2.11  38 2.11  61 2.11  59 2.11
  24  0.750  0.750  0.451-  56 2.11  53 2.11  54 2.11  37 2.11  62 2.11  60 2.12
  25  0.500  0.749  0.551-  67 2.10  60 2.11  44 2.11  59 2.12  53 2.13  57 2.15
  26  0.750  1.000  0.550-  59 2.11  68 2.11  60 2.11  43 2.11  54 2.12  58 2.16
  27  0.500  0.000  0.648-  65 2.09  57 2.09  59 2.10  42 2.12  58 2.12
  28  0.750  0.750  0.648-  60 2.09  41 2.11  58 2.11  66 2.11  57 2.11
  29  0.500  0.250  0.352-  61 2.11  55 2.11  48 2.11  63 2.11  64 2.11
  30  0.750  0.500  0.352-  62 2.11  56 2.11  47 2.11  63 2.11  64 2.11
  31  0.500  0.500  0.451-  63 2.11  53 2.11  61 2.11  62 2.11  46 2.11  67 2.14
  32  0.750  0.250  0.451-  64 2.11  54 2.11  61 2.11  62 2.11  45 2.11  68 2.12
  33  0.500  0.251  0.551-  67 2.10  52 2.11  68 2.11  59 2.12  61 2.13  65 2.14
  34  0.749  0.500  0.551-  67 2.10  68 2.11  60 2.11  51 2.12  62 2.13  66 2.15
  35  0.500  0.499  0.655-  65 2.12  66 2.13  50 2.13  57 2.15  67 2.22
  36  0.750  0.250  0.648-  68 2.10  58 2.11  49 2.11  65 2.11  66 2.11
  37  0.000  0.750  0.451-   5 2.11   7 2.11   8 2.11  15 2.11  24 2.11   9 2.12
  38  0.250  0.000  0.451-   6 2.11   7 2.11   8 2.11  16 2.11  23 2.11  10 2.12
  39  0.000  0.000  0.352-   7 2.11   6 2.11   5 2.11  13 2.11  22 2.11
  40  0.250  0.750  0.352-   8 2.11   6 2.11   5 2.11  14 2.11  21 2.11
  41  1.000  0.750  0.651-  11 2.11  28 2.11  12 2.11  19 2.12   9 2.16
  42  0.249  1.000  0.651-  11 2.11  20 2.11  12 2.11  27 2.12  10 2.16
  43  1.000  1.000  0.550-  11 2.10   9 2.11  26 2.11  10 2.11  17 2.11   7 2.12
  44  0.250  0.750  0.550-  12 2.09  10 2.11   9 2.11  25 2.11  18 2.11   8 2.12
  45  0.000  0.250  0.451-  13 2.11   7 2.11  15 2.11  16 2.11  32 2.11  17 2.12
  46  0.250  0.500  0.451-  14 2.11   8 2.11  15 2.11  16 2.11  31 2.11  18 2.13
  47  0.000  0.500  0.352-  15 2.11  13 2.11  14 2.11   5 2.11  30 2.11
  48  0.250  0.250  0.352-  16 2.11  13 2.11  14 2.11   6 2.11  29 2.11
  49  0.000  0.249  0.651-  11 2.11  36 2.11  20 2.11  19 2.12  17 2.16
  50  0.247  0.500  0.651-  19 2.09  12 2.11  20 2.11  35 2.13  18 2.15
  51  0.000  0.500  0.550-  19 2.10   9 2.11  17 2.11  15 2.11  34 2.12  18 2.12
  52  0.250  0.250  0.550-  20 2.10  10 2.11  17 2.11  18 2.11  33 2.11  16 2.12
  53  0.500  0.750  0.451-  21 2.11   8 2.11  23 2.11  24 2.11  31 2.11  25 2.13
  54  0.750  0.000  0.451-  22 2.11   7 2.11  23 2.11  24 2.11  32 2.11  26 2.12
  55  0.500  0.000  0.352-  23 2.11  21 2.11  22 2.11   6 2.11  29 2.11
  56  0.750  0.750  0.352-  24 2.11  21 2.11  22 2.11   5 2.11  30 2.11
  57  0.500  0.753  0.651-  27 2.09  12 2.11  28 2.11  35 2.15  25 2.15
  58  0.751  1.000  0.651-  11 2.11  36 2.11  28 2.11  27 2.12  26 2.16
  59  0.500  1.000  0.550-  27 2.10  26 2.11  10 2.11  23 2.11  25 2.12  33 2.12
  60  0.750  0.750  0.550-  28 2.09  26 2.11   9 2.11  25 2.11  34 2.11  24 2.12
  61  0.500  0.250  0.451-  29 2.11  23 2.11  16 2.11  31 2.11  32 2.11  33 2.13
  62  0.750  0.500  0.451-  30 2.11  24 2.11  15 2.11  31 2.11  32 2.11  34 2.13
  63  0.500  0.500  0.352-  31 2.11  21 2.11  29 2.11  30 2.11  14 2.11
  64  0.750  0.250  0.352-  32 2.11  22 2.11  29 2.11  30 2.11  13 2.11
  65  0.500  0.247  0.651-  27 2.09  20 2.11  36 2.11  35 2.12  33 2.14
  66  0.753  0.500  0.651-  19 2.09  28 2.11  36 2.11  35 2.13  34 2.15
  67  0.500  0.500  0.551-  25 2.10  18 2.10  34 2.10  33 2.10  31 2.14  35 2.22
  68  0.750  0.250  0.550-  36 2.10  26 2.11  17 2.11  34 2.11  33 2.11  32 2.12

  LATTYP: Found a simple tetragonal cell.
 ALAT       =     8.4409846542
 C/A-ratio  =     2.5270438657

  Lattice vectors:

 A1 = (   8.4409846542,   0.0000000000,   0.0000000000)
 A2 = (   0.0000000000,   8.4409846542,   0.0000000000)
 A3 = (   0.0000000000,   0.0000000000,  21.3307384906)

Analysis of symmetry for initial positions (statically):
 Subroutine PRICEL returns:
 Original cell was already a primitive cell.

 Routine SETGRP: Setting up the symmetry group for a
 simple tetragonal supercell.

 Subroutine GETGRP returns: Found  2 space group operations
 (whereof  2 operations were pure point group operations)
 out of a pool of 16 trial point group operations.

The static configuration has the point symmetry C_1h.

Analysis of symmetry for dynamics (positions and initial velocities):
 Subroutine PRICEL returns:
 Original cell was already a primitive cell.

[...]

The dynamic configuration has the point symmetry C_1h.

Analysis of constrained symmetry for selective dynamics:
 Subroutine PRICEL returns:
 Original cell was already a primitive cell.

 Routine SETGRP: Setting up the symmetry group for a
 simple tetragonal supercell.

 Subroutine GETGRP returns: Found  2 space group operations
 (whereof  2 operations were pure point group operations)
 out of a pool of 16 trial point group operations.

The constrained configuration has the point symmetry C_1h.

 Subroutine INISYM returns: Found  2 space group operations
 (whereof  2 operations are pure point group operations),
 and found     1 'primitive' translations

                                     Primitive cell

  volume of cell :    1519.8199

  direct lattice vectors                    reciprocal lattice vectors
     8.440984654  0.000000000  0.000000000     0.118469591  0.000000000  0.000000000
     0.000000000  8.440984654  0.000000000     0.000000000  0.118469591  0.000000000
     0.000000000  0.000000000 21.330738491     0.000000000  0.000000000  0.046880702

  length of vectors
     8.440984654  8.440984654 21.330738491     0.118469591  0.118469591  0.046880702

  position of ions in fractional coordinates (direct lattice)
     0.500000238  0.515515988  0.760397415
     0.499999981  0.635067396  0.767938398
     0.402069061  0.469393035  0.781666100
     0.597931073  0.469393296  0.781666268
     0.000000000  0.750000000  0.351605267
     0.250000000  0.000000000  0.351605267
     0.000000000  0.000000000  0.450535089
     0.250000000  0.750000000  0.450535089
     0.000000002  0.749683926  0.549893410
     0.250263522  0.999989873  0.549908943
     0.000000001  0.999953889  0.648375512
     0.249680169  0.750035883  0.648043586
     0.000000000  0.250000000  0.351605267
     0.250000000  0.500000000  0.351605267
     0.000000000  0.500000000  0.450535089
     0.250000000  0.250000000  0.450535089
     0.999999995  0.250229246  0.549913058
     0.251264402  0.499907421  0.550551274
     0.000000017  0.499888939  0.648188279
     0.249874845  0.249731960  0.648151920
     0.500000000  0.750000000  0.351605267
     0.750000000  0.000000000  0.351605267
     0.500000000  0.000000000  0.450535089
     0.750000000  0.750000000  0.450535089
     0.499999996  0.748689127  0.550582001
     0.749736477  0.999989873  0.549908956
     0.499999995  0.000230885  0.648178485
     0.750319838  0.750035869  0.648043580
     0.500000000  0.250000000  0.351605267
     0.750000000  0.500000000  0.351605267
     0.500000000  0.500000000  0.450535089
     0.750000000  0.250000000  0.450535089
     0.499999999  0.251188744  0.550506166
     0.748735610  0.499907415  0.550551309
     0.500000034  0.498638580  0.654927800
     0.750125161  0.249731957  0.648151929
     0.000000000  0.750000000  0.450535089
     0.250000000  0.000000000  0.450535089
     0.000000000  0.000000000  0.351605267
     0.250000000  0.750000000  0.351605267
     0.999999998  0.750486788  0.651100364
     0.249403677  0.999906086  0.651133405
     0.999999997  0.999932321  0.549747566
     0.249933154  0.750096792  0.549885275
     0.000000000  0.250000000  0.450535089
     0.250000000  0.500000000  0.450535089
     0.000000000  0.500000000  0.351605267
     0.250000000  0.250000000  0.351605267
     0.000000002  0.249363374  0.651160803
     0.247373170  0.499927644  0.651129740
     0.000000005  0.499978499  0.549670801
     0.249818529  0.249801412  0.549853953
     0.500000000  0.750000000  0.450535089
     0.750000000  0.000000000  0.450535089
[...]
   O          22.321          3.320          5.844          2.767          3.382          1.085
   O          22.319          3.320          5.845          2.785          3.449          1.086
   O          21.812          3.308          5.779          2.738          3.279          1.074
   O          20.841          3.285          5.659          2.304          1.953          1.054
   O          20.875          3.286          5.662          2.295          1.929          1.054
   O          20.890          3.286          5.665          2.293          1.925          1.055
   O          20.885          3.286          5.664          2.310          1.969          1.055
   O          22.318          3.320          5.843          2.773          3.405          1.085
   O          22.322          3.320          5.844          2.767          3.382          1.085
   O          21.676          3.305          5.762          2.744          3.297          1.071
   O          22.321          3.320          5.845          2.785          3.448          1.086
   O          20.842          3.285          5.659          2.305          1.955          1.054
   O          20.877          3.286          5.663          2.301          1.946          1.055
   O          20.885          3.286          5.664          2.296          1.933          1.055
   O          20.886          3.286          5.664          2.295          1.931          1.055
   O          22.308          3.320          5.842          2.773          3.406          1.085
   O          22.321          3.320          5.844          2.767          3.382          1.085
   O          21.899          3.310          5.790          2.735          3.265          1.076
   O          21.812          3.308          5.779          2.738          3.279          1.074
   O          20.892          3.286          5.666          2.455          2.361          1.055
   O          20.875          3.286          5.662          2.295          1.929          1.054

  vdW correction parametrized for the method pbe

  IVDW = 263
  VDW_RADIUS =    50.000 A
  VDW_SR =     0.830
  VDW_D =     6.000
  SCSRAD =   120.000 A
  LVDWSCS = T
  LSCSGRAD = T
  LSCALER0 = T
  ITIM =  1
  Edisp (eV):  -17.90621

  FORCE on cell =-STRESS in cart. coord.  units (eV):
  Direction    XX          YY          ZZ          XY          YZ          ZX
  Alpha Z   899.54725   899.54725   899.54725
  Ewald  159550.27078159547.74557************    -0.00005    -9.90923     0.00026
  Hartree169861.11171169861.28043************    -0.00001    -0.81562    -0.00001
  E(xc)   -2487.68712 -2487.69808 -2492.90043    -0.00000    -0.06156     0.00000
  Local  ************************339292.96013     0.00004     6.92232    -0.00015
  n-local -2834.35107 -2834.45680 -2855.64776     0.02977    -0.27003    -0.00000
  augment  1048.91423  1048.95151  1040.32864    -0.00000     0.09594    -0.00000
  Kinetic  7425.00342  7426.32886  7484.31675    -0.29642     4.08731    -0.00004
  Fock        0.00000     0.00000     0.00000     0.00000     0.00000     0.00000
  vdW       -23.50882   -23.50090   -16.49100    -0.03026    -0.00377    -0.00009
  Total     -41.59847   -41.55863   -12.22039     0.00000     0.04536     0.00000
  in kB     -43.85265   -43.81065   -12.88260     0.00000     0.04782     0.00000

 VOLUME and BASIS-vectors are now :
  energy-cutoff  :      600.00
  volume of cell :     1519.82
      direct lattice vectors                 reciprocal lattice vectors
     8.440984654  0.000000000  0.000000000     0.118469591  0.000000000  0.000000000
     0.000000000  8.440984654  0.000000000     0.000000000  0.118469591  0.000000000
     0.000000000  0.000000000 21.330738491     0.000000000  0.000000000  0.046880702

  length of vectors
     8.440984654  8.440984654 21.330738491     0.118469591  0.118469591  0.046880702

 FORCES acting on ions:
    Electron-Ion                     Ewald-Force                    Non-Local-Force
   -.164E-02 0.810E+01 -.133E+04   0.922E-04 -.130E+02 0.131E+04   -.974E-21 0.488E+01 0.244E+02
   0.259E-04 -.698E+02 -.273E+03   -.154E-03 0.771E+02 0.274E+03   -.805E-22 -.720E+01 -.883E+00
   0.579E+02 0.279E+02 -.279E+03   -.638E+02 -.307E+02 0.282E+03   0.595E+01 0.283E+01 -.303E+01
   -.579E+02 0.279E+02 -.279E+03   0.638E+02 -.307E+02 0.282E+03   -.595E+01 0.283E+01 -.303E+01
   0.281E-05 0.440E-01 0.208E+04   -.611E-05 -.498E-01 -.207E+04   0.755E-22 0.414E-02 -.702E+01
   -.413E-01 0.350E-05 0.208E+04   0.470E-01 -.817E-04 -.207E+04   -.406E-02 0.745E-04 -.703E+01
   0.925E-05 -.413E-01 0.712E+03   -.191E-04 0.468E-01 -.713E+03   0.188E-21 -.410E-02 0.518E+00
   -.356E+00 0.356E+00 0.713E+03   0.422E+00 -.412E+00 -.713E+03   -.460E-01 0.388E-01 0.578E+00
   -.305E-05 -.276E+01 -.645E+03   -.995E-05 0.267E+01 0.645E+03   0.166E-21 0.823E-01 0.105E-01
   0.279E+01 -.236E+00 -.646E+03   -.271E+01 0.251E+00 0.646E+03   -.796E-01 -.150E-01 0.159E-01
   -.876E-05 -.950E+00 -.201E+04   0.243E-04 0.961E+00 0.200E+04   -.183E-22 -.112E-01 0.592E+01
   0.208E+02 -.199E+02 -.198E+04   -.210E+02 0.200E+02 0.198E+04   0.144E+00 -.729E-01 0.607E+01
   0.263E-05 -.442E-01 0.208E+04   -.576E-05 0.499E-01 -.207E+04   0.334E-24 -.399E-02 -.703E+01
   -.735E-01 -.329E-03 0.208E+04   0.853E-01 0.166E-03 -.207E+04   -.882E-02 0.120E-03 -.706E+01
   0.185E-04 0.326E-01 0.713E+03   -.399E-04 -.415E-01 -.713E+03   -.635E-21 0.632E-02 0.416E+00
   -.323E+00 -.365E+00 0.713E+03   0.367E+00 0.417E+00 -.713E+03   -.298E-01 -.360E-01 0.557E+00
   0.901E-05 0.275E+01 -.646E+03   0.122E-04 -.267E+01 0.646E+03   -.240E-22 -.827E-01 0.283E-01
   0.269E+01 0.233E+00 -.643E+03   -.237E+01 -.246E+00 0.644E+03   -.331E+00 0.135E-01 -.407E+00
   -.558E-04 0.107E+01 -.200E+04   0.939E-04 -.108E+01 0.199E+04   0.151E-20 0.115E-01 0.591E+01
   0.188E+02 0.194E+02 -.199E+04   -.188E+02 -.194E+02 0.198E+04   0.613E-01 0.813E-01 0.607E+01
   -.286E-05 0.762E-01 0.208E+04   0.612E-05 -.881E-01 -.207E+04   0.221E-22 0.890E-02 -.706E+01
   0.413E-01 0.364E-05 0.208E+04   -.470E-01 -.820E-04 -.207E+04   0.406E-02 0.745E-04 -.703E+01
   -.984E-05 0.749E-02 0.713E+03   0.209E-04 -.220E-01 -.713E+03   -.879E-22 0.105E-01 0.419E+00
   0.356E+00 0.356E+00 0.713E+03   -.422E+00 -.412E+00 -.713E+03   0.460E-01 0.388E-01 0.578E+00
   0.619E-05 -.248E+01 -.644E+03   0.470E-06 0.215E+01 0.645E+03   -.157E-20 0.327E+00 -.253E+00
   -.279E+01 -.236E+00 -.646E+03   0.271E+01 0.251E+00 0.646E+03   0.796E-01 -.150E-01 0.159E-01
   0.136E-04 -.264E+01 -.199E+04   -.806E-05 0.268E+01 0.199E+04   -.107E-21 -.354E-01 0.590E+01
   -.208E+02 -.199E+02 -.198E+04   0.210E+02 0.200E+02 0.198E+04   -.144E+00 -.729E-01 0.607E+01
   -.272E-05 -.766E-01 0.208E+04   0.592E-05 0.883E-01 -.207E+04   -.965E-23 -.872E-02 -.706E+01
   0.735E-01 -.329E-03 0.208E+04   -.853E-01 0.166E-03 -.207E+04   0.882E-02 0.120E-03 -.706E+01
   -.213E-04 -.138E-01 0.711E+03   0.418E-04 0.246E-01 -.711E+03   0.354E-21 -.802E-02 0.650E+00
   0.323E+00 -.365E+00 0.713E+03   -.367E+00 0.417E+00 -.713E+03   0.298E-01 -.360E-01 0.557E+00
   -.118E-05 0.267E+01 -.643E+03   0.892E-05 -.235E+01 0.643E+03   -.157E-20 -.322E+00 -.473E+00
   -.269E+01 0.233E+00 -.643E+03   0.237E+01 -.246E+00 0.644E+03   0.331E+00 0.135E-01 -.407E+00
   -.456E-04 0.594E+01 -.192E+04   -.136E-03 -.624E+01 0.192E+04   0.239E-21 0.300E+00 0.871E+00
   -.188E+02 0.194E+02 -.199E+04   0.188E+02 -.194E+02 0.198E+04   -.613E-01 0.813E-01 0.607E+01
   0.777E-05 -.383E-01 0.535E+03   -.183E-04 0.181E-01 -.534E+03   0.909E-22 0.293E-01 -.190E-01
   0.425E-01 0.550E-02 0.534E+03   -.203E-01 -.149E-02 -.534E+03   -.319E-01 -.581E-02 -.313E-01
   0.172E-05 -.241E-02 0.156E+04   -.374E-05 0.350E-02 -.157E+04   -.299E-22 -.152E-02 0.350E+01
   -.494E-01 0.495E-01 0.156E+04   0.596E-01 -.585E-01 -.157E+04   -.142E-01 0.125E-01 0.349E+01
   0.772E-05 -.750E+01 -.153E+04   0.386E-04 0.736E+01 0.153E+04   -.637E-20 0.149E+00 -.503E+01
   0.757E+01 -.130E+01 -.153E+04   -.742E+01 0.129E+01 0.154E+04   -.162E+00 0.163E-01 -.503E+01
   0.332E-04 -.244E+00 -.481E+03   -.116E-05 0.249E+00 0.481E+03   0.801E-22 -.489E-02 0.317E+00
   0.186E+01 -.186E+01 -.475E+03   -.185E+01 0.184E+01 0.474E+03   -.882E-02 0.225E-01 0.555E+00
   0.583E-05 0.310E-01 0.534E+03   -.140E-04 -.656E-02 -.534E+03   -.466E-21 -.349E-01 -.384E-01
   -.105E+00 -.137E-01 0.533E+03   0.586E-01 0.150E-01 -.533E+03   0.605E-01 -.117E-02 -.186E+00
   0.266E-05 0.255E-02 0.156E+04   -.566E-05 -.352E-02 -.157E+04   -.614E-22 0.135E-02 0.349E+01
   -.449E-01 -.493E-01 0.156E+04   0.529E-01 0.585E-01 -.157E+04   -.111E-01 -.128E-01 0.349E+01
   -.283E-04 0.741E+01 -.153E+04   0.380E-04 -.726E+01 0.154E+04   -.812E-21 -.149E+00 -.502E+01
   0.255E+02 0.180E+01 -.149E+04   -.248E+02 -.179E+01 0.150E+04   -.726E+00 -.104E-01 -.491E+01
   -.574E-04 0.247E+00 -.475E+03   0.521E-05 -.251E+00 0.474E+03   0.849E-22 0.467E-02 0.402E+00
   0.194E+01 0.186E+01 -.476E+03   -.191E+01 -.184E+01 0.475E+03   -.296E-01 -.233E-01 0.493E+00
   -.846E-05 0.113E+00 0.533E+03   0.180E-04 -.639E-01 -.533E+03   0.753E-21 -.630E-01 -.195E+00
   -.425E-01 0.550E-02 0.534E+03   0.203E-01 -.150E-02 -.534E+03   0.319E-01 -.581E-02 -.313E-01
   -.175E-05 0.226E-02 0.156E+04   0.379E-05 -.332E-02 -.157E+04   0.108E-21 0.149E-02 0.349E+01
   0.494E-01 0.495E-01 0.156E+04   -.596E-01 -.585E-01 -.157E+04   0.142E-01 0.125E-01 0.349E+01
   0.432E-04 -.259E+02 -.149E+04   -.254E-04 0.250E+02 0.150E+04   -.734E-20 0.869E+00 -.474E+01
   -.757E+01 -.130E+01 -.153E+04   0.742E+01 0.129E+01 0.154E+04   0.162E+00 0.163E-01 -.503E+01
   -.479E-05 -.103E+00 -.474E+03   0.107E-04 0.109E+00 0.474E+03   0.332E-22 -.699E-02 0.407E+00
   -.186E+01 -.186E+01 -.475E+03   0.185E+01 0.184E+01 0.474E+03   0.882E-02 0.225E-01 0.555E+00
   -.765E-05 -.124E+00 0.533E+03   0.174E-04 0.798E-01 -.533E+03   0.887E-22 0.565E-01 -.171E+00
   0.105E+00 -.137E-01 0.533E+03   -.586E-01 0.150E-01 -.533E+03   -.605E-01 -.117E-02 -.186E+00
   -.275E-05 -.202E-02 0.156E+04   0.574E-05 0.323E-02 -.157E+04   -.157E-21 -.169E-02 0.347E+01
   0.449E-01 -.493E-01 0.156E+04   -.529E-01 0.585E-01 -.157E+04   0.111E-01 -.128E-01 0.349E+01
   -.842E-05 0.249E+02 -.150E+04   -.407E-04 -.243E+02 0.150E+04   0.104E-19 -.617E+00 -.498E+01
   -.255E+02 0.180E+01 -.149E+04   0.248E+02 -.179E+01 0.150E+04   0.726E+00 -.104E-01 -.491E+01
   -.509E-04 -.526E-01 -.489E+03   -.150E-05 0.439E-01 0.490E+03   0.415E-21 0.940E-02 -.115E+01
   -.194E+01 0.186E+01 -.476E+03   0.191E+01 -.184E+01 0.475E+03   0.296E-01 -.233E-01 0.493E+00
   -.220E-02 -.388E+01 0.376E+01   -.353E-13 -.711E-14 0.244E-11   -.278E-16 0.388E+01 -.375E+01

 POSITION                                       TOTAL-FORCE (eV/Angst)
      4.22049      4.35146     16.21984        -0.000000     -0.007774     -0.005042
      4.22049      5.36059     16.38069        -0.000000      0.041344     -0.024405
      3.39386      3.96214     16.67352        -0.029248     -0.015213     -0.005864
      5.04713      3.96214     16.67352         0.029248     -0.015213     -0.005864
      0.00000      6.33074      7.50000        -0.000000     -0.003097      0.511406
      2.11025      0.00000      7.50000         0.003138     -0.000224      0.512272
      0.00000      0.00000      9.61025        -0.000000      0.001786      0.103140
      2.11025      6.33074      9.61025         0.016493     -0.014214      0.108484
      0.00000      6.32807     11.72963        -0.000000     -0.004926     -0.045339
      2.11247      8.44090     11.72996         0.004914      0.000405     -0.045566
      0.00000      8.44060     13.83033        -0.000000      0.000508     -0.172341
      2.10755      6.33104     13.82325        -0.003470      0.003586     -0.164199
      0.00000      2.11025      7.50000        -0.000000      0.003113      0.512760
      2.11025      4.22049      7.50000         0.005732      0.000245      0.519134
      0.00000      4.22049      9.61025        -0.000000     -0.002775      0.138261
      2.11025      2.11025      9.61025         0.010697      0.012821      0.108871
      8.44098      2.11218     11.73005        -0.000000      0.004754     -0.045901
      2.12092      4.21971     11.74367        -0.002866     -0.000323     -0.046475
      0.00000      4.21955     13.82633        -0.000000     -0.000130     -0.184080
      2.10919      2.10798     13.82556        -0.002333     -0.002741     -0.166437
      4.22049      6.33074      7.50000        -0.000000     -0.005676      0.519876
      6.33074      0.00000      7.50000        -0.003138     -0.000224      0.512272
      4.22049      0.00000      9.61025        -0.000000     -0.003752      0.137996
      6.33074      6.33074      9.61025        -0.016493     -0.014214      0.108484
      4.22049      6.31967     11.74432        -0.000000      0.003870     -0.047472
      6.32851      8.44090     11.72996        -0.004914      0.000405     -0.045566
      4.22049      0.00195     13.82613        -0.000000      0.002357     -0.183534
      6.33344      6.33104     13.82325         0.003470      0.003586     -0.164199
      4.22049      2.11025      7.50000        -0.000000      0.005726      0.518104
      6.33074      4.22049      7.50000        -0.005732      0.000245      0.519134
      4.22049      4.22049      9.61025        -0.000000      0.002594      0.147823
      6.33074      2.11025      9.61025        -0.010697      0.012821      0.108871
      4.22049      2.12028     11.74270        -0.000000     -0.002240     -0.045018
      6.32007      4.21971     11.74367         0.002866     -0.000323     -0.046475
      4.22049      4.20900     13.97009        -0.000000     -0.000645     -0.090097
      6.33179      2.10798     13.82556         0.002333     -0.002741     -0.166437
      0.00000      6.33074      9.61025        -0.000000      0.009499      0.060264
      2.11025      0.00000      9.61025        -0.010035     -0.001747      0.058223
      0.00000      0.00000      7.50000        -0.000000     -0.000405     -0.470490
      2.11025      6.33074      7.50000        -0.003837      0.003402     -0.472504
      8.44098      6.33485     13.88845        -0.000000      0.000967     -0.027481
      2.10521      8.44019     13.88916        -0.001077      0.000728     -0.027328
      8.44098      8.44041     11.72652        -0.000000     -0.000071      0.019250
      2.10968      6.33156     11.72946        -0.000236      0.000157      0.015680
      0.00000      2.11025      9.61025        -0.000000     -0.010749      0.056566
      2.11025      4.22049      9.61025         0.012327     -0.000024      0.077600
      0.00000      4.22049      7.50000        -0.000000      0.000422     -0.474447
      2.11025      2.11025      7.50000        -0.002981     -0.003444     -0.472638
      0.00000      2.10487     13.88974        -0.000000     -0.000425     -0.027224
      2.08807      4.21988     13.88908        -0.018866     -0.001202     -0.035207
      0.00000      4.22031     11.72488        -0.000000      0.000360      0.017528
      2.10871      2.10857     11.72879        -0.000352     -0.000322      0.015737
      4.22049      6.33074      9.61025        -0.000000     -0.012833      0.077401
      6.33074      0.00000      9.61025         0.010035     -0.001747      0.058223
      4.22049      0.00000      7.50000        -0.000000      0.000435     -0.474355
      6.33074      6.33074      7.50000         0.003837      0.003402     -0.472504
      4.22049      6.35537     13.89666        -0.000000      0.019807     -0.032400
      6.33577      8.44019     13.88916         0.001077      0.000728     -0.027328
      4.22049      8.43990     11.72498        -0.000000     -0.000042      0.017259
      6.33130      6.33156     11.72946         0.000236      0.000157      0.015680
      4.22049      2.11025      9.61025        -0.000000      0.011524      0.077742
      6.33074      4.22049      9.61025        -0.012327     -0.000024      0.077600
      4.22049      4.22049      7.50000        -0.000000     -0.000422     -0.480106
      6.33074      2.11025      7.50000         0.002981     -0.003444     -0.472638
      4.22049      2.08771     13.88457        -0.000000     -0.017786     -0.035947
      6.35291      4.21988     13.88908         0.018866     -0.001202     -0.035207
      4.22049      4.22084     11.74772        -0.000000      0.000903     -0.009263
      6.33227      2.10857     11.72879         0.000352     -0.000322      0.015737
    total drift:                               -0.002203     -0.001754      0.008819

  FREE ENERGIE OF THE ION-ELECTRON SYSTEM (eV)
  free  energy   TOTEN  =      -410.04876861 eV

  energy  without entropy=     -410.04876861  energy(sigma->0) =     -410.04876861