 vasp.6.3.0 20Jan22 (build Apr  1 2022 16:44:48) complex
 executed on        HPECrayEX_GCC date 2022.11.13  23:22:27

 INCAR:
   SYSTEM = MgO-rocksalt
   ISMEAR = 0
   SIGMA = 0.05
   EDIFF = 1E-6
   ALGO = ALL
   ISTART = 0
   IBRION = -1
   NSW = 0
   ISYM = 0
   DIPOL = 0.5 0.5 0.5
   IDIPOL = 3
   LDIPOL = .TRUE.
   LHFCALC = .TRUE.
   GGA = B5
   AEXX = 0.2
   AGGAX = 0.72
   AGGAC = 0.81
   ALDAC = 0.19
   IVDW = 1
   VDW_S6 = 1.05
   VDW_C6 = 0.63 0.70
   VDW_R0 = 1.243 1.342
   ENCUT = 600
   PREC = Accurate
   LASPH = .TRUE.
   LREAL = .FALSE.
   ISPIN = 2
   MAGMOM = 0.0 0.0 0.0 0.0 0.0 0.0 0.0 0.0 0.0 0.0 0.0 0.0 0.0 0.0 0.0 0.0 0.0 0.0 0.0 0.0 0.0 0.0 0.0 0.0 0.0 0.0 0.0 0.0 0.0 0.0 0.0 0.0 0.0 0.0 0.0 0.0 0.0 0.0 0.0 0.0 0.0 0.0 0.0 0.0 0.0 0.0 0.0 0.0 0.0 0.0 0.0 0.0 0.0 0.0 0.0 0.0 0.0 0.0 0.0 0.0 0.0 0.0 0.0 0.0
   NELM = 200
   NELMIN = 8
   NCORE = 8
   KPAR = 1
   LWAVE = .FALSE.
   LCHARG = .FALSE.

 POTCAR:    PAW_PBE Mg_pv 13Apr2007
 POTCAR:    PAW_PBE O 08Apr2002
 POTCAR:    PAW_PBE Mg_pv 13Apr2007
   VRHFIN =Mg: p6s2

   TITEL  = PAW_PBE Mg_pv 13Apr2007
   POMASS =   24.305; ZVAL   =    8.000    mass and valenz
   ENMAX  =  403.929; ENMIN  =  302.947 eV

   TITEL  = PAW_PBE O 08Apr2002
   POMASS =   16.000; ZVAL   =    6.000    mass and valenz
   ENMAX  =  400.000; ENMIN  =  300.000 eV

  PAW_PBE Mg_pv 13Apr2007               :
  PAW_PBE O 08Apr2002                   :

 POSCAR: Mg  O
  positions in direct lattice
 exchange correlation table for  LEXCH =       12
   RHO(1)=    0.500       N(1)  =     2000
   RHO(2)=  100.500       N(2)  =     4000

 ion  position               nearest neighbor table
   1  0.250  0.000  0.352-  33 2.11  35 2.11  36 2.11  43 2.11  52 2.11
   2  0.500  0.250  0.352-  34 2.11  35 2.11  36 2.11  44 2.11  51 2.11
   3  0.250  0.250  0.451-  35 2.11  34 2.11  33 2.11  41 2.11  50 2.11  39 2.11
   4  0.500  0.000  0.451-  36 2.11  34 2.11  33 2.11  42 2.11  49 2.11  40 2.11
   5  0.250  0.000  0.550-  40 2.11  39 2.11  47 2.11  56 2.11  33 2.12  37 2.14
   6  0.500  0.250  0.550-  48 2.11  39 2.11  55 2.11  40 2.11  34 2.12  38 2.13
   7  0.250  0.250  0.648-  39 2.10  37 2.11  54 2.11  38 2.11  45 2.11
   8  0.500  0.000  0.648-  38 2.10  46 2.10  40 2.10  53 2.11  37 2.11
   9  0.250  0.500  0.352-  41 2.11  35 2.11  43 2.11  44 2.11  60 2.11
  10  0.500  0.750  0.352-  42 2.11  36 2.11  43 2.11  44 2.11  59 2.11
  11  0.250  0.750  0.451-  43 2.11  41 2.11  42 2.11  33 2.11  58 2.11  47 2.11
  12  0.500  0.500  0.451-  44 2.11  41 2.11  42 2.11  34 2.11  57 2.11  48 2.12
  13  0.250  0.500  0.550-  48 2.11  39 2.11  47 2.11  64 2.11  41 2.12  45 2.13
  14  0.500  0.750  0.550-  48 2.11  63 2.11  47 2.11  40 2.11  42 2.12  46 2.13
  15  0.250  0.750  0.648-  47 2.10  37 2.11  62 2.11  46 2.11  45 2.11
  16  0.500  0.500  0.650-  45 2.12  61 2.12  38 2.12  46 2.12  48 2.14
  17  0.750  0.000  0.352-  49 2.11  36 2.11  51 2.11  52 2.11  59 2.11
  18  0.000  0.250  0.352-  50 2.11  35 2.11  51 2.11  52 2.11  60 2.11
  19  0.750  0.250  0.451-  51 2.11  49 2.11  50 2.11  34 2.11  57 2.11  55 2.11
  20  0.000  0.000  0.451-  52 2.11  49 2.11  50 2.11  33 2.11  58 2.11  56 2.11
  21  0.750  1.000  0.550-  40 2.11  63 2.11  55 2.11  56 2.11  49 2.12  53 2.14
  22  0.000  0.250  0.550-  64 2.11  39 2.11  55 2.11  56 2.11  50 2.12  54 2.14
  23  0.750  0.250  0.648-  55 2.10  53 2.11  54 2.11  38 2.11  61 2.11
  24  1.000  0.000  0.648-  56 2.10  37 2.11  53 2.11  54 2.11  62 2.11
  25  0.750  0.500  0.352-  57 2.11  51 2.11  44 2.11  59 2.11  60 2.11
  26  0.000  0.750  0.352-  58 2.11  52 2.11  43 2.11  59 2.11  60 2.11
  27  0.750  0.750  0.451-  59 2.11  49 2.11  57 2.11  58 2.11  42 2.11  63 2.11
  28  0.000  0.500  0.451-  60 2.11  50 2.11  57 2.11  58 2.11  41 2.11  64 2.11
  29  0.750  0.500  0.550-  48 2.11  63 2.11  55 2.11  64 2.11  57 2.12  61 2.13
  30  1.000  0.750  0.550-  64 2.11  63 2.11  47 2.11  56 2.11  58 2.12  62 2.14
  31  0.750  0.750  0.648-  63 2.10  53 2.11  62 2.11  46 2.11  61 2.11
  32  1.000  0.500  0.648-  45 2.10  61 2.10  64 2.10  54 2.11  62 2.11
  33  0.250  0.000  0.451-   1 2.11   3 2.11   4 2.11  11 2.11  20 2.11   5 2.12
  34  0.500  0.250  0.451-   2 2.11   3 2.11   4 2.11  12 2.11  19 2.11   6 2.12
  35  0.250  0.250  0.352-   3 2.11   2 2.11   1 2.11   9 2.11  18 2.11
  36  0.500  0.000  0.352-   4 2.11   2 2.11   1 2.11  10 2.11  17 2.11
  37  0.250  0.000  0.650-  15 2.11  24 2.11   7 2.11   8 2.11   5 2.14
  38  0.500  0.249  0.650-   8 2.10  23 2.11   7 2.11  16 2.12   6 2.13
  39  0.250  0.250  0.550-   7 2.10  22 2.11   5 2.11  13 2.11   6 2.11   3 2.11
  40  0.500  0.000  0.550-   8 2.10   5 2.11  21 2.11   4 2.11   6 2.11  14 2.11
  41  0.250  0.500  0.451-   9 2.11   3 2.11  11 2.11  12 2.11  28 2.11  13 2.12
  42  0.500  0.750  0.451-  10 2.11   4 2.11  11 2.11  12 2.11  27 2.11  14 2.12
  43  0.250  0.750  0.352-  11 2.11   9 2.11  10 2.11   1 2.11  26 2.11
  44  0.500  0.500  0.352-  12 2.11   9 2.11  10 2.11   2 2.11  25 2.11
  45  0.249  0.500  0.650-  32 2.10  15 2.11   7 2.11  16 2.12  13 2.13
  46  0.500  0.751  0.650-   8 2.10  15 2.11  31 2.11  16 2.12  14 2.13
  47  0.250  0.750  0.550-  15 2.10  13 2.11  14 2.11  30 2.11   5 2.11  11 2.11
  48  0.500  0.500  0.550-  13 2.11  29 2.11   6 2.11  14 2.11  12 2.12  16 2.14
  49  0.750  0.000  0.451-  17 2.11   4 2.11  19 2.11  20 2.11  27 2.11  21 2.12
  50  0.000  0.250  0.451-  18 2.11   3 2.11  19 2.11  20 2.11  28 2.11  22 2.12
  51  0.750  0.250  0.352-  19 2.11  17 2.11  18 2.11   2 2.11  25 2.11
  52  0.000  0.000  0.352-  20 2.11  17 2.11  18 2.11   1 2.11  26 2.11
  53  0.750  1.000  0.650-  23 2.11  24 2.11  31 2.11   8 2.11  21 2.14
  54  0.000  0.250  0.650-  23 2.11  24 2.11   7 2.11  32 2.11  22 2.14
  55  0.750  0.250  0.550-  23 2.10  29 2.11   6 2.11  22 2.11  21 2.11  19 2.11
  56  1.000  0.000  0.550-  24 2.10   5 2.11  21 2.11  22 2.11  30 2.11  20 2.11
  57  0.750  0.500  0.451-  25 2.11  19 2.11  12 2.11  27 2.11  28 2.11  29 2.12
  58  0.000  0.750  0.451-  26 2.11  20 2.11  11 2.11  27 2.11  28 2.11  30 2.12
  59  0.750  0.750  0.352-  27 2.11  17 2.11  25 2.11  26 2.11  10 2.11
  60  0.000  0.500  0.352-  28 2.11  18 2.11  25 2.11  26 2.11   9 2.11
  61  0.751  0.500  0.650-  32 2.10  23 2.11  31 2.11  16 2.12  29 2.13
  62  1.000  0.750  0.650-  15 2.11  24 2.11  31 2.11  32 2.11  30 2.14
  63  0.750  0.750  0.550-  31 2.10  30 2.11  21 2.11  29 2.11  14 2.11  27 2.11
  64  0.000  0.500  0.550-  32 2.10  22 2.11  30 2.11  28 2.11  13 2.11  29 2.11

IMPORTANT INFORMATION: All symmetrisations will be switched off!
NOSYMM: (Re-)initialisation of all symmetry stuff for point group C_1.

                                     Primitive cell

  volume of cell :    1519.6535

  direct lattice vectors                    reciprocal lattice vectors
     8.440582262  0.000000000  0.000000000     0.118475239  0.000000000  0.000000000
     0.000000000  8.440582262  0.000000000     0.000000000  0.118475239  0.000000000
     0.000000000  0.000000000 21.330436697     0.000000000  0.000000000  0.046881366

  length of vectors
     8.440582262  8.440582262 21.330436697     0.118475239  0.118475239  0.046881366

  position of ions in fractional coordinates (direct lattice)
     0.250000000  0.000000000  0.351610242
     0.500000000  0.250000000  0.351610242
     0.250000000  0.250000000  0.450536747
     0.500000000  0.000000000  0.450536747
     0.250058627  0.000148625  0.549826860
     0.500066338  0.250461958  0.549955170
     0.249997611  0.249993064  0.648241368
     0.499999996  0.000000003  0.648128126
     0.250000000  0.500000000  0.351610242
     0.500000000  0.750000000  0.351610242
     0.250000000  0.750000000  0.450536747
     0.500000000  0.500000000  0.450536747
     0.250463297  0.500066365  0.549955008
     0.499933637  0.749538044  0.549955186
     0.249544921  0.750459637  0.647928714
     0.499999993  0.499999992  0.650234352
     0.750000000  0.000000000  0.351610242
     0.000000000  0.250000000  0.351610242
     0.750000000  0.250000000  0.450536747
     0.000000000  0.000000000  0.450536747
     0.749941356  0.999851383  0.549826863
     0.000148607  0.250058730  0.549827455
     0.750455069  0.249540355  0.647928708
     0.999999997  0.000000003  0.648150058
     0.750000000  0.500000000  0.351610242
     0.000000000  0.750000000  0.351610242
     0.750000000  0.750000000  0.450536747
     0.000000000  0.500000000  0.450536747
     0.749536688  0.499933631  0.549955020
     0.999851383  0.749941274  0.549827460
     0.750002384  0.750006939  0.648241352
     0.999999999  0.499999996  0.648130879
     0.250000000  0.000000000  0.450536747
     0.500000000  0.250000000  0.450536747
     0.250000000  0.250000000  0.351610242
     0.500000000  0.000000000  0.351610242
     0.249806279  0.000137223  0.649998964
     0.500399529  0.248967072  0.649940719
     0.250092463  0.250094860  0.549664790
     0.499999988  0.000000006  0.549577267
     0.250000000  0.500000000  0.450536747
     0.500000000  0.750000000  0.450536747
     0.250000000  0.750000000  0.351610242
     0.500000000  0.500000000  0.351610242
     0.248972279  0.500399663  0.649947145
     0.499600460  0.751032922  0.649940701
     0.249893969  0.750103637  0.549574597
     0.499999985  0.499999996  0.550003000
     0.750000000  0.000000000  0.450536747
     0.000000000  0.250000000  0.450536747
     0.750000000  0.250000000  0.351610242
     0.000000000  0.000000000  0.351610242
     0.750193712  0.999862778  0.649998957
     0.000137229  0.249808167  0.649999787
     0.750106013  0.249896364  0.549574592
     0.999999998  0.000000006  0.549561497
     0.750000000  0.500000000  0.450536747
     0.000000000  0.750000000  0.450536747
     0.750000000  0.750000000  0.351610242
     0.000000000  0.500000000  0.351610242
     0.751027711  0.499600333  0.649947116
     0.999862762  0.750191834  0.649999785
     0.749907527  0.749905146  0.549664792
     0.000000004  0.499999999  0.549579775

  ion indices of the primitive-cell ions
   primitive index   ion index
                 1           1
                 2           2
                 3           3
                 4           4
                 5           5
                 6           6
                 7           7
                 8           8
                 9           9
                10          10
                11          11
                12          12
                13          13
                14          14
                15          15
                16          16
                17          17
                18          18
                19          19
                20          20
                21          21
                22          22
                23          23
                24          24
                25          25
                26          26
                27          27
                28          28
                29          29
                30          30
                31          31
                32          32
                33          33
                34          34
                35          35
[...]
   0.50000000  0.75000000  0.45053675
   0.25000000  0.75000000  0.35161024
   0.50000000  0.50000000  0.35161024
   0.24897228  0.50039966  0.64994714
   0.49960046  0.75103292  0.64994070
   0.24989397  0.75010364  0.54957460
   0.49999998  0.50000000  0.55000300
   0.75000000  0.00000000  0.45053675
   0.00000000  0.25000000  0.45053675
   0.75000000  0.25000000  0.35161024
   0.00000000  0.00000000  0.35161024
   0.75019371  0.99986278  0.64999896
   0.00013723  0.24980817  0.64999979
   0.75010601  0.24989636  0.54957459
   1.00000000  0.00000001  0.54956150
   0.75000000  0.50000000  0.45053675
   0.00000000  0.75000000  0.45053675
   0.75000000  0.75000000  0.35161024
   0.00000000  0.50000000  0.35161024
   0.75102771  0.49960033  0.64994712
   0.99986276  0.75019183  0.64999978
   0.74990753  0.74990515  0.54966479
   0.00000000  0.50000000  0.54957977

 position of ions in cartesian coordinates  (Angst):
   2.11014557  0.00000000  7.50000000
   4.22029113  2.11014557  7.50000000
   2.11014557  2.11014557  9.61014557
   4.22029113  0.00000000  9.61014557
   2.11064041  0.00125449 11.72804703
   4.22085106  2.11404476 11.73078395
   2.11012540  2.11008702 13.82727146
   4.22029110  0.00000003 13.82485596
   2.11014557  4.22029113  7.50000000
   4.22029113  6.33043670  7.50000000
   2.11014557  6.33043670  9.61014557
   4.22029113  4.22029113  9.61014557
   2.11405606  4.22085129 11.73078048
   4.21973099  6.32653752 11.73078428
   2.10630443  6.33431630 13.82060243
   4.22029108  4.22029106 13.86978268
   6.33043670  0.00000000  7.50000000
   0.00000000  2.11014557  7.50000000
   6.33043670  2.11014557  9.61014557
   0.00000000  0.00000000  9.61014557
   6.32994171  8.43932785 11.72804709
   0.00125433  2.11064128 11.72805972
   6.33427774  2.10626590 13.82060229
   8.44058224  0.00000003 13.82532377
   6.33043670  4.22029113  7.50000000
   0.00000000  6.33043670  7.50000000
   6.33043670  6.33043670  9.61014557
   0.00000000  4.22029113  9.61014557
   6.32652607  4.21973094 11.73078074
   8.43932785  6.32994102 11.72805984
   6.33045681  6.33049526 13.82727111
   8.44058226  4.22029109 13.82491469
   2.11014557  0.00000000  9.61014557
   4.22029113  2.11014557  9.61014557
   2.11014557  2.11014557  7.50000000
   4.22029113  0.00000000  7.50000000
   2.10851044  0.00115825 13.86476176
   4.22366339  2.10142706 13.86351936
   2.11092601  2.11094624 11.72459001
   4.22029103  0.00000005 11.72272311
   2.11014557  4.22029113  9.61014557
   4.22029113  6.33043670  9.61014557
   2.11014557  6.33043670  7.50000000
   4.22029113  4.22029113  7.50000000
   2.10147100  4.22366452 13.86365643
   4.21691878  6.33915516 13.86351897
   2.10925061  6.33131145 11.72266615
   4.22029100  4.22029109 11.73180417
   6.33043670  0.00000000  9.61014557
   0.00000000  2.11014557  9.61014557
   6.33043670  2.11014557  7.50000000
   0.00000000  0.00000000  7.50000000
   6.33207174  8.43942403 13.86476160
   0.00115829  2.10852638 13.86477932
   6.33133151  2.10927081 11.72266604
   8.44058225  0.00000005 11.72238673
   6.33043670  4.22029113  9.61014557
   0.00000000  6.33043670  9.61014557
   6.33043670  6.33043670  7.50000000
   0.00000000  4.22029113  7.50000000
   6.33911118  4.21691771 13.86365582
   8.43942390  6.33205589 13.86477927
   6.32965617  6.32963607 11.72459004
   0.00000003  4.22029112 11.72277659

--------------------------------------- Iteration      FINAL  ---------------------------------------

--------------------OUTCAR has been truncated-------------------------

[...]

--------------------OUTCAR has been truncated-------------------------

  DFT-D2 method for vdW energy calculation

  Parameters of vdW forcefield:
         C6(Jnm^6/mol)     R0(A)
   Mg       0.630          1.243
   O        0.700          1.342

  vdW correction parametrized for the method x]ÿ      

  IVDW =   1
  VDW_RADIUS =    50.000 A
  VDW_S6 =     1.050
  VDW_SR =     1.000
  VDW_D =    20.000
  LVDW_EWALD = F

  Number of pair interactions contributing to vdW energy:  723256
  Edisp (eV):   -5.08260

 VOLUME and BASIS-vectors are now :
  energy-cutoff  :      600.00
  volume of cell :     1519.65
      direct lattice vectors                 reciprocal lattice vectors
     8.440582262  0.000000000  0.000000000     0.118475239  0.000000000  0.000000000
     0.000000000  8.440582262  0.000000000     0.000000000  0.118475239  0.000000000
     0.000000000  0.000000000 21.330436697     0.000000000  0.000000000  0.046881366

  length of vectors
     8.440582262  8.440582262 21.330436697     0.118475239  0.118475239  0.046881366

 FORCES acting on ions:
    Electron-Ion                     Ewald-Force                    Non-Local-Force
   -.805E-01 -.713E-02 0.207E+04   0.804E-01 0.765E-02 -.206E+04   0.130E-03 -.372E-03 -.639E+01
   0.852E-02 -.982E-01 0.207E+04   -.849E-02 0.997E-01 -.206E+04   -.171E-04 -.113E-02 -.639E+01
   -.392E+00 -.395E+00 0.685E+03   0.403E+00 0.406E+00 -.686E+03   -.598E-02 -.608E-02 0.403E+00
   -.340E-05 0.251E-04 0.685E+03   0.593E-05 -.239E-04 -.686E+03   -.260E-05 -.266E-05 0.347E+00
   -.430E+00 -.207E+00 -.689E+03   0.459E+00 0.216E+00 0.689E+03   -.224E-01 -.970E-02 -.181E+00
   0.238E+00 -.130E+01 -.691E+03   -.259E+00 0.140E+01 0.691E+03   0.151E-01 -.983E-01 -.250E+00
   -.164E+01 -.166E+01 -.206E+04   0.145E+01 0.147E+01 0.205E+04   0.151E+00 0.151E+00 0.567E+01
   -.618E-06 -.108E-04 -.206E+04   -.209E-06 -.130E-04 0.205E+04   0.486E-05 0.130E-04 0.558E+01
   -.973E-01 0.852E-02 0.207E+04   0.988E-01 -.849E-02 -.206E+04   -.113E-02 -.176E-04 -.639E+01
   -.853E-02 0.982E-01 0.207E+04   0.850E-02 -.997E-01 -.206E+04   0.191E-04 0.114E-02 -.639E+01
   -.397E+00 0.400E+00 0.686E+03   0.395E+00 -.398E+00 -.686E+03   0.790E-03 -.698E-03 0.374E+00
   -.150E-04 -.207E-04 0.684E+03   0.172E-04 0.244E-04 -.684E+03   -.211E-05 -.572E-06 0.481E+00
   -.129E+01 0.238E+00 -.691E+03   0.139E+01 -.259E+00 0.691E+03   -.983E-01 0.151E-01 -.249E+00
   -.238E+00 0.130E+01 -.691E+03   0.259E+00 -.140E+01 0.691E+03   -.151E-01 0.983E-01 -.250E+00
   -.132E+01 0.133E+01 -.205E+04   0.121E+01 -.123E+01 0.205E+04   0.911E-01 -.914E-01 0.560E+01
   0.253E-04 0.143E-04 -.207E+04   0.126E-04 0.127E-04 0.207E+04   -.283E-04 -.197E-04 0.595E+01
   0.805E-01 0.714E-02 0.207E+04   -.804E-01 -.766E-02 -.206E+04   -.128E-03 0.376E-03 -.639E+01
   -.714E-02 -.814E-01 0.207E+04   0.766E-02 0.813E-01 -.206E+04   -.371E-03 0.124E-03 -.639E+01
   0.397E+00 -.400E+00 0.686E+03   -.395E+00 0.398E+00 -.686E+03   -.788E-03 0.694E-03 0.374E+00
   0.432E-05 0.149E-04 0.686E+03   -.619E-05 -.132E-04 -.686E+03   0.136E-05 -.496E-06 0.363E+00
   0.430E+00 0.207E+00 -.689E+03   -.459E+00 -.216E+00 0.689E+03   0.224E-01 0.971E-02 -.181E+00
   -.207E+00 -.439E+00 -.689E+03   0.216E+00 0.468E+00 0.689E+03   -.970E-02 -.229E-01 -.181E+00
   0.132E+01 -.133E+01 -.205E+04   -.121E+01 0.123E+01 0.205E+04   -.911E-01 0.913E-01 0.560E+01
   0.906E-05 0.103E-04 -.206E+04   -.588E-05 -.713E-05 0.205E+04   0.658E-06 -.203E-05 0.557E+01
   0.973E-01 -.853E-02 0.207E+04   -.988E-01 0.850E-02 -.206E+04   0.113E-02 0.150E-04 -.639E+01
   0.713E-02 0.814E-01 0.207E+04   -.766E-02 -.813E-01 -.206E+04   0.373E-03 -.127E-03 -.639E+01
   0.392E+00 0.395E+00 0.685E+03   -.403E+00 -.406E+00 -.686E+03   0.598E-02 0.608E-02 0.403E+00
   0.109E-04 -.109E-04 0.685E+03   -.173E-04 0.130E-04 -.686E+03   0.355E-05 -.124E-05 0.348E+00
   0.129E+01 -.238E+00 -.691E+03   -.139E+01 0.259E+00 0.691E+03   0.983E-01 -.151E-01 -.249E+00
   0.207E+00 0.439E+00 -.689E+03   -.216E+00 -.468E+00 0.689E+03   0.970E-02 0.229E-01 -.182E+00
   0.164E+01 0.166E+01 -.206E+04   -.145E+01 -.147E+01 0.205E+04   -.151E+00 -.151E+00 0.567E+01
   -.360E-04 -.137E-04 -.206E+04   -.143E-04 0.116E-04 0.205E+04   0.357E-04 0.248E-05 0.558E+01
   -.223E+00 -.368E-01 0.514E+03   0.225E+00 0.250E-01 -.514E+03   -.312E-02 0.143E-01 -.756E-01
   0.611E-01 -.313E+00 0.513E+03   -.630E-01 0.282E+00 -.513E+03   0.201E-02 0.372E-01 -.922E-01
   -.677E-01 -.683E-01 0.155E+04   0.679E-01 0.686E-01 -.156E+04   -.291E-03 -.303E-03 0.313E+01
   0.169E-05 0.512E-05 0.155E+04   0.982E-06 -.330E-05 -.156E+04   0.234E-06 0.736E-06 0.313E+01
   -.460E+00 -.306E+00 -.156E+04   0.499E+00 0.329E+00 0.157E+04   -.315E-01 -.208E-01 -.439E+01
   0.385E+00 -.273E+01 -.156E+04   -.334E+00 0.267E+01 0.156E+04   -.742E-01 0.155E+00 -.408E+01
   -.668E+00 -.674E+00 -.513E+03   0.675E+00 0.680E+00 0.512E+03   -.626E-02 -.652E-02 0.270E+00
   -.104E-05 0.171E-05 -.511E+03   0.430E-06 -.109E-04 0.511E+03   -.157E-05 0.925E-05 0.282E+00
   -.309E+00 0.611E-01 0.513E+03   0.278E+00 -.630E-01 -.513E+03   0.372E-01 0.201E-02 -.921E-01
   -.611E-01 0.313E+00 0.513E+03   0.630E-01 -.282E+00 -.513E+03   -.201E-02 -.372E-01 -.922E-01
   -.667E-01 0.673E-01 0.155E+04   0.673E-01 -.680E-01 -.156E+04   -.831E-03 0.844E-03 0.313E+01
   -.171E-05 -.197E-05 0.155E+04   0.197E-05 0.332E-05 -.156E+04   -.823E-07 0.310E-06 0.313E+01
   -.271E+01 0.385E+00 -.156E+04   0.265E+01 -.334E+00 0.156E+04   0.157E+00 -.742E-01 -.408E+01
   -.385E+00 0.273E+01 -.156E+04   0.334E+00 -.267E+01 0.156E+04   0.742E-01 -.155E+00 -.408E+01
   -.587E+00 0.593E+00 -.511E+03   0.575E+00 -.580E+00 0.511E+03   0.146E-01 -.144E-01 0.342E+00
   0.310E-05 -.417E-05 -.521E+03   0.752E-05 0.140E-04 0.521E+03   -.152E-04 -.907E-05 -.154E+00
   0.223E+00 0.368E-01 0.514E+03   -.225E+00 -.250E-01 -.514E+03   0.312E-02 -.143E-01 -.756E-01
   -.368E-01 -.226E+00 0.514E+03   0.250E-01 0.229E+00 -.514E+03   0.143E-01 -.306E-02 -.758E-01
   0.667E-01 -.673E-01 0.155E+04   -.673E-01 0.680E-01 -.156E+04   0.830E-03 -.843E-03 0.313E+01
   -.554E-05 0.317E-05 0.155E+04   -.100E-05 -.229E-05 -.156E+04   0.125E-05 0.110E-05 0.313E+01
   0.460E+00 0.306E+00 -.156E+04   -.499E+00 -.329E+00 0.157E+04   0.315E-01 0.208E-01 -.439E+01
   -.306E+00 -.462E+00 -.156E+04   0.329E+00 0.503E+00 0.157E+04   -.208E-01 -.322E-01 -.439E+01
   0.587E+00 -.593E+00 -.511E+03   -.575E+00 0.580E+00 0.511E+03   -.146E-01 0.144E-01 0.342E+00
   0.867E-05 0.745E-05 -.512E+03   -.113E-04 -.104E-04 0.511E+03   0.223E-05 0.185E-05 0.252E+00
   0.309E+00 -.611E-01 0.513E+03   -.278E+00 0.630E-01 -.513E+03   -.372E-01 -.201E-02 -.921E-01
   0.368E-01 0.226E+00 0.514E+03   -.250E-01 -.229E+00 -.514E+03   -.143E-01 0.306E-02 -.758E-01
   0.677E-01 0.683E-01 0.155E+04   -.679E-01 -.686E-01 -.156E+04   0.291E-03 0.301E-03 0.313E+01
   -.439E-05 -.522E-05 0.155E+04   -.198E-05 0.230E-05 -.156E+04   0.268E-06 -.126E-06 0.313E+01
   0.271E+01 -.385E+00 -.156E+04   -.265E+01 0.334E+00 0.156E+04   -.157E+00 0.742E-01 -.408E+01
   0.306E+00 0.462E+00 -.156E+04   -.329E+00 -.503E+00 0.157E+04   0.208E-01 0.322E-01 -.439E+01
   0.668E+00 0.674E+00 -.513E+03   -.675E+00 -.680E+00 0.512E+03   0.627E-02 0.653E-02 0.270E+00
   0.126E-05 -.685E-05 -.511E+03   -.159E-04 0.119E-04 0.511E+03   0.159E-04 -.224E-05 0.282E+00
   0.634E-05 0.149E-05 0.139E+02   -.536E-13 0.244E-12 -.273E-11   0.141E-04 -.848E-05 -.122E+02

 POSITION                                       TOTAL-FORCE (eV/Angst)
      2.11015      0.00000      7.50000        -0.000034      0.000110      0.467013
      4.22029      2.11015      7.50000         0.000012      0.000288      0.467083
      2.11015      2.11015      9.61015         0.003276      0.003307      0.026356
      4.22029      0.00000      9.61015        -0.000001     -0.000000      0.036175
      2.11064      0.00125     11.72805         0.003488     -0.001137     -0.001511
      4.22085      2.11404     11.73078        -0.003451     -0.008736      0.000923
      2.11013      2.11009     13.82727        -0.023765     -0.023283     -0.144445
      4.22029      0.00000     13.82486         0.000004     -0.000008     -0.113725
      2.11015      4.22029      7.50000         0.000286      0.000011      0.467102
      4.22029      6.33044      7.50000        -0.000008     -0.000287      0.467082
      2.11015      6.33044      9.61015        -0.000797      0.000762      0.026061
      4.22029      4.22029      9.61015        -0.000000      0.000003      0.032146
      2.11406      4.22085     11.73078        -0.008932     -0.003448      0.001278
      4.21973      6.32654     11.73078         0.003454      0.008731      0.000936
      2.10630      6.33432     13.82060        -0.004541      0.004064     -0.093426
      4.22029      4.22029     13.86978         0.000005      0.000006     -0.435376
      6.33044      0.00000      7.50000         0.000037     -0.000105      0.467028
      0.00000      2.11015      7.50000         0.000104     -0.000029      0.467028
      6.33044      2.11015      9.61015         0.000801     -0.000768      0.026056
      0.00000      0.00000      9.61015        -0.000001      0.000002      0.024224
      6.32994      8.43933     11.72805        -0.003482      0.001141     -0.001509
      0.00125      2.11064     11.72806        -0.001145      0.003658     -0.001408
      6.33428      2.10627     13.82060         0.004548     -0.004056     -0.093438
      8.44058      0.00000     13.82532         0.000003      0.000001     -0.111252
      6.33044      4.22029      7.50000        -0.000285     -0.000013      0.467077
      0.00000      6.33044      7.50000        -0.000112      0.000030      0.467025
      6.33044      6.33044      9.61015        -0.003274     -0.003312      0.026354
      0.00000      4.22029      9.61015        -0.000004      0.000001      0.036312
      6.32653      4.21973     11.73078         0.008937      0.003452      0.001298
      8.43933      6.32994     11.72806         0.001133     -0.003664     -0.001406
      6.33046      6.33050     13.82727         0.023758      0.023273     -0.144456
      8.44058      4.22029     13.82491        -0.000011      0.000001     -0.113790
      2.11015      0.00000      9.61015        -0.001089      0.004460      0.034601
      4.22029      2.11015      9.61015         0.000363      0.011156      0.043018
      2.11015      2.11015      7.50000        -0.000090     -0.000092     -0.434928
      4.22029      0.00000      7.50000         0.000003      0.000003     -0.434858
      2.10851      0.00116     13.86476         0.004611      0.000246     -0.002962
      4.22366      2.10143     13.86352        -0.034512      0.123909      0.085312
      2.11093      2.11095     11.72459        -0.001242     -0.001451      0.011874
      4.22029      0.00000     11.72272        -0.000003      0.000001      0.017422
      2.11015      4.22029      9.61015         0.011137      0.000362      0.043018
      4.22029      6.33044      9.61015        -0.000362     -0.011158      0.043026
      2.11015      6.33044      7.50000        -0.000291      0.000292     -0.434856
      4.22029      4.22029      7.50000        -0.000000      0.000002     -0.435379
      2.10147      4.22366     13.86366         0.123911     -0.034516      0.084564
      4.21692      6.33916     13.86352         0.034521     -0.123909      0.085287
      2.10925      6.33131     11.72267         0.003446     -0.003241      0.017683
      4.22029      4.22029     11.73180        -0.000007     -0.000000      0.012645
      6.33044      0.00000      9.61015         0.001088     -0.004454      0.034597
      0.00000      2.11015      9.61015         0.004455     -0.001062      0.034588
      6.33044      2.11015      7.50000         0.000295     -0.000298     -0.434851
      0.00000      0.00000      7.50000        -0.000006      0.000002     -0.434997
      6.33207      8.43942     13.86476        -0.004616     -0.000242     -0.002966
      0.00116      2.10853     13.86478         0.000237      0.004290     -0.002998
      6.33133      2.10927     11.72267        -0.003445      0.003235      0.017675
      8.44058      0.00000     11.72239        -0.000000     -0.000001      0.016415
      6.33044      4.22029      9.61015        -0.011136     -0.000365      0.043016
      0.00000      6.33044      9.61015        -0.004461      0.001061      0.034594
      6.33044      6.33044      7.50000         0.000091      0.000096     -0.434926
      0.00000      4.22029      7.50000        -0.000007     -0.000003     -0.434870
      6.33911      4.21692     13.86366        -0.123900      0.034515      0.084481
      8.43942      6.33206     13.86478        -0.000242     -0.004293     -0.003011
      6.32966      6.32964     11.72459         0.001246      0.001455      0.011872
      0.00000      4.22029     11.72278         0.000003      0.000003      0.017101
    total drift:                                0.000022     -0.000008      0.019056

  FREE ENERGIE OF THE ION-ELECTRON SYSTEM (eV)
  free  energy   TOTEN  =      -438.44392384 eV

  energy  without entropy=     -438.44392384  energy(sigma->0) =     -438.44392384