 vasp.6.4.1 05Apr23 (build Sep 19 2024 10:44:22) complex

 executed on             LinuxIFC date 2024.10.13  13:45:29

 INCAR:
   SYSTEM = TiO2
   ISMEAR = 0
   SIGMA = 0.05
   EDIFF = 1E-7
   ALGO = ALL
   ISTART = 0
   IBRION = 2
   NSW = 1000
   ISYM = 0
   ISIF = 2
   EDIFFG = -0.01
   DIPOL = 0.5 0.5 0.5
   IDIPOL = 3
   LDIPOL = .TRUE.
   GGA = MK
   LUSE_VDW = .TRUE.
   PARAM1 = 0.1234
   PARAM2 = 0.711357
   ZAB_VDW = -1.8867
   AGGAC = 0.0
   ENCUT = 600
   PREC = Accurate
   LASPH = .TRUE.
   LREAL = .FALSE.
   ISPIN = 1
   NELM = 200
   NELMIN = 8
   NCORE = 8
   KPAR = 1
   LWAVE = .FALSE.
   LCHARG = .FALSE.

 POTCAR:    PAW_PBE H 15Jun2001
 POTCAR:    PAW_PBE O 08Apr2002
 POTCAR:    PAW_PBE Ti_pv 07Sep2000
 POTCAR:    PAW_PBE O 08Apr2002
|           W    W    AA    RRRRR   N    N  II  N    N   GGGG   !!!           |
|           W    W   A  A   R    R  NN   N  II  NN   N  G    G  !!!           |
|           W    W  A    A  R    R  N N  N  II  N N  N  G       !!!           |
|           W WW W  AAAAAA  RRRRR   N  N N  II  N  N N  G  GGG   !            |
|           WW  WW  A    A  R   R   N   NN  II  N   NN  G    G                |
|           W    W  A    A  R    R  N    N  II  N    N   GGGG   !!!           |
|     For optimal performance we recommend to set                             |
|       NCORE = 2 up to number-of-cores-per-socket                            |
|     This setting can greatly improve the performance of VASP for DFT.       |
|     The default, NCORE=1 might be grossly inefficient on modern             |
|     multi-core architectures or massively parallel machines. Do your        |
|     Unfortunately you need to use the default for GW and RPA                |
|     calculations (for HF NCORE is supported but not extensively tested      |
|     yet).                                                                   |

   TITEL  = PAW_PBE H 15Jun2001
   POMASS =    1.000; ZVAL   =    1.000    mass and valenz
   ENMAX  =  250.000; ENMIN  =  200.000 eV

   TITEL  = PAW_PBE O 08Apr2002
   POMASS =   16.000; ZVAL   =    6.000    mass and valenz
   ENMAX  =  400.000; ENMIN  =  300.000 eV

   TITEL  = PAW_PBE Ti_pv 07Sep2000
   POMASS =   47.880; ZVAL   =   10.000    mass and valenz
   ENMAX  =  222.335; ENMIN  =  166.751 eV

   TITEL  = PAW_PBE O 08Apr2002
   POMASS =   16.000; ZVAL   =    6.000    mass and valenz
   ENMAX  =  400.000; ENMIN  =  300.000 eV

  PAW_PBE H 15Jun2001                   :
  PAW_PBE O 08Apr2002                   :
  PAW_PBE Ti_pv 07Sep2000               :
  PAW_PBE O 08Apr2002                   :

 POSCAR:  H  O Ti  O
  positions in direct lattice
 exchange correlation table for  LEXCH =       43
   RHO(1)=    0.500       N(1)  =     2000
   RHO(2)=  100.500       N(2)  =     4000

 ion  position               nearest neighbor table
   1  0.509  0.550  0.799-   3 0.97
   2  0.612  0.497  0.780-   3 1.00
   3  0.536  0.492  0.780-   1 0.97   2 1.00  83 2.23
   4  0.750  0.625  0.287-  84 1.96  85 1.96 144 1.96 145 1.96  87 1.99 166 1.99  14 2.96  34 2.96

   5  0.000  0.750  0.287-  86 1.96  87 1.96 106 1.96 107 1.96  88 1.99  35 2.96  15 2.96
   6  0.000  0.625  0.393-  88 1.96  89 1.96 148 1.96 149 1.96  90 1.99  91 1.99  16 2.96  36 2.96

[...]

  84  0.750  0.750  0.245-   4 1.96  14 1.96
  85  0.750  0.750  0.328-   4 1.96  14 1.96   7 1.99
  86  0.098  0.625  0.287-   5 1.96  35 1.96  44 1.99
  87  0.902  0.625  0.287-   5 1.96  35 1.96   4 1.99
  88  0.000  0.750  0.352-   6 1.96  16 1.96   5 1.99
  89  0.000  0.750  0.435-   6 1.96  16 1.96   9 1.99
  90  0.848  0.625  0.393-   7 1.96  37 1.96   6 1.99
  91  0.152  0.625  0.393-  47 1.96  77 1.96   6 1.99
  92  0.750  0.750  0.458-   8 1.96  18 1.96   7 1.99
  93  0.750  0.750  0.542-   8 1.96  18 1.96  11 2.11
  94  0.098  0.625  0.500-   9 1.96  39 1.96  48 1.99
  95  0.902  0.625  0.500-   9 1.96  39 1.96   8 1.99
  96  0.000  0.750  0.565-  10 1.90  20 1.90   9 2.00
  97  0.000  0.750  0.649-  13 1.82  10 2.02  20 2.02
  98  0.850  0.625  0.607-  10 1.96  41 1.98  11 1.98
  99  0.150  0.625  0.607-  10 1.96  81 1.98  51 1.98
 100  0.750  0.750  0.672-  11 1.87  12 2.10  22 2.10
 101  0.750  0.750  0.756-  22 1.83  12 1.83
 102  0.094  0.625  0.719-  13 1.95  43 1.95  52 2.04
 103  0.906  0.625  0.719-  43 1.95  13 1.95  12 2.04
 104  0.750  0.000  0.245-  14 1.96  24 1.96
 105  0.750  0.000  0.328-  14 1.96  24 1.96  17 1.99
 106  0.098  0.875  0.287-   5 1.96  15 1.96  54 1.99
 107  0.902  0.875  0.287-   5 1.96  15 1.96  14 1.99
 108  0.000  0.000  0.352-  16 1.96  26 1.96  15 1.99
 109  0.000  0.000  0.435-  16 1.96  26 1.96  19 1.99
 110  0.848  0.875  0.393-   7 1.96  17 1.96  16 1.99
 111  0.152  0.875  0.393-  47 1.96  57 1.96  16 1.99
 112  0.750  0.000  0.458-  18 1.96  28 1.96  17 1.99
 113  0.750  0.000  0.542-  18 1.96  28 1.96  21 2.11
 114  0.098  0.875  0.500-   9 1.96  19 1.96  58 1.99
 115  0.902  0.875  0.500-   9 1.96  19 1.96  18 1.99
 116  0.000  0.000  0.565-  20 1.90  30 1.90  19 2.00
 117  1.000  0.000  0.649-  23 1.82  30 2.02  20 2.02
 118  0.850  0.875  0.607-  20 1.96  11 1.98  21 1.98
 119  0.150  0.875  0.607-  20 1.96  61 1.98  51 1.98
 120  0.750  0.000  0.672-  21 1.87  32 2.10  22 2.10
 121  0.750  1.000  0.756-  22 1.83  32 1.83
 122  0.094  0.875  0.719-  23 1.95  13 1.95  62 2.04
 123  0.906  0.875  0.719-  23 1.95  13 1.95  22 2.04
 124  0.750  0.250  0.245-  24 1.96  34 1.96
 125  0.750  0.250  0.328-  24 1.96  34 1.96  27 1.99
 126  0.098  0.125  0.287-  15 1.96  25 1.96  64 1.99
 127  0.902  0.125  0.287-  15 1.96  25 1.96  24 1.99
 128  0.000  0.250  0.352-  26 1.96  36 1.96  25 1.99
 129  0.000  0.250  0.435-  26 1.96  36 1.96  29 1.99
 130  0.848  0.125  0.393-  17 1.96  27 1.96  26 1.99
 131  0.152  0.125  0.393-  57 1.96  67 1.96  26 1.99
 132  0.750  0.250  0.458-  28 1.96  38 1.96  27 1.99
 133  0.750  0.250  0.542-  28 1.96  38 1.96  31 2.11
 134  0.098  0.125  0.500-  19 1.96  29 1.96  68 1.99
 135  0.902  0.125  0.500-  19 1.96  29 1.96  28 1.99
 136  0.000  0.250  0.565-  40 1.90  30 1.90  29 2.00
 137  0.000  0.250  0.649-  33 1.82  30 2.02  40 2.02
 138  0.850  0.125  0.607-  30 1.96  31 1.98  21 1.98
 139  0.150  0.125  0.607-  30 1.96  61 1.98  71 1.98
 140  0.750  0.250  0.672-  31 1.87  32 2.10  42 2.10
 141  0.750  0.250  0.756-  42 1.83  32 1.83
 142  0.094  0.125  0.719-  33 1.95  23 1.95  72 2.04
 143  0.906  0.125  0.719-  33 1.95  23 1.95  32 2.04
[...]
 229  0.500  0.500  0.435-  46 1.96  76 1.96  79 1.99
 230  0.348  0.375  0.393-  67 1.96  77 1.96  76 1.99
 231  0.652  0.375  0.393-  27 1.96  37 1.96  76 1.99
 232  0.250  0.500  0.458-  48 1.96  78 1.96  77 1.99
 233  0.250  0.500  0.542-  48 1.96  78 1.96  81 2.11
 234  0.598  0.375  0.500-  69 1.96  79 1.96  38 1.99
 235  0.402  0.375  0.500-  69 1.96  79 1.96  78 1.99
 236  0.500  0.500  0.565-  50 1.90  80 1.90  79 2.00
 237  0.500  0.500  0.649-  83 1.82  50 2.02  80 2.02
 238  0.350  0.375  0.607-  80 1.96  71 1.98  81 1.98
 239  0.650  0.375  0.607-  80 1.96  31 1.98  41 1.98
 240  0.250  0.500  0.672-  81 1.87  82 2.10  52 2.10
 241  0.250  0.500  0.756-  82 1.83  52 1.83
 242  0.594  0.375  0.719-  73 1.95  83 1.95  42 2.04
 243  0.406  0.375  0.719-  73 1.95  83 1.95  82 2.04

IMPORTANT INFORMATION: All symmetrisations will be switched off!
NOSYMM: (Re-)initialisation of all symmetry stuff for point group C_1.

                                     Primitive cell

  volume of cell :    4737.1735

  direct lattice vectors                    reciprocal lattice vectors
    13.061198858  0.000000000  0.000000000     0.076562650  0.000000000  0.000000000
     0.000000000 11.845266045  0.000000000     0.000000000  0.084421911  0.000000000
     0.000000000  0.000000000 30.619030317     0.000000000  0.000000000  0.032659427

  length of vectors
    13.061198858 11.845266045 30.619030317     0.076562650  0.084421911  0.032659427

  position of ions in fractional coordinates (direct lattice)
     0.509178991  0.550487829  0.798802989
     0.611633453  0.496892620  0.779964103
     0.535548860  0.491936028  0.779622441
     0.750000000  0.625000000  0.286714362
     0.000000000  0.750000000  0.286714362
     0.000000000  0.625000000  0.393357181
     0.750000000  0.750000000  0.393357181
     0.750000000  0.625000000  0.500000000
     0.000000000  0.750000000  0.500000000
     0.000000038  0.625000012  0.604439268
     0.750000022  0.749999988  0.610750177
     0.749999940  0.625000009  0.720421785
     0.000000012  0.749999988  0.708497273
     0.750000000  0.875000000  0.286714362
     0.000000000  0.000000000  0.286714362
     0.000000000  0.875000000  0.393357181
     0.750000000  0.000000000  0.393357181
     0.750000000  0.875000000  0.500000000
     0.000000000  0.000000000  0.500000000
     0.999999981  0.875000008  0.604439275
     0.750000000  0.000000010  0.610750189
     0.749999929  0.875000013  0.720421816
     0.999999966  0.999999970  0.708497268
     0.750000000  0.125000000  0.286714362
     0.000000000  0.250000000  0.286714362
     0.000000000  0.125000000  0.393357181
     0.750000000  0.250000000  0.393357181
     0.750000000  0.125000000  0.500000000
     0.000000000  0.250000000  0.500000000
     0.999999998  0.125000010  0.604439287
     0.750000012  0.249999994  0.610750204
     0.749999969  0.124999992  0.720421820
     0.999999985  0.249999987  0.708497291
     0.750000000  0.375000000  0.286714362
     0.000000000  0.500000000  0.286714362
     0.000000000  0.375000000  0.393357181
     0.750000000  0.500000000  0.393357181
     0.750000000  0.375000000  0.500000000
     0.000000000  0.500000000  0.500000000
     0.999999980  0.374999975  0.604439276
     0.750000027  0.500000018  0.610750194
     0.750000010  0.374999992  0.720421849
     0.999999973  0.500000001  0.708497251
     0.250000000  0.625000000  0.286714362
     0.500000000  0.750000000  0.286714362
     0.500000000  0.625000000  0.393357181
     0.250000000  0.750000000  0.393357181
     0.250000000  0.625000000  0.500000000
     0.500000000  0.750000000  0.500000000
     0.499999996  0.624999984  0.604439241
     0.249999994  0.750000011  0.610750197
     0.250000015  0.625000016  0.720421825
     0.500000055  0.750000054  0.708497233
     0.250000000  0.875000000  0.286714362
     0.500000000  0.000000000  0.286714362
     0.500000000  0.875000000  0.393357181
     0.250000000  0.000000000  0.393357181
     0.250000000  0.875000000  0.500000000
     0.500000000  0.000000000  0.500000000
     0.500000015  0.875000007  0.604439258
[...]
     0.500000000  0.500000000  0.435125836
     0.347917178  0.375000000  0.393357181
     0.652082822  0.375000000  0.393357181
     0.250000000  0.500000000  0.458231344
     0.250000000  0.500000000  0.541768656
     0.597917178  0.375000000  0.500000000
     0.402082822  0.375000000  0.500000000
     0.499999972  0.499999984  0.565446779
     0.499999995  0.500000009  0.649151821
     0.350086065  0.374999994  0.607256810
     0.649913924  0.374999996  0.607256792
     0.249999963  0.499999993  0.671819536
     0.250000011  0.500000001  0.755695036
     0.593928640  0.375000020  0.718931270
[...]
   4.57254372  4.44197470 18.59361466
   8.48865501  4.44197472 18.59361412
   3.26529923  5.92263294 20.57046276
   3.26529986  5.92263304 23.13864922
   7.75742008  4.44197500 22.01297835
   5.30377904  4.44197476 22.01297814

--------------------------------------- Iteration      FINAL  ---------------------------------------

--------------------OUTCAR has been truncated-------------------------

[...]

--------------------OUTCAR has been truncated-------------------------

  FORCE on cell =-STRESS in cart. coord.  units (eV):
  Direction    XX          YY          ZZ          XY          YZ          ZX
  Alpha Z  4649.42423  4649.42423  4649.42423
  Ewald  971895.19201989519.98863************   -27.79762    38.92826   -50.21794
  Hartree************************************    -7.61594     6.96790   -24.96502
  E(xc)   -8637.45737 -8632.28841 -8634.41674    -0.08195     0.15313    -0.14579
  Local  ************************************    29.24618   -34.42044    70.54323
  n-local -5500.81092 -5427.07919 -5542.44429    -0.31268     0.05772    -0.13818
  augment  5257.61915  5235.04625  5263.25238     0.38886    -0.77407     0.09857
  Kinetic 28706.40135 28262.58950 28767.27876     6.17180   -10.94695     5.21642
  Fock        0.00000     0.00000     0.00000     0.00000     0.00000     0.00000
  Total       2.53443   -39.90939   -34.67285    -0.00134    -0.03445     0.39129
  in kB       0.85718   -13.49791   -11.72683    -0.00045    -0.01165     0.13234

 VOLUME and BASIS-vectors are now :
  energy-cutoff  :      600.00
  volume of cell :     4737.17
      direct lattice vectors                 reciprocal lattice vectors
    13.061198858  0.000000000  0.000000000     0.076562650  0.000000000  0.000000000
     0.000000000 11.845266045  0.000000000     0.000000000  0.084421911  0.000000000
     0.000000000  0.000000000 30.619030317     0.000000000  0.000000000  0.032659427

  length of vectors
    13.061198858 11.845266045 30.619030317     0.076562650  0.084421911  0.032659427

 FORCES acting on ions:
    Electron-Ion                     Ewald-Force                    Non-Local-Force
   0.348E+02 -.607E+02 -.452E+03   -.380E+02 0.665E+02 0.457E+03   0.323E+01 -.576E+01 -.510E+01
   -.628E+02 -.198E+01 -.434E+03   0.703E+02 0.215E+01 0.434E+03   -.753E+01 -.179E+00 -.391E-01
   0.510E+02 0.385E+02 -.257E+04   -.690E+02 -.698E+02 0.255E+04   0.180E+02 0.314E+02 0.143E+02
   -.106E+00 -.115E-01 0.377E+04   0.102E+00 0.116E-01 -.377E+04   0.999E-03 -.649E-06 0.356E+00
   -.512E-01 -.260E-01 0.395E+04   0.526E-01 0.261E-01 -.394E+04   -.264E-03 -.150E-04 -.369E+01
   -.211E+00 -.273E-01 0.192E+04   0.217E+00 0.272E-01 -.192E+04   -.930E-03 0.855E-04 -.417E-01
   -.268E+00 0.108E-01 0.192E+04   0.259E+00 -.104E-01 -.192E+04   0.211E-02 0.164E-04 0.204E+00
   -.221E+00 0.252E-02 0.319E+01   0.179E+00 -.218E-01 -.247E+01   0.750E-02 0.975E-03 -.113E+00
   -.109E+01 -.503E+00 0.113E+02   0.111E+01 0.505E+00 -.124E+02   -.369E-02 -.205E-02 0.332E+00
   -.437E+01 -.182E+01 -.186E+04   0.437E+01 0.183E+01 0.186E+04   -.192E-02 -.380E-02 0.672E-01
   -.366E+01 -.711E+01 -.191E+04   0.367E+01 0.711E+01 0.191E+04   -.102E-01 -.418E-02 -.718E-01
   -.704E+02 -.153E+02 -.371E+04   0.702E+02 0.151E+02 0.371E+04   0.169E+00 0.144E+00 0.570E-01
   -.482E+01 -.215E+01 -.377E+04   0.487E+01 0.215E+01 0.377E+04   -.506E-01 -.100E-01 0.905E+00
   -.116E+00 -.186E-01 0.377E+04   0.112E+00 0.189E-01 -.377E+04   0.105E-02 -.887E-07 0.356E+00
   -.487E-01 -.382E-02 0.395E+04   0.501E-01 0.389E-02 -.394E+04   -.266E-03 -.714E-05 -.369E+01
   -.182E+00 -.488E-01 0.192E+04   0.188E+00 0.488E-01 -.192E+04   -.879E-03 0.321E-04 -.417E-01
   -.353E+00 -.260E-01 0.192E+04   0.344E+00 0.257E-01 -.192E+04   0.198E-02 -.115E-04 0.204E+00
   -.147E+01 -.410E+00 0.237E+01   0.143E+01 0.430E+00 -.165E+01   0.651E-02 -.829E-03 -.114E+00
   -.778E+00 -.425E-01 0.107E+02   0.792E+00 0.414E-01 -.117E+02   -.268E-02 0.386E-03 0.329E+00
   -.246E+01 -.134E+01 -.187E+04   0.246E+01 0.134E+01 0.187E+04   0.592E-03 -.679E-02 0.660E-01
   -.205E+01 0.596E+00 -.192E+04   0.206E+01 -.600E+00 0.192E+04   -.178E-01 0.233E-02 -.818E-01
   -.160E+02 -.155E+02 -.375E+04   0.160E+02 0.155E+02 0.375E+04   0.509E-01 0.177E-01 -.667E-01
   -.486E+01 0.152E+00 -.377E+04   0.484E+01 -.151E+00 0.377E+04   0.212E-01 -.815E-03 0.941E+00
   -.114E+00 0.114E-01 0.377E+04   0.111E+00 -.116E-01 -.377E+04   0.103E-02 0.148E-04 0.356E+00
   -.511E-01 0.260E-01 0.395E+04   0.525E-01 -.261E-01 -.394E+04   -.270E-03 0.156E-04 -.369E+01
   -.179E+00 0.283E-01 0.192E+04   0.185E+00 -.284E-01 -.192E+04   -.912E-03 -.254E-04 -.417E-01
   -.248E+00 -.104E-01 0.192E+04   0.239E+00 0.994E-02 -.192E+04   0.201E-02 0.664E-05 0.205E+00
   -.140E+01 0.234E+00 0.227E+01   0.137E+01 -.256E+00 -.155E+01   0.744E-02 0.115E-02 -.115E+00
   -.104E+01 0.504E+00 0.113E+02   0.105E+01 -.505E+00 -.123E+02   -.318E-02 0.172E-02 0.333E+00
   -.798E+00 0.129E+01 -.187E+04   0.788E+00 -.129E+01 0.187E+04   0.401E-02 0.648E-02 0.665E-01
   -.439E+01 0.601E+01 -.191E+04   0.440E+01 -.600E+01 0.191E+04   -.111E-01 -.551E-02 -.808E-01
   -.158E+02 0.145E+02 -.375E+04   0.158E+02 -.145E+02 0.375E+04   0.493E-01 -.161E-01 -.741E-01
   -.421E+01 0.195E+01 -.377E+04   0.425E+01 -.194E+01 0.377E+04   -.469E-01 0.700E-02 0.902E+00
   -.104E+00 0.187E-01 0.377E+04   0.101E+00 -.188E-01 -.377E+04   0.986E-03 -.123E-04 0.356E+00
   -.536E-01 0.384E-02 0.395E+04   0.550E-01 -.390E-02 -.394E+04   -.273E-03 0.652E-05 -.369E+01
   -.210E+00 0.478E-01 0.192E+04   0.216E+00 -.476E-01 -.192E+04   -.941E-03 -.914E-04 -.418E-01
   -.166E+00 0.256E-01 0.192E+04   0.157E+00 -.253E-01 -.192E+04   0.182E-02 -.573E-04 0.204E+00
   -.139E+00 0.178E+00 0.304E+01   0.956E-01 -.158E+00 -.231E+01   0.799E-02 -.919E-03 -.114E+00
   -.117E+01 0.445E-01 0.120E+02   0.119E+01 -.442E-01 -.131E+02   -.468E-02 -.188E-03 0.330E+00
   -.434E+01 0.194E+01 -.186E+04   0.434E+01 -.194E+01 0.186E+04   -.184E-02 0.312E-02 0.688E-01
   -.356E+01 0.852E-01 -.190E+04   0.361E+01 -.878E-01 0.190E+04   -.520E-01 0.289E-02 -.697E-01
   -.698E+02 0.137E+02 -.371E+04   0.697E+02 -.134E+02 0.371E+04   0.118E+00 -.172E+00 0.579E-01
   -.729E+01 0.152E+00 -.376E+04   0.726E+01 -.157E+00 0.376E+04   0.294E-01 0.327E-02 0.856E+00
   0.107E+00 -.797E-02 0.377E+04   -.103E+00 0.791E-02 -.377E+04   -.994E-03 0.117E-04 0.356E+00
   0.502E-01 -.103E-01 0.395E+04   -.516E-01 0.106E-01 -.394E+04   0.270E-03 -.489E-04 -.370E+01
   0.186E+00 0.145E+00 0.192E+04   -.191E+00 -.135E+00 -.192E+04   0.882E-03 -.247E-02 -.431E-01
   0.294E+00 0.544E-01 0.192E+04   -.285E+00 -.541E-01 -.192E+04   -.197E-02 -.657E-04 0.200E+00
   0.108E+01 0.185E+00 0.101E+01   -.104E+01 -.198E+00 -.231E+00   -.107E-01 0.678E-03 -.123E+00
   0.732E+00 0.123E+01 0.148E+02   -.745E+00 -.130E+01 -.156E+02   0.114E-02 0.363E-01 0.259E+00
   0.356E+01 -.118E+02 -.186E+04   -.356E+01 0.119E+02 0.186E+04   0.573E-02 -.111E+00 0.391E-01
   0.108E+02 -.483E+01 -.192E+04   -.108E+02 0.483E+01 0.192E+04   -.205E-01 0.122E-01 -.691E-01
   0.361E+02 -.137E+02 -.373E+04   -.361E+02 0.137E+02 0.373E+04   0.618E-01 0.725E-02 -.918E-01
   0.212E+02 -.553E+02 -.372E+04   -.211E+02 0.554E+02 0.372E+04   -.152E+00 -.407E-01 0.102E+01
   0.117E+00 -.147E-01 0.377E+04   -.113E+00 0.149E-01 -.377E+04   -.105E-02 0.970E-06 0.356E+00
   0.477E-01 -.633E-02 0.395E+04   -.491E-01 0.635E-02 -.394E+04   0.264E-03 -.136E-05 -.370E+01
   0.158E+00 0.870E-01 0.192E+04   -.164E+00 -.860E-01 -.192E+04   0.828E-03 -.111E-02 -.439E-01
   0.377E+00 -.240E-01 0.192E+04   -.367E+00 0.239E-01 -.192E+04   -.201E-02 0.526E-04 0.200E+00
   0.214E+01 0.429E-01 0.918E+00   -.211E+01 -.404E-01 -.147E+00   -.521E-02 -.588E-03 -.121E+00
   0.300E+00 -.250E+00 0.180E+02   -.314E+00 0.251E+00 -.190E+02   0.327E-02 -.161E-02 0.287E+00
   -.145E-01 -.107E+02 -.183E+04   -.128E-02 0.107E+02 0.183E+04   0.164E-01 -.304E-01 -.670E-01
[...]
   -.543E+02 -.346E-01 0.115E+04   0.583E+02 0.339E-01 -.115E+04   -.364E+01 0.848E-03 0.154E+00
   0.544E+02 -.208E-01 0.115E+04   -.585E+02 0.202E-01 -.115E+04   0.365E+01 0.880E-03 0.162E+00
   0.247E+00 0.436E-01 0.505E+03   -.230E+00 -.438E-01 -.509E+03   -.232E-01 0.424E-03 0.424E+01
   0.159E+01 0.227E+00 -.519E+03   -.156E+01 -.226E+00 0.526E+03   -.487E-01 -.178E-02 -.709E+01
   -.557E+02 -.327E+00 0.704E+01   0.604E+02 0.325E+00 -.721E+01   -.511E+01 0.215E-01 0.248E+00
   0.566E+02 -.405E+00 0.659E+01   -.613E+02 0.400E+00 -.675E+01   0.515E+01 0.250E-01 0.232E+00
   0.102E+01 0.570E+00 -.613E+03   -.106E+01 -.642E+00 0.607E+03   0.406E-01 0.709E-01 0.684E+01
   0.115E+02 -.147E+01 -.160E+04   -.120E+02 0.153E+01 0.161E+04   0.478E+00 -.552E-01 -.186E+01
   -.284E+02 0.283E+01 -.112E+04   0.320E+02 -.297E+01 0.112E+04   -.359E+01 0.141E+00 0.108E+01
   0.267E+02 0.299E+01 -.112E+04   -.297E+02 -.304E+01 0.112E+04   0.298E+01 0.492E-01 0.654E+00
   0.141E+02 -.722E+00 -.180E+04   -.141E+02 0.727E+00 0.180E+04   -.231E-01 -.514E-02 -.189E+01
   0.366E+02 0.738E+00 -.271E+04   -.364E+02 -.797E+00 0.273E+04   -.122E+00 0.584E-01 -.205E+02
   -.489E+02 0.433E+02 -.222E+04   0.550E+02 -.431E+02 0.222E+04   -.608E+01 -.228E+00 -.659E+00
   0.653E+02 0.343E+02 -.229E+04   -.715E+02 -.344E+02 0.229E+04   0.620E+01 0.918E-01 -.314E+01
   -.105E+02 -.262E+02 0.755E+02   -.190E-11 -.146E-11 -.773E-11   0.104E+02 0.262E+02 -.755E+02

 POSITION                                       TOTAL-FORCE (eV/Angst)
      6.65738      6.52492     24.54799         0.002388     -0.001182      0.002755
      8.01174      5.88768     23.96950         0.003107     -0.002380     -0.005694
      7.01150      5.83582     23.95508         0.007534     -0.004643     -0.001294
      9.79590      7.40329      8.77892        -0.002415      0.000067     -3.481414
      0.00000      8.88395      8.77892         0.001118      0.000106      2.773420
      0.00000      7.40329     12.04422         0.005107      0.000027      0.515223
      9.79590      8.88395     12.04422        -0.007111      0.000432     -0.723177
      9.79590      7.40329     15.30952        -0.034526     -0.018308      0.607862
      0.00000      8.88395     15.30952         0.012026      0.000624     -0.703034
      0.00570      7.40394     18.50836         0.006789     -0.001761     -0.000418
      9.80095      8.88545     18.68684         0.002651     -0.001107     -0.003391
      9.80606      7.41388     22.02377        -0.002965      0.000540      0.000074
     -0.00160      8.88737     21.70163         0.001201     -0.001404     -0.004520
      9.79590     10.36461      8.77892        -0.002501      0.000214     -3.481490
      0.00000      0.00000      8.77892         0.001121      0.000066      2.773273
      0.00000     10.36461     12.04422         0.005045      0.000037      0.515364
      9.79590      0.00000     12.04422        -0.007401     -0.000241     -0.723758
      9.79590     10.36461     15.30952        -0.025838      0.019923      0.609862
      0.00000      0.00000     15.30952         0.011423     -0.000636     -0.702435
      0.00146     10.36491     18.50990         0.003643     -0.000640      0.000326
      9.79347      0.00095     18.69408        -0.003967     -0.000071     -0.000794
      9.79128     10.36594     22.05184         0.001824      0.000982      0.006505
      0.00020     -0.00073     21.70021         0.006025      0.000085     -0.006387
      9.79590      1.48066      8.77892        -0.002481     -0.000155     -3.481638
      0.00000      2.96132      8.77892         0.001134     -0.000097      2.773283
      0.00000      1.48066     12.04422         0.005085     -0.000167      0.515228
      9.79590      2.96132     12.04422        -0.006876     -0.000414     -0.723580
      9.79590      1.48066     15.30952        -0.024829     -0.021170      0.608101
      0.00000      2.96132     15.30952         0.012516     -0.000148     -0.703064
      0.00427      1.48008     18.50959         0.002353      0.001226      0.000362
      9.79845      2.95805     18.68720         0.003029      0.001112     -0.005453
      9.78920      1.47366     22.05260         0.002336     -0.000942      0.006242
     -0.00140      2.95679     21.70129         0.000840      0.001262     -0.004676
      9.79590      4.44197      8.77892        -0.002396     -0.000108     -3.481546
      0.00000      5.92263      8.77892         0.001133     -0.000055      2.773431
      0.00000      4.44197     12.04422         0.005225      0.000120      0.515099
      9.79590      5.92263     12.04422        -0.006735      0.000220     -0.722904
      9.79590      4.44197     15.30952        -0.034873      0.019426      0.608431
      0.00000      5.92263     15.30952         0.012551      0.000094     -0.702675
      0.00353      4.44170     18.50819         0.004579      0.000794      0.000060
      9.80827      5.92237     18.69321         0.006361     -0.000060      0.001189
      9.81226      4.42530     22.02738        -0.002573      0.001128      0.000001
      0.00781      5.92358     21.69924         0.001216      0.000135      0.000931
      3.26530      7.40329      8.77892         0.002447     -0.000054     -3.479192
      6.53060      8.88395      8.77892        -0.001073      0.000275      2.779477
      6.53060      7.40329     12.04422        -0.004957      0.008380      0.537116
      3.26530      8.88395     12.04422         0.007067      0.000267     -0.707676
      3.26530      7.40329     15.30952         0.035428     -0.011932      0.657571
      6.53060      8.88395     15.30952        -0.012591     -0.039241     -0.587980
      6.53670      7.37685     18.54456         0.003076     -0.003070      0.004266
      3.27107      8.88251     18.69596         0.003575     -0.000631     -0.003134
      3.26907      7.40566     22.05634         0.001381      0.002669      0.001032
      6.53845      8.88673     21.66341        -0.002271      0.001491     -0.000182
      3.26530     10.36461      8.77892         0.002522      0.000210     -3.479343
      6.53060      0.00000      8.77892        -0.001070      0.000029      2.779561
      6.53060     10.36461     12.04422        -0.004913     -0.000072      0.538824
      3.26530      0.00000     12.04422         0.007329     -0.000072     -0.708018
      3.26530     10.36461     15.30952         0.026415      0.001904      0.650001
      6.53060      0.00000     15.30952        -0.010976     -0.000880     -0.767064
      6.52917     10.35372     18.47851         0.001424     -0.002739      0.004373
[...]
      6.53060      5.92263     13.32313         0.001874     -0.000716     -0.132268
      4.54422      4.44197     12.04422         0.417087      0.000185      0.048901
      8.51698      4.44197     12.04422        -0.411369      0.000272      0.050858
      3.26530      5.92263     14.03060        -0.006451      0.000272     -0.100074
      3.26530      5.92263     16.58843        -0.018043     -0.001381      0.008703
      7.80952      4.44197     15.30952        -0.416965      0.019030      0.072289
      5.25168      4.44197     15.30952         0.442219      0.020482      0.071299
      6.53277      5.92047     17.32122         0.000918     -0.000882     -0.002492
      6.51499      5.92720     19.90045        -0.000607      0.000296     -0.005235
      4.56402      4.44118     18.59595         0.000330      0.000934      0.000019
      8.49358      4.44194     18.60949        -0.002261      0.003467     -0.000533
      3.26519      5.92783     20.57336        -0.001764     -0.000051      0.003752
      3.28125      5.92187     23.13859         0.001144     -0.000273     -0.003579
      7.78719      4.40056     21.88560         0.000114      0.000580     -0.000797
      5.30758      4.42993     21.99506         0.002035      0.002011      0.001358
    total drift:                               -0.004891     -0.001194     -0.001306

  FREE ENERGIE OF THE ION-ELECTRON SYSTEM (eV)
  free  energy   TOTEN  =     -1753.75307868 eV

  energy  without entropy=    -1753.75307868  energy(sigma->0) =    -1753.75307868

 d Force = 0.6787276E-04[ 0.438E-04, 0.919E-04]  d Energy = 0.6569966E-04 0.217E-05
 d Force = 0.5624690E+01[ 0.562E+01, 0.562E+01]  d Ewald  = 0.5624689E+01 0.146E-05

 Conjugate gradient step on ions:
 trial-energy change:   -0.000066  1 .order   -0.000068   -0.000092   -0.000044
  (g-gl).g = 0.221E-03      g.g   = 0.219E-03  gl.gl    = 0.212E-03
 g(Force)  = 0.219E-03   g(Stress)= 0.000E+00 ortho     =-0.340E-05
 gamma     =   1.04500
 trial     =   0.42744
 opt step  =   0.81660  (harmonic =   0.81660) maximal distance =0.00271189
 next E    = -1753.753101   (d E  =  -0.00009)

 reached required accuracy - stopping structural energy minimisation