 vasp.6.3.0 20Jan22 (build Dec 25 2023 18:06:01) complex
 executed on        HPECrayEX_GCC date 2024.01.24  03:03:18

 INCAR:
   SYSTEM = MgO-rocksalt
   ISMEAR = 0
   SIGMA = 0.05
   EDIFF = 1E-8
   ALGO = ALL
   ISTART = 0
   IBRION = 5
   POTIM = 0.01
   NFREE = 2
   ISYM = 0
   DIPOL = 0.5 0.5 0.5
   IDIPOL = 3
   LDIPOL = .TRUE.
   GGA = MK
   LUSE_VDW = .TRUE.
   PARAM1 = 0.1234
   PARAM2 = 0.711357
   ZAB_VDW = -1.8867
   AGGAC = 0.0
   ENCUT = 600
   PREC = Accurate
   LASPH = .TRUE.
   LREAL = .FALSE.
   ISPIN = 1
   NELM = 200
   NELMIN = 8
   NCORE = 8
   KPAR = 1
   LWAVE = .FALSE.
   LCHARG = .FALSE.

 POTCAR:    PAW_PBE C 08Apr2002
 POTCAR:    PAW_PBE O 08Apr2002
 POTCAR:    PAW_PBE H 15Jun2001
 POTCAR:    PAW_PBE Ti_pv 07Sep2000
 POTCAR:    PAW_PBE O 08Apr2002
|               ----> ADVICE to this user running VASP <----                  |
|     You have switched on vdW-DFT.                                           |
|     This routine was written and supplied by Jiri Klimes. We recommend      |
|     that you carefully read and cite the following publications:            |
|       J. Klimes, D.R. Bowler, A. Michelides                                 |
|          J. Phys.: Cond Matt. 22 022201 (2010)                              |
|       J. Klimes, D.R. Bowler, A. Michelides                                 |
|          Phys. Rev. B. 83, 195131 (2011)                                    |
|     and references therein.                                                 |

   TITEL  = PAW_PBE C 08Apr2002
   POMASS =   12.011; ZVAL   =    4.000    mass and valenz
   ENMAX  =  400.000; ENMIN  =  300.000 eV

[...]

   TITEL  = PAW_PBE H 15Jun2001
   POMASS =    1.000; ZVAL   =    1.000    mass and valenz
   ENMAX  =  250.000; ENMIN  =  200.000 eV

   TITEL  = PAW_PBE Ti_pv 07Sep2000
   POMASS =   47.880; ZVAL   =   10.000    mass and valenz
   ENMAX  =  222.335; ENMIN  =  166.751 eV

   TITEL  = PAW_PBE O 08Apr2002
   POMASS =   16.000; ZVAL   =    6.000    mass and valenz
   ENMAX  =  400.000; ENMIN  =  300.000 eV

  PAW_PBE C 08Apr2002                   :
  PAW_PBE O 08Apr2002                   :
  PAW_PBE H 15Jun2001                   :
  PAW_PBE Ti_pv 07Sep2000               :
  PAW_PBE O 08Apr2002                   :

 POSCAR:  C  O  H Ti  O
  positions in direct lattice
 exchange correlation table for  LEXCH =       43
   RHO(1)=    0.500       N(1)  =     2000
   RHO(2)=  100.500       N(2)  =     4000

 ion  position               nearest neighbor table
   1  0.509  0.590  0.811-   3 1.10   5 1.10   6 1.10   2 1.45
   2  0.539  0.500  0.781-   4 1.01   1 1.45  86 2.15
   3  0.426  0.598  0.809-   1 1.10
   4  0.616  0.495  0.780-   2 1.01
   5  0.533  0.567  0.844-   1 1.10
   6  0.547  0.670  0.801-   1 1.10
   7  0.750  0.625  0.287-  87 1.96  88 1.96 147 1.96 148 1.96 169 1.99  90 1.99  17 2.96  37 2.96

   8  0.000  0.750  0.287-  90 1.96 110 1.96 109 1.96  89 1.96  91 1.99  38 2.96  18 2.96
   9  0.000  0.625  0.393-  91 1.96  92 1.96 151 1.96 152 1.96  93 1.99  94 1.99  19 2.96  39 2.96

[...]

  87  0.750  0.750  0.245-   7 1.96  17 1.96
  88  0.750  0.750  0.328-   7 1.96  17 1.96  10 1.99
  89  0.098  0.625  0.287-   8 1.96  38 1.96  47 1.99
  90  0.902  0.625  0.287-   8 1.96  38 1.96   7 1.99
  91  0.000  0.750  0.352-   9 1.96  19 1.96   8 1.99
  92  0.000  0.750  0.435-   9 1.96  19 1.96  12 1.99
  93  0.848  0.625  0.393-  10 1.96  40 1.96   9 1.99
  94  0.152  0.625  0.393-  50 1.96  80 1.96   9 1.99
  95  0.750  0.750  0.458-  11 1.96  21 1.96  10 1.99
  96  0.750  0.750  0.542-  11 1.96  21 1.96  14 2.10
  97  0.098  0.625  0.500-  12 1.96  42 1.96  51 1.99
  98  0.902  0.625  0.500-  12 1.96  42 1.96  11 1.99
  99  0.000  0.750  0.566-  23 1.90  13 1.90  12 2.01
 100  0.999  0.750  0.649-  16 1.82  13 2.02  23 2.02
 101  0.850  0.625  0.607-  13 1.97  44 1.97  14 1.97
 102  0.150  0.625  0.607-  13 1.94  54 1.99  84 1.99
 103  0.753  0.751  0.672-  14 1.88  15 2.08  25 2.09
 104  0.748  0.749  0.755-  15 1.83  25 1.84
 105  0.094  0.625  0.719-  46 1.95  16 1.95  55 2.04
 106  0.906  0.624  0.720-  46 1.95  16 1.96  15 2.03
 107  0.750  0.000  0.245-  17 1.96  27 1.96
 108  0.750  0.000  0.328-  17 1.96  27 1.96  20 1.99
 109  0.098  0.875  0.287-   8 1.96  18 1.96  57 1.99
 110  0.902  0.875  0.287-   8 1.96  18 1.96  17 1.99
 111  0.000  0.000  0.352-  19 1.96  29 1.96  18 1.99
 112  0.000  0.000  0.435-  19 1.96  29 1.96  22 1.99
 113  0.848  0.875  0.393-  10 1.96  20 1.96  19 1.99
 114  0.152  0.875  0.393-  50 1.96  60 1.96  19 1.99
 115  0.750  0.000  0.458-  21 1.96  31 1.96  20 1.99
 116  0.750  0.000  0.542-  21 1.96  31 1.96  24 2.11
 117  0.098  0.875  0.500-  12 1.96  22 1.96  61 1.99
 118  0.902  0.875  0.500-  12 1.96  22 1.96  21 1.99
 119  0.000  1.000  0.566-  33 1.90  23 1.90  22 2.01
 120  1.000  1.000  0.649-  26 1.82  23 2.02  33 2.02
 121  0.850  0.875  0.607-  23 1.96  14 1.97  24 1.98
 122  0.150  0.875  0.607-  23 1.95  64 1.98  54 1.99
 123  0.750  1.000  0.672-  24 1.88  35 2.08  25 2.09
 124  0.750  1.000  0.756-  35 1.83  25 1.84
 125  0.094  0.874  0.719-  16 1.94  26 1.95  65 2.05
 126  0.906  0.875  0.720-  16 1.95  26 1.95  25 2.04
 127  0.750  0.250  0.245-  27 1.96  37 1.96
 128  0.750  0.250  0.328-  27 1.96  37 1.96  30 1.99
 129  0.098  0.125  0.287-  18 1.96  28 1.96  67 1.99
 130  0.902  0.125  0.287-  18 1.96  28 1.96  27 1.99
 131  0.000  0.250  0.352-  29 1.96  39 1.96  28 1.99
 132  0.000  0.250  0.435-  29 1.96  39 1.96  32 1.99
 133  0.848  0.125  0.393-  20 1.96  30 1.96  29 1.99
 134  0.152  0.125  0.393-  60 1.96  70 1.96  29 1.99
 135  0.750  0.250  0.458-  31 1.96  41 1.96  30 1.99
 136  0.750  0.250  0.542-  31 1.96  41 1.96  34 2.10
 137  0.098  0.125  0.500-  22 1.96  32 1.96  71 1.99
 138  0.902  0.125  0.500-  22 1.96  32 1.96  31 1.99
 139  0.000  0.250  0.566-  33 1.90  43 1.90  32 2.01
 140  0.999  0.250  0.649-  36 1.82  43 2.02  33 2.02
 141  0.850  0.125  0.607-  33 1.97  34 1.97  24 1.98
 142  0.149  0.125  0.607-  33 1.95  64 1.98  74 1.99
 143  0.752  0.250  0.672-  34 1.88  45 2.06  35 2.10
 144  0.749  0.250  0.755-  45 1.83  35 1.84
 145  0.094  0.125  0.719-  36 1.94  26 1.95  75 2.05
 146  0.906  0.125  0.719-  36 1.95  26 1.95  35 2.05
[...]
 232  0.500  0.500  0.435-  49 1.96  79 1.96  82 1.99
 233  0.348  0.375  0.393-  70 1.96  80 1.96  79 1.99
 234  0.652  0.375  0.393-  30 1.96  40 1.96  79 1.99
 235  0.250  0.500  0.458-  51 1.96  81 1.96  80 1.99
 236  0.250  0.500  0.542-  51 1.96  81 1.96  84 2.11
 237  0.598  0.375  0.500-  72 1.96  82 1.96  41 1.99
 238  0.402  0.375  0.500-  72 1.96  82 1.96  81 1.99
 239  0.500  0.500  0.566-  53 1.90  83 1.90  82 2.01
 240  0.499  0.500  0.650-  86 1.93  53 1.98  83 1.98
 241  0.349  0.375  0.607-  84 1.97  74 1.97  83 1.98
 242  0.650  0.375  0.608-  83 1.96  34 1.98  44 1.98
 243  0.250  0.500  0.672-  84 1.87  55 2.09  85 2.10
 244  0.252  0.500  0.756-  55 1.84  85 1.84
 245  0.596  0.371  0.715-  76 1.92  86 1.96  45 2.03
 246  0.406  0.374  0.718-  86 1.94  76 1.95  85 2.04

IMPORTANT INFORMATION: All symmetrisations will be switched off!
NOSYMM: (Re-)initialisation of all symmetry stuff for point group C_1.

                                     Primitive cell

  volume of cell :    4737.1524

  direct lattice vectors                    reciprocal lattice vectors
    13.061127704  0.000000000  0.000000000     0.076563067  0.000000000  0.000000000
     0.000000000 11.845298948  0.000000000     0.000000000  0.084421677  0.000000000
     0.000000000  0.000000000 30.618975621     0.000000000  0.000000000  0.032659486

  length of vectors
    13.061127704 11.845298948 30.618975621     0.076563067  0.084421677  0.032659486

  position of ions in fractional coordinates (direct lattice)
     0.509429173  0.589798086  0.810753482
     0.538973138  0.499879615  0.781279793
     0.425985216  0.597923088  0.808895813
     0.615838412  0.494544903  0.780075773
     0.532699675  0.567052460  0.844081898
     0.546992846  0.669741004  0.801384057
     0.750000000  0.625000000  0.286715143
     0.000000000  0.750000000  0.286715143
     0.000000000  0.625000000  0.393357571
     0.750000000  0.750000000  0.393357571
     0.750000000  0.625000000  0.500000000
     0.000000000  0.750000000  0.500000000
     0.000988721  0.624979432  0.604465798
     0.750771235  0.750034189  0.610229827
     0.750787757  0.625784723  0.719092374
     0.999883296  0.750158049  0.708746821
     0.750000000  0.875000000  0.286715143
     0.000000000  0.000000000  0.286715143
     0.000000000  0.875000000  0.393357571
     0.750000000  0.000000000  0.393357571
     0.750000000  0.875000000  0.500000000
     0.000000000  0.000000000  0.500000000
     0.000214826  0.874964453  0.604497295
     0.749657463  0.000033247  0.610536692
     0.749721558  0.874862084  0.720192630
     0.000117870  0.999795243  0.708708306
     0.750000000  0.125000000  0.286715143
     0.000000000  0.250000000  0.286715143
     0.000000000  0.125000000  0.393357571
     0.750000000  0.250000000  0.393357571
     0.750000000  0.125000000  0.500000000
     0.000000000  0.250000000  0.500000000
     0.000348309  0.124934404  0.604515835
     0.750232690  0.249610365  0.610216153
     0.749568285  0.124041951  0.720243002
     0.000011301  0.249504477  0.708756463
     0.750000000  0.375000000  0.286715143
     0.000000000  0.500000000  0.286715143
     0.000000000  0.375000000  0.393357571
     0.750000000  0.500000000  0.393357571
     0.750000000  0.375000000  0.500000000
     0.000000000  0.500000000  0.500000000
     0.000528631  0.374945428  0.604458522
     0.751367787  0.499903287  0.610464780
     0.751363313  0.373002977  0.719262288
     0.000716210  0.499945988  0.708707453
     0.250000000  0.625000000  0.286715143
     0.500000000  0.750000000  0.286715143
     0.500000000  0.625000000  0.393357571
     0.250000000  0.750000000  0.393357571
     0.250000000  0.625000000  0.500000000
     0.500000000  0.750000000  0.500000000
     0.500965897  0.622399868  0.605835575
     0.250812302  0.749884663  0.610521687
     0.250286255  0.625054527  0.720126258
     0.500527848  0.750115506  0.707374566
     0.250000000  0.875000000  0.286715143
     0.500000000  0.000000000  0.286715143
     0.500000000  0.875000000  0.393357571
     0.250000000  0.000000000  0.393357571
[...]
     0.500000000  0.500000000  0.435126570
     0.347918341  0.375000000  0.393357571
     0.652081659  0.375000000  0.393357571
     0.250000000  0.500000000  0.458231001
     0.250000000  0.500000000  0.541768999
     0.597918341  0.375000000  0.500000000
     0.402081659  0.375000000  0.500000000
     0.500163596  0.499796121  0.565666300
     0.499298054  0.500211168  0.649813185
     0.349397008  0.374874201  0.607372784
     0.650436413  0.374946715  0.607721981
     0.249745649  0.500245557  0.671875340
     0.251670874  0.500049640  0.755660343
     0.596181573  0.371184542  0.715160661
     0.406422370  0.373927634  0.718418722

  ion indices of the primitive-cell ions
   primitive index   ion index
                 1           1
                 2           2
                 3           3
[...]
      6.53270      5.92023     17.32012        -0.000150      0.001750      0.007527
      6.52140      5.92515     19.89661        -0.000776     -0.000033      0.003365
      4.56352      4.44050     18.59713        -0.001544     -0.000038     -0.001663
      8.49543      4.44136     18.60782         0.002588     -0.003270      0.000848
      3.26196      5.92556     20.57213        -0.002618     -0.000015     -0.000387
      3.28711      5.92324     23.13755         0.003815      0.002442     -0.002337
      7.78680      4.39679     21.89749         0.003721     -0.000244     -0.002266
      5.30833      4.42928     21.99725        -0.002099     -0.002338     -0.000022
    total drift:                               -0.009292     -0.003776     -0.011704

  FREE ENERGIE OF THE ION-ELECTRON SYSTEM (eV)
  free  energy   TOTEN  =     -1768.78768113 eV

  energy  without entropy=    -1768.78768113  energy(sigma->0) =    -1768.78768113

 d Force = 0.7723930E-04[-0.129E-02, 0.145E-02]  d Energy = 0.8406793E-04-0.683E-05
 d Force =-0.7794925E+01[-0.780E+01,-0.779E+01]  d Ewald  =-0.7794881E+01-0.439E-04

 Finite differences progress:
  Degree of freedom:  18/ 18
  Displacement:        2/  2
  Total:              36/ 36

 SECOND DERIVATIVES (NOT SYMMETRIZED)
               1X          1Y          1Z          2X          2Y          2Z          3X          3Y          3Z          4X          4Y          4Z          5X          5Y          5Z          6X          6Y          6Z
  1X   -55.222540   -2.168277   -3.025808    8.910385   -1.022855   -0.004900   29.610898   -0.846119    2.577362    0.424089   -2.804547   -2.299575    6.736190   -2.109549    6.439200    9.728154    8.653167   -3.153718
  1Y    -2.175627  -43.656346    6.227228   -3.289574   11.967162    5.681294   -1.829056    4.468359   -0.387111   -0.548037    0.628820    0.483411   -1.907979    6.197472   -6.293594    9.251363   20.050833   -5.959190
  1Z    -3.027555    6.238613  -47.802625   -2.039549    5.588779   10.724907    1.563117   -0.208714    4.507498   -0.621770    0.313523    0.346325    6.807013   -6.987458   24.606792   -3.054333   -5.778681    6.527999
  2X     8.914255   -3.288235   -2.037912  -46.405900    5.258592    3.121806    0.658341   -3.056745   -2.621034   33.516311    0.443661    1.588366   -0.408367    0.501153    0.071722   -0.630921    0.300218    0.786390
  2Y    -1.018386   11.960878    5.585458    5.262351  -20.468050  -11.506096   -0.395661    0.779085    0.736143   -2.375173    2.911804    1.311780   -0.068831    0.181893    0.711220   -1.157781    2.911885    2.495503
  2Z    -0.002932    5.685082   10.714771    3.119607  -11.504795  -22.443978   -0.318020    0.430745    0.328377   -1.207494    1.722740    3.571298   -1.307641    3.491826    2.375574    0.015089    0.808697   -0.060885
  3X    29.613775   -1.832156    1.562060    0.659455   -0.393634   -0.302991  -31.621673    2.302540   -1.555466   -0.208473   -0.057307   -0.009043    0.517995    0.081498    0.032321    0.943268   -0.094266    0.200294
  3Y    -0.850720    4.467048   -0.209197   -3.054794    0.781203    0.429187    2.299438   -5.126761   -0.481747    0.124404    0.332736    0.241041   -0.815014   -0.013161   -0.127165    2.398902   -0.416383    0.181705
  3Z     2.576125   -0.389694    4.506954   -2.622839    0.734342    0.329650   -1.553943   -0.484250   -4.985339    0.062009    0.312415    0.209845    2.638223   -0.151122   -0.065919   -0.897833   -0.027999   -0.080441
  4X     0.424356   -0.548557   -0.620750   33.521926   -2.377051   -1.207054   -0.208012    0.124339    0.067180  -32.930487    2.541465   -0.619624   -0.015268    0.097961    0.105934   -0.046295    0.261449    0.108487
  4Y    -2.805208    0.631221    0.314789    0.450799    2.912371    1.721757   -0.058097    0.331670    0.312467    2.537567   -4.345778   -1.962955    0.051389   -0.090120    0.004858   -0.087900   -0.023772   -0.057151
  4Z    -2.298839    0.485760    0.345123    1.589312    1.312801    3.574266   -0.010632    0.239885    0.209607   -0.625436   -1.962015   -4.678064   -0.091219   -0.027628    0.027225    0.048113   -0.003254   -0.084433
  5X     6.732641   -1.907806    6.793512   -0.411150   -0.069696   -1.314920    0.517180   -0.816081    2.640284   -0.016501    0.052585   -0.092057   -6.442791    2.286685   -6.856723   -0.449474    0.521053   -1.318634
  5Y    -2.108635    6.197182   -6.978917    0.504156    0.182218    3.492764    0.082045   -0.012219   -0.151492    0.098580   -0.090648   -0.027895    2.288943   -6.820626    6.009439   -0.763996    0.549571   -2.244574
  5Z     6.441322   -6.292803   24.597788    0.071254    0.718426    2.388978    0.036766   -0.129186   -0.064625    0.100954    0.006005    0.030505   -6.868866    6.022159  -27.377101    0.320762   -0.347685    0.590459
  6X     9.725564    9.237820   -3.062193   -0.631179   -1.161875    0.010898    0.943770    2.399143   -0.899637   -0.049827   -0.087103    0.045271   -0.450090   -0.764058    0.319545   -9.505625   -9.553059    3.377050
  6Y     8.655429   20.046150   -5.782605    0.300411    2.917573    0.807885   -0.092204   -0.417304   -0.028947    0.258390   -0.024124   -0.004073    0.521232    0.547709   -0.347102   -9.563603  -22.961632    5.501060
  6Z    -3.150977   -5.951833    6.525600    0.787920    2.496671   -0.061094    0.198189    0.180252   -0.081055    0.106120   -0.057517   -0.085209   -1.319942   -2.243626    0.586769    3.378493    5.494949   -6.843610

 Eigenvectors and eigenvalues of the dynamical matrix

   1 f  =   93.011809 THz   584.410432 2PiTHz 3102.539993 cm-1   384.665761 meV
             X         Y         Z           dx          dy          dz
      6.653719  6.986335 24.824441    -0.066264    0.012864   -0.008886
      7.039597  5.921223 23.921987    -0.241486    0.020953    0.011349
      5.563847  7.082578 24.767561     0.234098   -0.027612    0.006072
      8.043544  5.858032 23.885121     0.934647   -0.076437    0.015401
      6.957658  6.716906 25.844923     0.007340   -0.012646    0.027403
      7.144343  7.933282 24.537559    -0.005914   -0.015220   -0.002189
      9.795846  7.403312  8.778924            0           0           0
      0.000000  8.883974  8.778924            0           0           0
      0.000000  7.403312 12.044206            0           0           0
      9.795846  8.883974 12.044206            0           0           0
      9.795846  7.403312 15.309488            0           0           0
      0.000000  8.883974 15.309488            0           0           0
      0.012914  7.403068 18.508124            0           0           0
      9.805919  8.884379 18.684612            0           0           0
      9.806135  7.412607 22.017872            0           0           0
     13.059603  8.885846 21.701102            0           0           0
      9.795846 10.364637  8.778924            0           0           0
      0.000000  0.000000  8.778924            0           0           0
      0.000000 10.364637 12.044206            0           0           0
      9.795846  0.000000 12.044206            0           0           0
      9.795846 10.364637 15.309488            0           0           0
      0.000000  0.000000 15.309488            0           0           0
      0.002806 10.364216 18.509088            0           0           0
      9.791372  0.000394 18.694008            0           0           0
      9.792209 10.363003 22.051561            0           0           0
      0.001540 11.842874 21.699922            0           0           0
      9.795846  1.480662  8.778924            0           0           0
      0.000000  2.961325  8.778924            0           0           0
      0.000000  1.480662 12.044206            0           0           0
      9.795846  2.961325 12.044206            0           0           0
      9.795846  1.480662 15.309488            0           0           0
      0.000000  2.961325 15.309488            0           0           0
      0.004549  1.479885 18.509656            0           0           0
      9.798885  2.956709 18.684194            0           0           0
      9.790207  1.469314 22.053103            0           0           0
      0.000148  2.955455 21.701397            0           0           0
      9.795846  4.441987  8.778924            0           0           0
      0.000000  5.922649  8.778924            0           0           0
      0.000000  4.441987 12.044206            0           0           0
      9.795846  5.922649 12.044206            0           0           0
      9.795846  4.441987 15.309488            0           0           0
      0.000000  5.922649 15.309488            0           0           0
      0.006905  4.441341 18.507901            0           0           0
      9.813711  5.921504 18.691806            0           0           0
      9.813652  4.418332 22.023074            0           0           0
      0.009355  5.922010 21.699896            0           0           0
      3.265282  7.403312  8.778924            0           0           0
      6.530564  8.883974  8.778924            0           0           0
      6.530564  7.403312 12.044206            0           0           0
      3.265282  8.883974 12.044206            0           0           0
      3.265282  7.403312 15.309488            0           0           0
      6.530564  8.883974 15.309488            0           0           0
      6.543180  7.372512 18.550065            0           0           0
      3.275892  8.882608 18.693549            0           0           0
      3.269021  7.403958 22.049528            0           0           0
      6.537458  8.885342 21.659085            0           0           0
      3.265282 10.364637  8.778924            0           0           0
      6.530564  0.000000  8.778924            0           0           0
      6.530564 10.364637 12.044206            0           0           0
      3.265282  0.000000 12.044206            0           0           0
[...]
      6.530564  5.922649 13.323130            0           0           0
      4.544206  4.441987 12.044206            0           0           0
      8.516922  4.441987 12.044206            0           0           0
      3.265282  5.922649 14.030564            0           0           0
      3.265282  5.922649 16.588412            0           0           0
      7.809488  4.441987 15.309488            0           0           0
      5.251640  4.441987 15.309488            0           0           0
      6.532701  5.920234 17.320123            0           0           0
      6.521396  5.925151 19.896614            0           0           0
      4.563519  4.440497 18.597132            0           0           0
      8.495433  4.441356 18.607825            0           0           0
      3.261960  5.925558 20.572135            0           0           0
      3.287105  5.923237 23.137546            0           0           0
      7.786804  4.396792 21.897487            0           0           0
      5.308334  4.429285 21.997245            0           0           0

[...]

  18 f  =    2.103456 THz    13.216406 2PiTHz   70.163749 cm-1     8.699192 meV
             X         Y         Z           dx          dy          dz
      6.653719  6.986335 24.824441     0.566232    0.543717   -0.236540
      7.039597  5.921223 23.921987     0.119106    0.200768   -0.003750
      5.563847  7.082578 24.767561     0.172456    0.272074   -0.047574
      8.043544  5.858032 23.885121     0.027153   -0.012032   -0.032196
      6.957658  6.716906 25.844923     0.157950    0.196973   -0.055922
      7.144343  7.933282 24.537559     0.266078    0.080842   -0.145394
      9.795846  7.403312  8.778924            0           0           0
      0.000000  8.883974  8.778924            0           0           0
      0.000000  7.403312 12.044206            0           0           0
      9.795846  8.883974 12.044206            0           0           0
      9.795846  7.403312 15.309488            0           0           0
      0.000000  8.883974 15.309488            0           0           0
      0.012914  7.403068 18.508124            0           0           0
      9.805919  8.884379 18.684612            0           0           0
      9.806135  7.412607 22.017872            0           0           0
     13.059603  8.885846 21.701102            0           0           0
      9.795846 10.364637  8.778924            0           0           0
      0.000000  0.000000  8.778924            0           0           0
      0.000000 10.364637 12.044206            0           0           0
      9.795846  0.000000 12.044206            0           0           0
      9.795846 10.364637 15.309488            0           0           0
      0.000000  0.000000 15.309488            0           0           0
      0.002806 10.364216 18.509088            0           0           0
      9.791372  0.000394 18.694008            0           0           0
      9.792209 10.363003 22.051561            0           0           0
      0.001540 11.842874 21.699922            0           0           0
      9.795846  1.480662  8.778924            0           0           0
      0.000000  2.961325  8.778924            0           0           0
      0.000000  1.480662 12.044206            0           0           0
      9.795846  2.961325 12.044206            0           0           0
      9.795846  1.480662 15.309488            0           0           0
      0.000000  2.961325 15.309488            0           0           0
      0.004549  1.479885 18.509656            0           0           0
      9.798885  2.956709 18.684194            0           0           0
      9.790207  1.469314 22.053103            0           0           0
      0.000148  2.955455 21.701397            0           0           0
      9.795846  4.441987  8.778924            0           0           0
      0.000000  5.922649  8.778924            0           0           0
      0.000000  4.441987 12.044206            0           0           0
      9.795846  5.922649 12.044206            0           0           0
      9.795846  4.441987 15.309488            0           0           0
      0.000000  5.922649 15.309488            0           0           0
      0.006905  4.441341 18.507901            0           0           0
      9.813711  5.921504 18.691806            0           0           0
      9.813652  4.418332 22.023074            0           0           0
      0.009355  5.922010 21.699896            0           0           0
      3.265282  7.403312  8.778924            0           0           0
      6.530564  8.883974  8.778924            0           0           0
      6.530564  7.403312 12.044206            0           0           0
      3.265282  8.883974 12.044206            0           0           0
      3.265282  7.403312 15.309488            0           0           0
      6.530564  8.883974 15.309488            0           0           0
      6.543180  7.372512 18.550065            0           0           0
      3.275892  8.882608 18.693549            0           0           0
      3.269021  7.403958 22.049528            0           0           0
      6.537458  8.885342 21.659085            0           0           0
      3.265282 10.364637  8.778924            0           0           0
      6.530564  0.000000  8.778924            0           0           0
      6.530564 10.364637 12.044206            0           0           0
      3.265282  0.000000 12.044206            0           0           0
[...]
      6.530564  5.922649 13.323130            0           0           0
      4.544206  4.441987 12.044206            0           0           0
      8.516922  4.441987 12.044206            0           0           0
      3.265282  5.922649 14.030564            0           0           0
      3.265282  5.922649 16.588412            0           0           0
      7.809488  4.441987 15.309488            0           0           0
      5.251640  4.441987 15.309488            0           0           0
      6.532701  5.920234 17.320123            0           0           0
      6.521396  5.925151 19.896614            0           0           0
      4.563519  4.440497 18.597132            0           0           0
      8.495433  4.441356 18.607825            0           0           0
      3.261960  5.925558 20.572135            0           0           0
      3.287105  5.923237 23.137546            0           0           0
      7.786804  4.396792 21.897487            0           0           0
      5.308334  4.429285 21.997245            0           0           0

 Finite differences POTIM=   1.0000000000000000E-002