 vasp.6.3.0 20Jan22 (build Dec 25 2023 18:06:01) complex
 executed on        HPECrayEX_GCC date 2024.11.22  13:19:45

 INCAR:
   SYSTEM = TiO2
   ISMEAR = 0
   SIGMA = 0.05
   EDIFF = 1E-7
   ALGO = Normal
   ISTART = 0
   IBRION = 2
   NSW = 1000
   ISYM = 0
   ISIF = 2
   EDIFFG = -0.01
   DIPOL = 0.5 0.5 0.5
   IDIPOL = 3
   LDIPOL = .TRUE.
   GGA = RE
   IVDW = 13
   VDW_S8 = 1.7468
   VDW_A1 = 0.5363
   VDW_A2 = 3.0726
   ENCUT = 600
   PREC = Accurate
   LASPH = .TRUE.
   LREAL = .FALSE.
   ISPIN = 1
   NELM = 200
   NELMIN = 8
   NCORE = 8
   KPAR = 1
   LWAVE = .FALSE.
   LCHARG = .FALSE.

 POTCAR:    PAW_PBE H 15Jun2001
 POTCAR:    PAW_PBE O 08Apr2002
 POTCAR:    PAW_PBE Ti_pv 07Sep2000
 POTCAR:    PAW_PBE O 08Apr2002
 POTCAR:    PAW_PBE H 15Jun2001
   VRHFIN =H: ultrasoft test

   TITEL  = PAW_PBE H 15Jun2001
   POMASS =    1.000; ZVAL   =    1.000    mass and valenz
   ENMAX  =  250.000; ENMIN  =  200.000 eV

   TITEL  = PAW_PBE O 08Apr2002
   POMASS =   16.000; ZVAL   =    6.000    mass and valenz
   ENMAX  =  400.000; ENMIN  =  300.000 eV

   TITEL  = PAW_PBE Ti_pv 07Sep2000
   POMASS =   47.880; ZVAL   =   10.000    mass and valenz
   ENMAX  =  222.335; ENMIN  =  166.751 eV

   TITEL  = PAW_PBE O 08Apr2002
   POMASS =   16.000; ZVAL   =    6.000    mass and valenz
   ENMAX  =  400.000; ENMIN  =  300.000 eV

  PAW_PBE H 15Jun2001                   :
  PAW_PBE O 08Apr2002                   :
  PAW_PBE Ti_pv 07Sep2000               :
  PAW_PBE O 08Apr2002                   :

 POSCAR:  H  O Ti  O
  positions in direct lattice
  velocities in cartesian coordinates
|           W    W    AA    RRRRR   N    N  II  N    N   GGGG   !!!           |
|           W    W   A  A   R    R  NN   N  II  NN   N  G    G  !!!           |
|           W    W  A    A  R    R  N N  N  II  N N  N  G       !!!           |
|           W WW W  AAAAAA  RRRRR   N  N N  II  N  N N  G  GGG   !            |
|           WW  WW  A    A  R   R   N   NN  II  N   NN  G    G                |
|           W    W  A    A  R    R  N    N  II  N    N   GGGG   !!!           |
|     Specifying the vdW parameters                                           |
|     VDW_S8 = 1.747                                                          |
|     VDW_A1 = 0.536                                                          |
|     VDW_A2 = 3.073                                                          |
|     in the INCAR file will overwrite the defaults for revpbe. Please        |
|     make sure that is what you intended.                                    |

 ion  position               nearest neighbor table
   1  0.512  0.549  0.802-   3 0.97
   2  0.615  0.495  0.783-   3 1.00
   3  0.538  0.490  0.783-   1 0.97   2 1.00  83 2.23
   4  0.750  0.625  0.287-  84 1.95 144 1.95  85 1.95 145 1.95 166 1.98  87 1.98  14 2.96  34 2.96

   5  0.000  0.750  0.287-  87 1.95 107 1.95 106 1.95  86 1.95  88 1.98  35 2.96  15 2.96
   6  0.000  0.625  0.394-  88 1.95 148 1.95  89 1.95 149 1.95  90 1.98  91 1.98  16 2.96  36 2.96

[...]

  84  0.750  0.750  0.245-   4 1.95  14 1.95
  85  0.750  0.750  0.329-   4 1.95  14 1.95   7 1.98
  86  0.098  0.625  0.287-   5 1.95  35 1.95  44 1.98
  87  0.902  0.625  0.287-   5 1.95  35 1.95   4 1.98
  88  0.000  0.750  0.352-   6 1.95  16 1.95   5 1.98
  89  0.000  0.750  0.435-   6 1.95  16 1.95   9 1.98
  90  0.848  0.625  0.394-   7 1.95  37 1.95   6 1.98
  91  0.152  0.625  0.394-  47 1.95  77 1.95   6 1.98
  92  0.750  0.750  0.458-   8 1.95  18 1.95   7 1.98
  93  0.750  0.750  0.542-   8 1.95  18 1.95  11 2.10
  94  0.098  0.625  0.500-   9 1.95  39 1.95  48 1.98
  95  0.902  0.625  0.500-   9 1.95  39 1.95   8 1.98
  96  0.001  0.750  0.565-  20 1.90  10 1.90   9 2.00
  97  0.000  0.750  0.649-  13 1.81  10 2.02  20 2.02
  98  0.851  0.625  0.607-  11 1.92  41 1.93  10 2.04
  99  0.151  0.625  0.607-  10 1.86  51 2.02  81 2.02
 100  0.754  0.751  0.671-  11 1.87  12 2.08  22 2.09
 101  0.750  0.749  0.756-  12 1.83  22 1.84
 102  0.095  0.625  0.719-  43 1.94  13 1.95  52 2.03
 103  0.907  0.624  0.720-  43 1.95  13 1.96  12 2.02
 104  0.750  0.000  0.245-  14 1.95  24 1.95
 105  0.750  0.000  0.329-  14 1.95  24 1.95  17 1.98
 106  0.098  0.875  0.287-   5 1.95  15 1.95  54 1.98
 107  0.902  0.875  0.287-   5 1.95  15 1.95  14 1.98
 108  0.000  0.000  0.352-  16 1.95  26 1.95  15 1.98
 109  0.000  0.000  0.435-  16 1.95  26 1.95  19 1.98
 110  0.848  0.875  0.394-   7 1.95  17 1.95  16 1.98
 111  0.152  0.875  0.394-  47 1.95  57 1.95  16 1.98
 112  0.750  0.000  0.458-  18 1.95  28 1.95  17 1.98
 113  0.750  0.000  0.542-  18 1.95  28 1.95  21 2.10
 114  0.098  0.875  0.500-   9 1.95  19 1.95  58 1.98
 115  0.902  0.875  0.500-   9 1.95  19 1.95  18 1.98
 116  0.001  1.000  0.565-  20 1.90  30 1.90  19 2.00
 117  0.001  1.000  0.649-  23 1.81  20 2.02  30 2.02
 118  0.851  0.875  0.607-  21 1.92  11 1.93  20 2.04
 119  0.151  0.875  0.607-  20 1.86  51 2.02  61 2.02
 120  0.752  1.000  0.672-  21 1.87  32 2.09  22 2.09
 121  0.751  1.000  0.756-  32 1.83  22 1.83
 122  0.095  0.875  0.719-  13 1.94  23 1.95  62 2.04
 123  0.907  0.875  0.719-  13 1.94  23 1.95  22 2.04
 124  0.750  0.250  0.245-  24 1.95  34 1.95
 125  0.750  0.250  0.329-  24 1.95  34 1.95  27 1.98
 126  0.098  0.125  0.287-  15 1.95  25 1.95  64 1.98
 127  0.902  0.125  0.287-  15 1.95  25 1.95  24 1.98
 128  0.000  0.250  0.352-  26 1.95  36 1.95  25 1.98
 129  0.000  0.250  0.435-  26 1.95  36 1.95  29 1.98
 130  0.848  0.125  0.394-  17 1.95  27 1.95  26 1.98
 131  0.152  0.125  0.394-  57 1.95  67 1.95  26 1.98
 132  0.750  0.250  0.458-  28 1.95  38 1.95  27 1.98
 133  0.750  0.250  0.542-  28 1.95  38 1.95  31 2.09
 134  0.098  0.125  0.500-  19 1.95  29 1.95  68 1.98
 135  0.902  0.125  0.500-  19 1.95  29 1.95  28 1.98
 136  0.001  0.250  0.565-  40 1.90  30 1.90  29 2.00
 137  0.001  0.250  0.649-  33 1.81  40 2.02  30 2.02
 138  0.851  0.125  0.607-  21 1.92  31 1.93  30 2.04
 139  0.151  0.125  0.607-  30 1.86  71 2.02  61 2.02
 140  0.754  0.249  0.671-  31 1.87  42 2.07  32 2.10
 141  0.750  0.251  0.755-  42 1.83  32 1.84
 142  0.095  0.125  0.719-  33 1.94  23 1.95  72 2.04
 143  0.907  0.125  0.719-  33 1.94  23 1.95  32 2.04
[...]
 229  0.500  0.500  0.435-  46 1.95  76 1.95  79 1.98
 230  0.348  0.375  0.394-  67 1.95  77 1.95  76 1.98
 231  0.652  0.375  0.394-  27 1.95  37 1.95  76 1.98
 232  0.250  0.500  0.458-  48 1.95  78 1.95  77 1.98
 233  0.250  0.500  0.542-  48 1.95  78 1.95  81 2.11
 234  0.598  0.375  0.500-  69 1.95  79 1.95  38 1.98
 235  0.402  0.375  0.500-  69 1.95  79 1.95  78 1.98
 236  0.501  0.500  0.566-  50 1.90  80 1.90  79 2.00
 237  0.500  0.500  0.650-  83 1.89  50 1.99  80 1.99
 238  0.351  0.375  0.607-  71 1.92  81 1.92  80 2.05
 239  0.652  0.375  0.608-  80 1.87  31 2.02  41 2.02
 240  0.251  0.500  0.672-  81 1.86  52 2.09  82 2.10
 241  0.252  0.500  0.756-  82 1.84  52 1.84
 242  0.598  0.371  0.714-  73 1.92  83 1.96  42 2.02
 243  0.407  0.374  0.718-  83 1.93  73 1.94  82 2.03

IMPORTANT INFORMATION: All symmetrisations will be switched off!
NOSYMM: (Re-)initialisation of all symmetry stuff for point group C_1.

                                     Primitive cell

  volume of cell :    4700.2642

  direct lattice vectors                    reciprocal lattice vectors
    13.003962940  0.000000000  0.000000000     0.076899635  0.000000000  0.000000000
     0.000000000 11.830322230  0.000000000     0.000000000  0.084528551  0.000000000
     0.000000000  0.000000000 30.552726600     0.000000000  0.000000000  0.032730303

  length of vectors
    13.003962940 11.830322230 30.552726600     0.076899635  0.084528551  0.032730303

  position of ions in fractional coordinates (direct lattice)
     0.512467790  0.548519140  0.802278140
     0.614713308  0.494846137  0.782769138
     0.538245781  0.490134010  0.782757158
     0.750000000  0.625000000  0.287188176
     0.000000000  0.750000000  0.287188176
     0.000000000  0.625000000  0.393594088
     0.750000000  0.750000000  0.393594088
     0.750000000  0.625000000  0.500000000
     0.000000000  0.750000000  0.500000000
     0.008027157  0.625058458  0.604032589
     0.756938570  0.750069393  0.610221516
     0.751577011  0.625875763  0.719209682
     0.000638458  0.750254877  0.708148740
     0.750000000  0.875000000  0.287188176
     0.000000000  0.000000000  0.287188176
     0.000000000  0.875000000  0.393594088
     0.750000000  0.000000000  0.393594088
     0.750000000  0.875000000  0.500000000
     0.000000000  0.000000000  0.500000000
     0.008081215  0.875017505  0.604104494
     0.756639455  0.000025444  0.610495886
     0.750314622  0.875094378  0.720158029
     0.000816304  0.999941735  0.708112360
     0.750000000  0.125000000  0.287188176
     0.000000000  0.250000000  0.287188176
     0.000000000  0.125000000  0.393594088
     0.750000000  0.250000000  0.393594088
     0.750000000  0.125000000  0.500000000
     0.000000000  0.250000000  0.500000000
     0.008286301  0.124952266  0.604086905
     0.756952572  0.249787427  0.610193366
     0.750262694  0.124424263  0.720147405
     0.000856906  0.249613330  0.708129187
     0.750000000  0.375000000  0.287188176
     0.000000000  0.500000000  0.287188176
     0.000000000  0.375000000  0.393594088
     0.750000000  0.500000000  0.393594088
     0.750000000  0.375000000  0.500000000
     0.000000000  0.500000000  0.500000000
     0.007823761  0.374987488  0.604034522
     0.757189771  0.500075951  0.610376075
     0.752226618  0.373585529  0.719188316
     0.001717898  0.500081003  0.708068620
     0.250000000  0.625000000  0.287188176
     0.500000000  0.750000000  0.287188176
     0.500000000  0.625000000  0.393594088
     0.250000000  0.750000000  0.393594088
     0.250000000  0.625000000  0.500000000
     0.500000000  0.750000000  0.500000000
     0.507922206  0.622897288  0.605219412
     0.257011015  0.749948215  0.610518788
     0.251263528  0.625177621  0.720220212
     0.501355067  0.750173024  0.707004813
     0.250000000  0.875000000  0.287188176
     0.500000000  0.000000000  0.287188176
     0.500000000  0.875000000  0.393594088
     0.250000000  0.000000000  0.393594088
     0.250000000  0.875000000  0.500000000
     0.500000000  0.000000000  0.500000000
     0.508065271  0.874102186  0.603117147
[...]
     0.500000000  0.500000000  0.435304992
     0.347999497  0.375000000  0.393594088
     0.652000503  0.375000000  0.393594088
     0.250000000  0.500000000  0.458289097
     0.250000000  0.500000000  0.541710903
     0.597999497  0.375000000  0.500000000
     0.402000503  0.375000000  0.500000000
     0.501433440  0.499793423  0.565537470
     0.500108823  0.500394971  0.649619809
     0.350809997  0.374977677  0.607105479
     0.651830440  0.375020780  0.607623516
     0.251462483  0.500428511  0.671607411
     0.252210651  0.499915051  0.755752067
     0.597571656  0.371463219  0.713931802
     0.407360289  0.373954217  0.717865681

  ion indices of the primitive-cell ions
   primitive index   ion index
                 1           1
                 2           2
                 3           3
                 4           4
[...]
   0.536E+02 0.401E+02 -.258E+04   -.727E+02 -.722E+02 0.256E+04   0.190E+02 0.320E+02 0.147E+02   -.218E-03 0.780E-03 0.159E-04
   -.104E+00 -.162E-01 0.380E+04   0.101E+00 0.164E-01 -.380E+04   0.960E-03 -.136E-04 0.454E+00   -.795E-05 -.147E-04 -.557E-04
   -.506E-01 -.308E-01 0.398E+04   0.519E-01 0.309E-01 -.397E+04   -.243E-03 -.126E-04 -.403E+01   0.108E-05 -.979E-05 0.208E-04
   -.137E+00 -.537E-01 0.194E+04   0.143E+00 0.536E-01 -.194E+04   -.106E-02 0.119E-03 -.458E-01   -.953E-06 -.187E-04 0.312E-04
   -.334E+00 -.121E-01 0.193E+04   0.325E+00 0.126E-01 -.193E+04   0.247E-02 0.326E-04 0.210E+00   -.223E-04 -.327E-05 0.262E-04
   -.137E+01 -.150E+00 0.222E+01   0.133E+01 0.135E+00 -.145E+01   0.981E-02 0.971E-03 -.130E+00   -.209E-04 -.211E-04 0.963E-04
   0.176E+01 -.671E+00 0.110E+02   -.176E+01 0.676E+00 -.121E+02   -.452E-02 -.279E-02 0.348E+00   -.534E-04 0.125E-04 0.477E-04
   0.140E+02 -.164E+01 -.187E+04   -.141E+02 0.165E+01 0.187E+04   0.304E-01 -.795E-02 0.772E-01   -.991E-04 0.141E-03 0.142E-04
   0.390E+01 -.697E+01 -.193E+04   -.388E+01 0.697E+01 0.193E+04   -.445E-01 -.526E-02 -.117E+00   0.189E-03 0.893E-04 0.868E-04
   -.684E+02 -.170E+02 -.374E+04   0.682E+02 0.169E+02 0.374E+04   0.177E+00 0.111E+00 -.363E-01   0.105E-03 0.208E-03 0.134E-03
   -.532E+01 -.228E+01 -.379E+04   0.537E+01 0.229E+01 0.379E+04   -.446E-01 -.170E-01 0.100E+01   -.198E-03 0.257E-03 0.273E-03
   -.115E+00 -.198E-01 0.380E+04   0.112E+00 0.200E-01 -.380E+04   0.101E-02 -.278E-05 0.454E+00   -.693E-05 0.447E-05 -.551E-04
   -.484E-01 -.167E-02 0.398E+04   0.497E-01 0.171E-02 -.397E+04   -.243E-03 -.741E-05 -.403E+01   0.143E-05 0.151E-04 0.201E-04
   -.109E+00 -.625E-01 0.194E+04   0.114E+00 0.620E-01 -.194E+04   -.998E-03 0.837E-04 -.458E-01   -.549E-05 0.111E-04 0.356E-04
   -.425E+00 -.104E-01 0.193E+04   0.416E+00 0.100E-01 -.193E+04   0.238E-02 -.830E-05 0.210E+00   -.202E-04 0.104E-04 0.367E-04
   -.269E+01 -.447E+00 0.123E+01   0.266E+01 0.471E+00 -.448E+00   0.782E-02 -.114E-02 -.133E+00   -.254E-04 -.947E-05 0.724E-04
   0.202E+01 -.152E-01 0.101E+02   -.202E+01 0.116E-01 -.112E+02   -.325E-02 0.166E-02 0.347E+00   -.694E-04 0.854E-06 0.566E-04
   0.169E+02 -.143E+01 -.188E+04   -.170E+02 0.144E+01 0.188E+04   0.265E-01 -.704E-02 0.855E-01   -.697E-04 0.440E-04 0.798E-04
   0.525E+01 0.191E+00 -.194E+04   -.522E+01 -.188E+00 0.194E+04   -.564E-01 -.247E-02 -.118E+00   0.323E-03 -.122E-03 0.237E-03
   -.153E+02 -.162E+02 -.378E+04   0.153E+02 0.162E+02 0.378E+04   0.555E-01 0.105E-01 -.160E+00   0.364E-03 -.793E-04 -.812E-04
   -.457E+01 0.270E+00 -.380E+04   0.454E+01 -.267E+00 0.380E+04   0.224E-01 -.225E-02 0.104E+01   -.271E-03 -.197E-03 0.176E-03
   -.114E+00 0.162E-01 0.380E+04   0.111E+00 -.165E-01 -.380E+04   0.100E-02 0.254E-04 0.454E+00   -.749E-05 0.148E-04 -.579E-04
   -.510E-01 0.308E-01 0.398E+04   0.523E-01 -.309E-01 -.397E+04   -.250E-03 0.123E-04 -.403E+01   0.171E-05 0.101E-04 0.101E-04
   -.111E+00 0.571E-01 0.194E+04   0.116E+00 -.568E-01 -.194E+04   -.105E-02 -.125E-03 -.458E-01   -.611E-05 0.110E-04 0.419E-04
   -.316E+00 0.113E-01 0.193E+04   0.307E+00 -.117E-01 -.193E+04   0.239E-02 -.517E-04 0.211E+00   -.196E-04 0.406E-05 0.259E-04
   -.263E+01 0.409E+00 0.128E+01   0.261E+01 -.441E+00 -.508E+00   0.855E-02 0.191E-02 -.132E+00   -.195E-04 0.452E-05 0.372E-04
   0.174E+01 0.649E+00 0.111E+02   -.173E+01 -.651E+00 -.121E+02   -.417E-02 0.218E-02 0.349E+00   -.586E-04 -.152E-04 -.441E-04
   0.175E+02 0.146E+01 -.188E+04   -.175E+02 -.147E+01 0.188E+04   0.277E-01 0.759E-02 0.817E-01   -.912E-04 -.114E-03 0.577E-04
   0.343E+01 0.689E+01 -.193E+04   -.341E+01 -.690E+01 0.193E+04   -.470E-01 0.404E-02 -.122E+00   0.178E-03 0.262E-04 -.543E-04
   -.155E+02 0.146E+02 -.378E+04   0.155E+02 -.146E+02 0.378E+04   0.564E-01 -.134E-01 -.160E+00   0.387E-03 -.215E-03 -.252E-03
   -.487E+01 0.223E+01 -.379E+04   0.491E+01 -.224E+01 0.379E+04   -.367E-01 0.139E-01 0.999E+00   -.251E-03 -.259E-03 -.224E-04
   -.103E+00 0.198E-01 0.380E+04   0.998E-01 -.199E-01 -.380E+04   0.951E-03 -.937E-05 0.454E+00   -.721E-05 -.442E-05 -.586E-04
   -.532E-01 0.170E-02 0.398E+04   0.545E-01 -.174E-02 -.397E+04   -.248E-03 0.723E-05 -.403E+01   0.152E-05 -.153E-04 0.124E-04
   -.139E+00 0.591E-01 0.194E+04   0.145E+00 -.589E-01 -.194E+04   -.108E-02 -.112E-03 -.458E-01   -.203E-05 -.337E-05 0.376E-04
   -.228E+00 0.112E-01 0.193E+04   0.219E+00 -.109E-01 -.193E+04   0.221E-02 -.145E-04 0.210E+00   -.202E-04 -.112E-04 0.225E-04
   -.127E+01 0.193E+00 0.218E+01   0.123E+01 -.172E+00 -.142E+01   0.101E-01 -.129E-02 -.130E+00   -.284E-04 0.260E-04 0.701E-04
   0.168E+01 0.290E-02 0.119E+02   -.167E+01 -.257E-02 -.130E+02   -.630E-02 -.873E-04 0.347E+00   -.460E-04 0.187E-05 -.171E-04
   0.147E+02 0.172E+01 -.187E+04   -.148E+02 -.173E+01 0.187E+04   0.295E-01 0.561E-02 0.809E-01   -.305E-04 -.650E-04 -.235E-04
   0.243E+01 -.372E+00 -.192E+04   -.237E+01 0.376E+00 0.192E+04   -.896E-01 -.348E-02 -.118E+00   0.187E-04 0.436E-04 -.703E-04
   -.686E+02 0.140E+02 -.374E+04   0.685E+02 -.138E+02 0.374E+04   0.128E+00 -.141E+00 -.344E-01   0.886E-04 0.228E-03 -.854E-04
   -.731E+01 0.159E+00 -.379E+04   0.727E+01 -.162E+00 0.379E+04   0.382E-01 0.137E-02 0.950E+00   -.232E-03 0.286E-03 0.213E-03
   0.980E-01 -.124E-01 0.380E+04   -.949E-01 0.124E-01 -.380E+04   -.874E-03 0.842E-05 0.454E+00   0.761E-05 -.169E-04 -.405E-04
   0.570E-01 -.139E-01 0.398E+04   -.582E-01 0.143E-01 -.397E+04   0.239E-03 -.479E-04 -.403E+01   -.482E-06 -.115E-04 0.222E-04
   0.285E+00 0.124E+00 0.194E+04   -.290E+00 -.113E+00 -.194E+04   0.481E-03 -.263E-02 -.474E-01   0.325E-05 -.605E-05 0.522E-04
   0.192E+00 0.305E-01 0.193E+04   -.184E+00 -.301E-01 -.193E+04   -.132E-02 -.528E-04 0.206E+00   0.229E-04 -.429E-05 0.214E-04
   -.282E+00 0.810E-01 0.180E-01   0.329E+00 -.933E-01 0.808E+00   -.781E-02 0.910E-03 -.141E+00   0.392E-04 0.190E-04 -.169E-04
   0.375E+01 0.111E+01 0.141E+02   -.377E+01 -.118E+01 -.150E+02   -.135E-02 0.362E-01 0.278E+00   0.419E-06 0.631E-04 0.775E-04
   0.220E+02 -.116E+02 -.187E+04   -.220E+02 0.117E+02 0.187E+04   0.182E-01 -.694E-01 0.488E-01   0.131E-03 0.128E-03 0.144E-04
   0.179E+02 -.505E+01 -.194E+04   -.179E+02 0.505E+01 0.194E+04   -.475E-01 0.922E-02 -.120E+00   0.381E-03 0.505E-04 0.358E-04
   0.365E+02 -.138E+02 -.376E+04   -.366E+02 0.138E+02 0.376E+04   0.715E-01 0.430E-02 -.190E+00   -.161E-03 0.409E-03 0.117E-03
   0.199E+02 -.547E+02 -.375E+04   -.197E+02 0.547E+02 0.375E+04   -.149E+00 -.414E-01 0.112E+01   -.732E-04 0.193E-04 -.655E-05
   0.109E+00 -.163E-01 0.380E+04   -.106E+00 0.165E-01 -.380E+04   -.939E-03 -.146E-05 0.454E+00   0.619E-05 0.540E-05 -.411E-04
   0.548E-01 -.379E-02 0.398E+04   -.560E-01 0.381E-02 -.397E+04   0.237E-03 -.342E-05 -.403E+01   -.646E-06 0.158E-04 0.201E-04
   0.258E+00 0.836E-01 0.194E+04   -.263E+00 -.822E-01 -.194E+04   0.596E-03 -.121E-02 -.482E-01   0.967E-06 0.866E-05 0.763E-04
   0.281E+00 -.145E-01 0.193E+04   -.273E+00 0.143E-01 -.193E+04   -.145E-02 0.446E-04 0.206E+00   0.272E-04 0.116E-04 0.235E-04
   0.833E+00 -.306E-01 -.310E+00   -.798E+00 0.355E-01 0.113E+01   -.333E-02 -.670E-03 -.139E+00   0.106E-03 0.244E-04 0.462E-04
   0.323E+01 -.198E+00 0.173E+02   -.327E+01 0.196E+00 -.184E+02   0.714E-02 0.765E-04 0.300E+00   -.335E-04 0.140E-04 0.440E-04
   0.180E+02 -.103E+02 -.185E+04   -.181E+02 0.103E+02 0.185E+04   0.126E-01 -.113E-01 -.611E-01   0.624E-04 0.297E-04 0.136E-05
[...]
   -.532E+02 -.312E-01 0.116E+04   0.572E+02 0.304E-01 -.116E+04   -.357E+01 0.103E-02 0.154E+00   0.255E-04 -.415E-05 0.221E-04
   0.533E+02 -.196E-01 0.116E+04   -.573E+02 0.189E-01 -.116E+04   0.357E+01 0.952E-03 0.160E+00   -.278E-04 -.279E-05 0.259E-04
   -.884E-01 0.292E-01 0.508E+03   0.109E+00 -.295E-01 -.512E+03   -.298E-01 0.663E-03 0.417E+01   0.152E-04 -.118E-04 0.105E-04
   0.247E+01 0.212E+00 -.524E+03   -.277E+01 -.211E+00 0.531E+03   0.293E+00 -.326E-02 -.714E+01   0.710E-04 -.171E-05 -.735E-04
   -.547E+02 -.332E+00 0.808E+01   0.594E+02 0.329E+00 -.830E+01   -.509E+01 0.214E-01 0.278E+00   -.112E-04 -.311E-04 0.283E-04
   0.556E+02 -.436E+00 0.494E+01   -.603E+02 0.432E+00 -.510E+01   0.513E+01 0.257E-01 0.250E+00   0.449E-04 -.484E-04 0.239E-04
   0.126E+02 0.480E+00 -.621E+03   -.137E+02 -.564E+00 0.614E+03   0.110E+01 0.843E-01 0.681E+01   -.938E-04 -.298E-04 -.110E-04
   0.201E+02 -.200E+01 -.161E+04   -.214E+02 0.206E+01 0.161E+04   0.138E+01 -.658E-01 -.120E+01   -.772E-04 0.323E-04 -.938E-04
   -.499E+02 0.212E+01 -.113E+04   0.562E+02 -.219E+01 0.113E+04   -.630E+01 0.773E-01 0.132E+01   -.808E-04 -.118E-03 -.519E-04
   0.590E+00 0.381E+01 -.114E+04   -.475E+00 -.393E+01 0.114E+04   -.861E-01 0.113E+00 0.408E+00   -.259E-05 -.237E-04 -.565E-05
   0.185E+02 -.635E+00 -.181E+04   -.188E+02 0.623E+00 0.182E+04   0.376E+00 0.129E-01 -.213E+01   0.113E-05 0.738E-04 -.135E-04
   0.367E+02 0.475E+00 -.273E+04   -.365E+02 -.519E+00 0.275E+04   -.171E+00 0.449E-01 -.206E+02   -.109E-03 0.164E-03 -.125E-03
   -.474E+02 0.418E+02 -.223E+04   0.534E+02 -.416E+02 0.223E+04   -.601E+01 -.280E+00 -.428E+00   0.716E-04 -.413E-05 -.224E-03
   0.636E+02 0.333E+02 -.231E+04   -.698E+02 -.334E+02 0.231E+04   0.618E+01 0.377E-01 -.316E+01   0.728E-05 0.469E-05 -.221E-03
   0.146E+02 -.266E+02 0.789E+02   0.395E-11 0.291E-12 -.450E-10   -.146E+02 0.266E+02 -.789E+02   0.198E-03 0.103E-02 0.268E-02

 POSITION                                       TOTAL-FORCE (eV/Angst)
      6.65721      6.50168     24.50594        -0.001057      0.001124     -0.005597
      7.99110      5.86534     23.92104         0.001877      0.002637      0.000657
      6.99672      5.80824     23.91575        -0.006453      0.006357      0.003793
      9.75297      7.39395      8.77438        -0.002254      0.000138     -3.377918
      0.00000      8.87274      8.77438         0.001076      0.000104      2.808446
      0.00000      7.39395     12.02537         0.004819      0.000028      0.541461
      9.75297      8.87274     12.02537        -0.006508      0.000490     -0.722746
      9.75297      7.39395     15.27636        -0.029740     -0.013694      0.634340
      0.00000      8.87274     15.27636        -0.000471      0.001942     -0.739791
      0.09763      7.39448     18.45490         0.000958     -0.001729      0.000937
      9.83909      8.87435     18.64498        -0.001894     -0.001631     -0.001387
      9.77687      7.40176     21.97454        -0.003039      0.001766      0.001059
      0.01165      8.87583     21.63640         0.001203     -0.002170      0.001210
      9.75297     10.35153      8.77438        -0.002350      0.000227     -3.377930
      0.00000      0.00000      8.77438         0.001073      0.000064      2.808271
      0.00000     10.35153     12.02537         0.004637     -0.000319      0.541441
      9.75297      0.00000     12.02537        -0.006822     -0.000327     -0.723338
      9.75297     10.35153     15.27636        -0.017519      0.022978      0.641184
      0.00000      0.00000     15.27636        -0.001458     -0.002084     -0.739078
      0.09740     10.35168     18.45768        -0.001370     -0.001405     -0.001871
      9.82912     -0.00036     18.65358         0.001850      0.000926     -0.000307
      9.76047     10.35032     22.00426         0.001626      0.000164      0.002241
      0.01359     11.82925     21.63515        -0.000204      0.000892     -0.000155
      9.75297      1.47879      8.77438        -0.002337     -0.000243     -3.378128
      0.00000      2.95758      8.77438         0.001097     -0.000090      2.808294
      0.00000      1.47879     12.02537         0.004748      0.000189      0.541229
      9.75297      2.95758     12.02537        -0.006314     -0.000450     -0.723853
      9.75297      1.47879     15.27636        -0.016353     -0.029386      0.637062
      0.00000      2.95758     15.27636         0.000601     -0.000163     -0.741813
      0.09628      1.47787     18.45635         0.000923      0.001501      0.001386
      9.83701      2.95569     18.64405        -0.000559      0.000063     -0.000735
      9.75962      1.46989     22.00331         0.001242      0.002124      0.005165
      0.01324      2.95251     21.63571         0.000458      0.000801      0.003386
      9.75297      4.43637      8.77438        -0.002238     -0.000089     -3.378116
      0.00000      5.91516      8.77438         0.001113     -0.000046      2.808467
      0.00000      4.43637     12.02537         0.004926      0.000137      0.541368
      9.75297      5.91516     12.02537        -0.006109      0.000309     -0.723175
      9.75297      4.43637     15.27636        -0.031139      0.020117      0.630324
      0.00000      5.91516     15.27636         0.000392      0.000252     -0.743305
      0.09864      4.43581     18.45499        -0.003034      0.001358      0.001143
      9.84319      5.91427     18.64934         0.000363      0.000409      0.000827
      9.78359      4.41795     21.97525        -0.000863     -0.004363      0.002005
      0.02307      5.91560     21.63443         0.001562     -0.001365      0.002124
      3.25099      7.39395      8.77438         0.002327     -0.000031     -3.375883
      6.50198      8.87274      8.77438        -0.000971      0.000302      2.814069
      6.50198      7.39395     12.02537        -0.004470      0.008974      0.561063
      3.25099      8.87274     12.02537         0.006807      0.000399     -0.708528
      3.25099      7.39395     15.27636         0.037191     -0.011044      0.680656
      6.50198      8.87274     15.27636        -0.023335     -0.038335     -0.626666
      6.60337      7.36946     18.49027        -0.006243      0.000113      0.003197
      3.33659      8.87135     18.65331         0.001740      0.000522      0.001080
      3.26918      7.39566     22.00581         0.002986     -0.002599      0.001802
      6.52282      8.87322     21.60077        -0.002102      0.001222      0.001907
      3.25099     10.35153      8.77438         0.002436      0.000213     -3.376013
      6.50198      0.00000      8.77438        -0.000946      0.000041      2.814192
      6.50198     10.35153     12.02537        -0.004670      0.000281      0.563762
      3.25099      0.00000     12.02537         0.007221     -0.000097     -0.708904
      3.25099     10.35153     15.27636         0.031377      0.004574      0.675918
      6.50198      0.00000     15.27636        -0.027801     -0.002529     -0.799020
      6.59647     10.34104     18.42812        -0.003056     -0.002014     -0.000632
[...]
      6.50198      5.91516     13.29975         0.003441     -0.000694     -0.121127
      4.52537      4.43637     12.02537         0.433268      0.000264      0.048149
      8.47859      4.43637     12.02537        -0.427953      0.000296      0.049866
      3.25099      5.91516     14.00198        -0.009317      0.000401     -0.106764
      3.25099      5.91516     16.55075        -0.003254     -0.002559      0.034272
      7.77636      4.43637     15.27636        -0.435215      0.019149      0.062138
      5.22760      4.43637     15.27636         0.471685      0.021537      0.088324
      6.51871      5.91261     17.27873        -0.002160      0.001693     -0.005485
      6.50090      5.92012     19.84642        -0.000883      0.001117      0.000859
      4.55840      4.43624     18.54825         0.000944      0.000195     -0.000274
      8.47198      4.43642     18.56596         0.002225     -0.001080      0.001376
      3.26923      5.91952     20.51967        -0.001881      0.001397     -0.002048
      3.28240      5.91386     23.09093        -0.000280      0.000903     -0.002003
      7.77234      4.39519     21.81421        -0.000499     -0.000377      0.002998
      5.29885      4.42396     21.93317         0.002626      0.000541      0.003248
    total drift:                               -0.005799     -0.002181     -0.039804

  FREE ENERGIE OF THE ION-ELECTRON SYSTEM (eV)
  free  energy   TOTEN  =     -2141.06464004 eV

  energy  without entropy=    -2141.06464004  energy(sigma->0) =    -2141.06464004

 d Force = 0.4315588E-04[ 0.232E-04, 0.631E-04]  d Energy = 0.4212708E-04 0.103E-05
 d Force = 0.7113776E+01[ 0.711E+01, 0.711E+01]  d Ewald  = 0.7113775E+01 0.583E-06

 Conjugate gradient step on ions:
 trial-energy change:   -0.000042  1 .order   -0.000043   -0.000063   -0.000023
  (g-gl).g = 0.189E-03      g.g   = 0.190E-03  gl.gl    = 0.182E-03
 g(Force)  = 0.190E-03   g(Stress)= 0.000E+00 ortho     = 0.150E-06
 gamma     =   1.03824
 trial     =   0.33280
 opt step  =   0.60066  (harmonic =   0.52595) maximal distance =0.00110551
 next E    = -2141.064649   (d E  =  -0.00005)

 reached required accuracy - stopping structural energy minimisation