 vasp.6.3.0 20Jan22 (build Aug 21 2024 11:13:42) complex
 executed on        HPECrayEX_GCC date 2024.11.26  19:35:57

 INCAR:
   SYSTEM = TiO2
   ISMEAR = 0
   SIGMA = 0.05
   EDIFF = 1E-4
   ALGO = ALL
   ISTART = 0
   IBRION = -1
   NSW = 0
   ISYM = 0
   ISIF = 2
   EDIFFG = -0.01
   DIPOL = 0.5 0.5 0.5
   IDIPOL = 3
   LDIPOL = .TRUE.
   GGA = MK
   LUSE_VDW = .TRUE.
   PARAM1 = 0.1234
   PARAM2 = 0.711357
   ZAB_VDW = -1.8867
   AGGAC = 0.0
   ENCUT = 600
   PREC = Accurate
   LASPH = .TRUE.
   LREAL = .FALSE.
   ISPIN = 1
   NELM = 200
   NELMIN = 8
   NCORE = 16
   KPAR = 1
   LWAVE = .FALSE.
   LCHARG = .FALSE.

 POTCAR:    PAW_PBE Ti_pv 07Sep2000
 POTCAR:    PAW_PBE O 08Apr2002
|               ----> ADVICE to this user running VASP <----                  |
|     You have switched on vdW-DFT.                                           |
|     This routine was written and supplied by Jiri Klimes. We recommend      |
|     that you carefully read and cite the following publications:            |
|       J. Klimes, D.R. Bowler, A. Michelides                                 |
|          J. Phys.: Cond Matt. 22 022201 (2010)                              |
|       J. Klimes, D.R. Bowler, A. Michelides                                 |
|          Phys. Rev. B. 83, 195131 (2011)                                    |
|     and references therein.                                                 |

   TITEL  = PAW_PBE Ti_pv 07Sep2000
   POMASS =   47.880; ZVAL   =   10.000    mass and valenz
   ENMAX  =  222.335; ENMIN  =  166.751 eV

   TITEL  = PAW_PBE O 08Apr2002
   POMASS =   16.000; ZVAL   =    6.000    mass and valenz
   ENMAX  =  400.000; ENMIN  =  300.000 eV

  PAW_PBE Ti_pv 07Sep2000               :
  PAW_PBE O 08Apr2002                   :

 POSCAR: Ti  O
  positions in direct lattice
 exchange correlation table for  LEXCH =       43
   RHO(1)=    0.500       N(1)  =     2000
   RHO(2)=  100.500       N(2)  =     4000

 ion  position               nearest neighbor table
   1  0.750  0.625  0.287-  81 1.96  82 1.96 141 1.96 142 1.96  84 1.99 163 1.99  11 2.96  31 2.96

   2  0.000  0.750  0.287-  83 1.96  84 1.96 103 1.96 104 1.96  85 1.99  32 2.96  12 2.96
   3  0.000  0.625  0.393-  85 1.96  86 1.96 145 1.96 146 1.96  87 1.99  88 1.99  13 2.96  33 2.96

[...]

  80  0.499  0.500  0.711- 234 1.85 180 1.95 240 1.95 239 1.95 179 1.95  50 2.96  70 2.96
  81  0.750  0.750  0.245-   1 1.96  11 1.96
  82  0.750  0.750  0.328-   1 1.96  11 1.96   4 1.99
  83  0.098  0.625  0.287-   2 1.96  32 1.96  41 1.99
  84  0.902  0.625  0.287-   2 1.96  32 1.96   1 1.99
  85  0.000  0.750  0.352-   3 1.96  13 1.96   2 1.99
  86  0.000  0.750  0.435-   3 1.96  13 1.96   6 1.99
  87  0.848  0.625  0.393-   4 1.96  34 1.96   3 1.99
  88  0.152  0.625  0.393-  44 1.96  74 1.96   3 1.99
  89  0.750  0.750  0.458-   5 1.96  15 1.96   4 1.99
  90  0.750  0.750  0.542-   5 1.96  15 1.96   8 2.11
  91  0.098  0.625  0.500-   6 1.96  36 1.96  45 1.99
  92  0.902  0.625  0.500-   6 1.96  36 1.96   5 1.99
  93  1.000  0.750  0.565-  17 1.90   7 1.90   6 2.01
  94  0.000  0.750  0.649-  10 1.82   7 2.02  17 2.02
  95  0.850  0.625  0.607-   7 1.96   8 1.98  38 1.98
  96  0.150  0.625  0.607-   7 1.96  48 1.98  78 1.98
  97  0.750  0.750  0.672-   8 1.87  19 2.10   9 2.10
  98  0.750  0.750  0.756-   9 1.83  19 1.83
  99  0.094  0.625  0.719-  40 1.95  10 1.95  49 2.03
 100  0.906  0.625  0.719-  40 1.95  10 1.95   9 2.04
 101  0.750  0.000  0.245-  11 1.96  21 1.96
 102  0.750  0.000  0.328-  11 1.96  21 1.96  14 1.99
 103  0.098  0.875  0.287-   2 1.96  12 1.96  51 1.99
 104  0.902  0.875  0.287-   2 1.96  12 1.96  11 1.99
 105  0.000  0.000  0.352-  13 1.96  23 1.96  12 1.99
 106  0.000  0.000  0.435-  13 1.96  23 1.96  16 1.99
 107  0.848  0.875  0.393-   4 1.96  14 1.96  13 1.99
 108  0.152  0.875  0.393-  44 1.96  54 1.96  13 1.99
 109  0.750  0.000  0.458-  15 1.96  25 1.96  14 1.99
 110  0.750  0.000  0.542-  15 1.96  25 1.96  18 2.11
 111  0.098  0.875  0.500-   6 1.96  16 1.96  55 1.99
 112  0.902  0.875  0.500-   6 1.96  16 1.96  15 1.99
 113  1.000  0.000  0.566-  27 1.90  17 1.90  16 2.01
 114  0.000  0.000  0.649-  20 1.82  27 2.02  17 2.02
 115  0.850  0.875  0.607-  17 1.96  18 1.98   8 1.98
 116  0.150  0.875  0.607-  17 1.96  58 1.98  48 1.98
 117  0.750  1.000  0.672-  18 1.87  19 2.10  29 2.10
 118  0.750  0.000  0.756-  29 1.83  19 1.83
 119  0.094  0.875  0.719-  10 1.95  20 1.95  59 2.04
 120  0.906  0.875  0.719-  10 1.95  20 1.95  19 2.04
 121  0.750  0.250  0.245-  21 1.96  31 1.96
 122  0.750  0.250  0.328-  21 1.96  31 1.96  24 1.99
 123  0.098  0.125  0.287-  12 1.96  22 1.96  61 1.99
 124  0.902  0.125  0.287-  12 1.96  22 1.96  21 1.99
 125  0.000  0.250  0.352-  23 1.96  33 1.96  22 1.99
 126  0.000  0.250  0.435-  23 1.96  33 1.96  26 1.99
 127  0.848  0.125  0.393-  14 1.96  24 1.96  23 1.99
 128  0.152  0.125  0.393-  54 1.96  64 1.96  23 1.99
 129  0.750  0.250  0.458-  25 1.96  35 1.96  24 1.99
 130  0.750  0.250  0.542-  25 1.96  35 1.96  28 2.11
 131  0.098  0.125  0.500-  16 1.96  26 1.96  65 1.99
 132  0.902  0.125  0.500-  16 1.96  26 1.96  25 1.99
 133  1.000  0.250  0.565-  27 1.90  37 1.90  26 2.01
 134  0.000  0.250  0.649-  30 1.82  37 2.02  27 2.02
 135  0.850  0.125  0.607-  27 1.96  18 1.98  28 1.98
 136  0.150  0.125  0.607-  27 1.96  58 1.98  68 1.98
 137  0.750  0.250  0.672-  28 1.87  29 2.10  39 2.10
 138  0.750  0.250  0.756-  39 1.83  29 1.83
 139  0.094  0.125  0.719-  30 1.95  20 1.95  69 2.04
[...]
 226  0.500  0.500  0.435-  43 1.96  73 1.96  76 1.99
 227  0.348  0.375  0.393-  64 1.96  74 1.96  73 1.99
 228  0.652  0.375  0.393-  24 1.96  34 1.96  73 1.99
 229  0.250  0.500  0.458-  45 1.96  75 1.96  74 1.99
 230  0.250  0.500  0.542-  45 1.96  75 1.96  78 2.11
 231  0.598  0.375  0.500-  66 1.96  76 1.96  35 1.99
 232  0.402  0.375  0.500-  66 1.96  76 1.96  75 1.99
 233  0.500  0.500  0.566-  47 1.90  77 1.90  76 2.01
 234  0.500  0.500  0.650-  80 1.85  77 2.01  47 2.01
 235  0.350  0.375  0.607-  77 1.96  78 1.98  68 1.98
 236  0.650  0.375  0.607-  77 1.96  38 1.98  28 1.98
 237  0.248  0.500  0.672-  78 1.87  79 2.09  49 2.09
 238  0.254  0.500  0.755-  79 1.84  49 1.84
 239  0.594  0.374  0.719-  70 1.94  80 1.95  39 2.04
 240  0.405  0.373  0.717-  70 1.94  80 1.95  79 2.04

IMPORTANT INFORMATION: All symmetrisations will be switched off!
NOSYMM: (Re-)initialisation of all symmetry stuff for point group C_1.

                                     Primitive cell

  volume of cell :    4737.1735

  direct lattice vectors                    reciprocal lattice vectors
    13.061198858  0.000000000  0.000000000     0.076562650  0.000000000  0.000000000
     0.000000000 11.845266045  0.000000000     0.000000000  0.084421911  0.000000000
     0.000000000  0.000000000 30.619030317     0.000000000  0.000000000  0.032659427

  length of vectors
    13.061198858 11.845266045 30.619030317     0.076562650  0.084421911  0.032659427

  position of ions in fractional coordinates (direct lattice)
     0.750000000  0.625000000  0.286714362
     0.000000000  0.750000000  0.286714362
     0.000000000  0.625000000  0.393357181
     0.750000000  0.750000000  0.393357181
     0.750000000  0.625000000  0.500000000
     0.000000000  0.750000000  0.500000000
     0.000033946  0.625019717  0.604455476
     0.750024313  0.749950174  0.610708028
     0.749734199  0.625054570  0.720368114
     0.999986548  0.750176710  0.708653413
     0.750000000  0.875000000  0.286714362
     0.000000000  0.000000000  0.286714362
     0.000000000  0.875000000  0.393357181
     0.750000000  0.000000000  0.393357181
     0.750000000  0.875000000  0.500000000
     0.000000000  0.000000000  0.500000000
     0.999904678  0.875017554  0.604502400
     0.749949915  0.999999993  0.610709900
     0.749861386  0.875061500  0.720381139
     0.000245079  0.000000028  0.708656308
     0.750000000  0.125000000  0.286714362
     0.000000000  0.250000000  0.286714362
     0.000000000  0.125000000  0.393357181
     0.750000000  0.250000000  0.393357181
     0.750000000  0.125000000  0.500000000
     0.000000000  0.250000000  0.500000000
     0.999904737  0.124982437  0.604502397
     0.750024361  0.250049783  0.610708023
     0.749861360  0.124938633  0.720381145
     0.999986550  0.249823340  0.708653407
     0.750000000  0.375000000  0.286714362
     0.000000000  0.500000000  0.286714362
     0.000000000  0.375000000  0.393357181
     0.750000000  0.500000000  0.393357181
     0.750000000  0.375000000  0.500000000
     0.000000000  0.500000000  0.500000000
     0.000033982  0.374980283  0.604455472
     0.750120472  0.499999985  0.610766653
     0.749734157  0.374945570  0.720368101
     0.999400432  0.500000012  0.708631114
     0.250000000  0.625000000  0.286714362
     0.500000000  0.750000000  0.286714362
     0.500000000  0.625000000  0.393357181
     0.250000000  0.750000000  0.393357181
     0.250000000  0.625000000  0.500000000
     0.500000000  0.750000000  0.500000000
     0.500028940  0.624088287  0.605122213
     0.249941743  0.750120992  0.610544511
     0.249221138  0.625387424  0.719833952
     0.500283694  0.750157078  0.708113248
     0.250000000  0.875000000  0.286714362
     0.500000000  0.000000000  0.286714362
     0.500000000  0.875000000  0.393357181
     0.250000000  0.000000000  0.393357181
     0.250000000  0.875000000  0.500000000
     0.500000000  0.000000000  0.500000000
     0.500126890  0.874596363  0.604031359
     0.250061292  0.999999971  0.610715597
     0.250380530  0.875065644  0.720406027
     0.500039593  0.000000010  0.708189573
[...]
     0.500000000  0.500000000  0.435125836
     0.347917178  0.375000000  0.393357181
     0.652082822  0.375000000  0.393357181
     0.250000000  0.500000000  0.458231344
     0.250000000  0.500000000  0.541768656
     0.597917178  0.375000000  0.500000000
     0.402082822  0.375000000  0.500000000
     0.499952909  0.499999983  0.565706722
     0.500194343  0.500000019  0.650019837
     0.349867197  0.375042378  0.607467156
     0.650137045  0.375080584  0.607372819
     0.247965436  0.500000008  0.671612009
     0.253910964  0.499999981  0.755424268
     0.593941728  0.374081173  0.718510113
     0.405028534  0.372997642  0.717323594

  ion indices of the primitive-cell ions
   primitive index   ion index
                 1           1
                 2           2
                 3           3
                 4           4
                 5           5
                 6           6
                 7           7
                 8           8
                 9           9
                10          10
                11          11
                12          12
                13          13
                14          14
                15          15
                16          16
                17          17
                18          18
                19          19
                20          20
                21          21
                22          22
                23          23
                24          24
                25          25
                26          26
                27          27
[...]
   6.53059943 10.36460779 12.04421544
   3.26529971  0.00000000 12.04421544
   3.26529971 10.36460779 15.30951516
   6.53059943  0.00000000 15.30951516
   6.53225676 10.35982660 18.49485448
   3.26610026 11.84526570 18.69951939
   3.27026989 10.36538536 22.05813400
   6.53111656  0.00000012 21.68407801
[...]
   6.53059943  5.92263302 13.32313117
   4.54421544  4.44197477 12.04421544
   8.51698341  4.44197477 12.04421544
   3.26529971  5.92263302 14.03059943
   3.26529971  5.92263302 16.58843089
   7.80951516  4.44197477 15.30951516
   5.25168370  4.44197477 15.30951516
   6.52998437  5.92263282 17.32139127
   6.53313778  5.92263325 19.90297709
   4.56968504  4.44247675 18.60005528
   8.49156923  4.44292930 18.59716674
   3.23872587  5.92263312 20.56410846
   3.31638159  5.92263280 23.13035856
   7.75759102  4.43109101 22.00008294
   5.29015822  4.41825631 21.96375286

--------------------------------------- Iteration      FINAL  ---------------------------------------

--------------------OUTCAR has been truncated-------------------------

[...]

--------------------OUTCAR has been truncated-------------------------

  FORCE on cell =-STRESS in cart. coord.  units (eV):
  Direction    XX          YY          ZZ          XY          YZ          ZX
  Alpha Z  4617.97161  4617.97161  4617.97161
  Ewald  974593.84420992526.84416************     0.00003    -0.00034    10.67450
  Hartree************************************     0.00008    -0.00021     5.25354
  E(xc)   -8601.21382 -8595.74499 -8597.89155    -0.00000    -0.00000     0.01055
  Local  ************************************    -0.00021     0.00047   -16.00928
  n-local -5470.43742 -5396.29192 -5514.05522     0.00002    -0.00000     0.15167
  augment  5250.84339  5227.54249  5255.01666     0.00009     0.00007     0.06392
  Kinetic 28566.19314 28105.31097 28612.18131     0.00000     0.00018    -0.42248
  Fock        0.00000     0.00000     0.00000     0.00000     0.00000     0.00000
  Total       3.33733   -40.74203   -35.45019     0.00002     0.00017    -0.27758
  in kB       1.12873   -13.77952   -11.98974     0.00001     0.00006    -0.09388

 VOLUME and BASIS-vectors are now :
  energy-cutoff  :      600.00
  volume of cell :     4737.17
      direct lattice vectors                 reciprocal lattice vectors
    13.061198858  0.000000000  0.000000000     0.076562650  0.000000000  0.000000000
     0.000000000 11.845266045  0.000000000     0.000000000  0.084421911  0.000000000
     0.000000000  0.000000000 30.619030317     0.000000000  0.000000000  0.032659427

  length of vectors
    13.061198858 11.845266045 30.619030317     0.076562650  0.084421911  0.032659427

 FORCES acting on ions:
    Electron-Ion                     Ewald-Force                    Non-Local-Force
   0.193E-01 0.145E-01 0.377E+04   -.196E-01 -.144E-01 -.377E+04   0.727E-04 0.177E-04 0.355E+00
   0.109E-01 0.119E-01 0.395E+04   -.113E-01 -.117E-01 -.394E+04   0.936E-04 0.570E-05 -.369E+01
   0.662E-01 0.238E-01 0.191E+04   -.686E-01 -.238E-01 -.191E+04   0.405E-03 0.779E-04 -.427E-01
   0.656E-01 0.116E+00 0.191E+04   -.666E-01 -.115E+00 -.191E+04   0.214E-03 -.645E-04 0.199E+00
   0.721E+00 0.405E+00 -.196E+02   -.726E+00 -.409E+00 0.204E+02   0.881E-03 0.194E-03 -.122E+00
   0.267E+00 -.433E-02 -.750E+01   -.274E+00 0.861E-02 0.649E+01   0.200E-02 -.181E-02 0.324E+00
   0.127E+01 0.115E+00 -.189E+04   -.125E+01 -.109E+00 0.189E+04   -.169E-02 -.443E-02 0.474E-01
   -.102E+00 0.857E-01 -.195E+04   0.132E+00 -.679E-01 0.195E+04   -.827E-02 -.355E-02 -.599E-01
   -.310E+00 0.106E+01 -.376E+04   0.479E+00 -.101E+01 0.376E+04   -.320E-01 -.592E-02 -.109E+00
   -.265E+00 0.190E+01 -.378E+04   0.295E+00 -.191E+01 0.378E+04   0.418E-02 0.143E-02 0.911E+00
   0.928E-02 0.145E-01 0.377E+04   -.982E-02 -.144E-01 -.377E+04   0.165E-03 -.156E-04 0.355E+00
   0.966E-02 0.824E-04 0.395E+04   -.102E-01 -.541E-06 -.394E+04   0.844E-04 0.126E-04 -.369E+01
   0.485E-01 0.222E-01 0.191E+04   -.505E-01 -.223E-01 -.191E+04   0.299E-03 0.530E-04 -.427E-01
   -.692E-02 0.843E-05 0.191E+04   0.526E-02 -.264E-05 -.191E+04   0.412E-03 0.366E-07 0.199E+00
   -.180E+00 0.391E+00 -.189E+02   0.179E+00 -.389E+00 0.197E+02   0.469E-03 -.966E-04 -.122E+00
   0.130E+00 0.250E-05 -.776E+01   -.134E+00 -.271E-04 0.676E+01   0.870E-03 -.997E-05 0.324E+00
   0.284E-01 0.488E-01 -.189E+04   -.855E-02 -.434E-01 0.189E+04   -.388E-02 -.396E-02 0.485E-01
   -.829E+00 0.739E-04 -.195E+04   0.839E+00 -.525E-04 0.195E+04   0.478E-02 -.823E-05 -.563E-01
   -.718E+00 0.407E+00 -.376E+04   0.729E+00 -.382E+00 0.376E+04   0.162E-01 -.655E-03 -.121E+00
   0.162E+00 0.259E-04 -.378E+04   -.140E+00 -.341E-04 0.378E+04   -.161E-02 0.333E-05 0.932E+00
   0.933E-02 -.144E-01 0.377E+04   -.982E-02 0.144E-01 -.377E+04   0.151E-03 -.273E-04 0.355E+00
   0.108E-01 -.118E-01 0.395E+04   -.113E-01 0.117E-01 -.394E+04   0.794E-04 -.436E-05 -.369E+01
   0.485E-01 -.222E-01 0.191E+04   -.505E-01 0.223E-01 -.191E+04   0.294E-03 -.650E-04 -.427E-01
   0.656E-01 -.116E+00 0.191E+04   -.666E-01 0.115E+00 -.191E+04   0.206E-03 0.905E-04 0.199E+00
   -.180E+00 -.391E+00 -.189E+02   0.179E+00 0.389E+00 0.197E+02   0.448E-03 0.106E-03 -.122E+00
   0.267E+00 0.434E-02 -.750E+01   -.274E+00 -.860E-02 0.649E+01   0.200E-02 0.182E-02 0.324E+00
   0.286E-01 -.488E-01 -.189E+04   -.875E-02 0.435E-01 0.189E+04   -.388E-02 0.396E-02 0.485E-01
   -.102E+00 -.859E-01 -.195E+04   0.131E+00 0.681E-01 0.195E+04   -.826E-02 0.356E-02 -.599E-01
   -.718E+00 -.407E+00 -.376E+04   0.729E+00 0.382E+00 0.376E+04   0.162E-01 0.647E-03 -.121E+00
   -.265E+00 -.190E+01 -.378E+04   0.295E+00 0.191E+01 0.378E+04   0.418E-02 -.144E-02 0.911E+00
   0.193E-01 -.146E-01 0.377E+04   -.196E-01 0.144E-01 -.377E+04   0.662E-04 0.263E-04 0.355E+00
   0.120E-01 -.677E-04 0.395E+04   -.125E-01 0.537E-06 -.394E+04   0.958E-04 0.125E-04 -.369E+01
   0.662E-01 -.238E-01 0.191E+04   -.686E-01 0.238E-01 -.191E+04   0.417E-03 -.685E-04 -.426E-01
   0.137E+00 0.835E-05 0.191E+04   -.137E+00 0.254E-05 -.191E+04   -.521E-04 -.178E-04 0.199E+00
   0.721E+00 -.405E+00 -.196E+02   -.726E+00 0.409E+00 0.204E+02   0.868E-03 -.195E-03 -.122E+00
   0.374E+00 -.276E-04 -.730E+01   -.383E+00 0.196E-04 0.629E+01   0.288E-02 -.575E-05 0.324E+00
   0.127E+01 -.115E+00 -.189E+04   -.125E+01 0.109E+00 0.189E+04   -.169E-02 0.443E-02 0.474E-01
   0.499E+00 -.132E-04 -.195E+04   -.464E+00 0.132E-04 0.195E+04   -.458E-02 -.107E-04 -.655E-01
   -.310E+00 -.106E+01 -.376E+04   0.479E+00 0.101E+01 0.376E+04   -.319E-01 0.593E-02 -.109E+00
   -.667E+00 0.140E-04 -.378E+04   0.746E+00 0.195E-04 0.378E+04   -.317E-01 -.115E-05 0.891E+00
   -.196E-01 0.129E-01 0.377E+04   0.199E-01 -.126E-01 -.377E+04   -.428E-04 -.171E-04 0.356E+00
   -.106E-01 0.274E-01 0.395E+04   0.111E-01 -.271E-01 -.394E+04   -.724E-04 -.793E-04 -.369E+01
   -.606E-01 0.145E+00 0.191E+04   0.629E-01 -.136E+00 -.191E+04   -.364E-03 -.164E-02 -.425E-01
   -.707E-01 0.892E-01 0.191E+04   0.717E-01 -.882E-01 -.191E+04   -.233E-03 0.274E-04 0.201E+00
   -.910E+00 0.241E+00 -.188E+02   0.915E+00 -.237E+00 0.195E+02   -.326E-03 -.443E-03 -.117E+00
   -.226E+00 0.118E+01 -.808E+01   0.231E+00 -.121E+01 0.712E+01   -.348E-03 0.222E-01 0.305E+00
   -.394E-02 0.455E+00 -.189E+04   -.129E-01 -.284E+00 0.189E+04   0.417E-03 -.793E-01 0.848E-01
   -.123E+01 0.212E+00 -.195E+04   0.120E+01 -.196E+00 0.195E+04   0.129E-01 -.805E-02 -.745E-01
   0.488E+01 0.498E+01 -.376E+04   -.495E+01 -.516E+01 0.376E+04   -.832E-02 0.238E-01 -.124E+00
   -.166E+01 -.321E+01 -.378E+04   0.156E+01 0.348E+01 0.378E+04   0.572E-01 -.631E-01 0.980E+00
   -.951E-02 0.128E-01 0.377E+04   0.100E-01 -.126E-01 -.377E+04   -.167E-03 -.794E-04 0.355E+00
   -.957E-02 -.373E-04 0.395E+04   0.995E-02 -.489E-06 -.394E+04   -.781E-04 -.143E-04 -.370E+01
   -.440E-01 0.142E+00 0.191E+04   0.461E-01 -.138E+00 -.191E+04   -.256E-03 -.118E-02 -.429E-01
   0.245E-02 -.813E-05 0.191E+04   -.796E-03 -.331E-05 -.191E+04   -.380E-03 0.326E-05 0.200E+00
   0.598E-01 0.147E+00 -.186E+02   -.570E-01 -.126E+00 0.194E+02   -.850E-03 -.115E-02 -.121E+00
   -.635E-01 0.489E-04 -.514E+01   0.660E-01 -.187E-04 0.409E+01   -.206E-03 0.259E-05 0.310E+00
   0.716E+00 -.261E+01 -.187E+04   -.731E+00 0.267E+01 0.187E+04   -.698E-03 -.146E-01 -.204E-01
   -.475E+00 -.858E-04 -.195E+04   0.457E+00 0.907E-04 0.195E+04   0.599E-02 -.377E-05 -.717E-01
   0.109E+00 0.308E+00 -.376E+04   -.114E+00 -.354E+00 0.377E+04   -.184E-01 0.605E-02 -.126E+00
   0.122E+01 -.127E-04 -.378E+04   -.124E+01 0.294E-04 0.378E+04   -.122E-01 -.173E-05 0.875E+00
[...]
   -.545E+02 -.609E-01 0.114E+04   0.586E+02 0.599E-01 -.115E+04   -.364E+01 0.167E-02 0.162E+00
   0.545E+02 -.695E-01 0.114E+04   -.585E+02 0.687E-01 -.114E+04   0.363E+01 0.122E-02 0.158E+00
   -.289E+00 0.911E-05 0.495E+03   0.292E+00 0.569E-05 -.500E+03   -.423E-02 -.816E-05 0.425E+01
   -.139E+01 -.957E-05 -.532E+03   0.140E+01 0.293E-04 0.539E+03   -.323E-02 -.990E-05 -.702E+01
   -.560E+02 -.628E+00 -.625E+01   0.607E+02 0.624E+00 0.603E+01   -.521E+01 0.201E-01 0.304E+00
   0.557E+02 -.582E+00 -.610E+01   -.604E+02 0.577E+00 0.588E+01   0.518E+01 0.222E-01 0.308E+00
   -.502E-01 0.170E-04 -.637E+03   0.304E-01 -.259E-04 0.630E+03   0.217E-01 0.125E-04 0.673E+01
   -.210E+01 -.930E-04 -.163E+04   0.223E+01 0.756E-04 0.163E+04   -.126E+00 0.800E-05 0.178E+01
   -.311E+02 -.118E-01 -.115E+04   0.342E+02 -.677E-01 0.114E+04   -.307E+01 0.831E-01 0.813E+00
   0.303E+02 -.445E+00 -.114E+04   -.334E+02 0.381E+00 0.114E+04   0.309E+01 0.699E-01 0.973E+00
   0.320E+01 -.130E-03 -.182E+04   -.355E+01 0.144E-03 0.182E+04   0.365E+00 -.176E-04 -.213E+01
   -.104E+02 0.152E-04 -.272E+04   0.113E+02 0.142E-05 0.274E+04   -.100E+01 0.122E-04 -.207E+02
   -.228E+02 -.250E+01 -.234E+04   0.289E+02 0.263E+01 0.235E+04   -.620E+01 0.454E-01 -.288E+01
   0.241E+02 -.152E+01 -.233E+04   -.304E+02 0.143E+01 0.233E+04   0.657E+01 0.326E+00 -.224E+01
   0.403E+00 0.263E-03 0.888E+02   0.364E-11 0.172E-12 -.182E-10   -.401E+00 -.581E-04 -.889E+02

 POSITION                                       TOTAL-FORCE (eV/Angst)
      9.79590      7.40329      8.77892        -0.000245      0.000113     -3.487059
      0.00000      8.88395      8.77892        -0.000385      0.000157      2.770871
      0.00000      7.40329     12.04422        -0.002033      0.000126      0.520395
      9.79590      8.88395     12.04422        -0.000755      0.000607     -0.707338
      9.79590      7.40329     15.30952        -0.004457     -0.003796      0.667473
      0.00000      8.88395     15.30952        -0.005271      0.002501     -0.695592
      0.00044      7.40352     18.50784         0.017053      0.001426      0.018292
      9.79622      8.88336     18.69929         0.020747      0.012985     -0.006579
      9.79243      7.40394     22.05697         0.133980      0.041852      0.013943
     13.06102      8.88604     21.69828         0.031786     -0.005110      0.033735
      9.79590     10.36461      8.77892        -0.000385      0.000066     -3.487014
      0.00000      0.00000      8.77892        -0.000410      0.000095      2.770874
      0.00000     10.36461     12.04422        -0.001768     -0.000070      0.520529
      9.79590      0.00000     12.04422        -0.001248      0.000005     -0.707577
      9.79590     10.36461     15.30952        -0.001291      0.002191      0.665963
      0.00000      0.00000     15.30952        -0.003292     -0.000035     -0.693285
     13.05995     10.36482     18.50928         0.014062      0.001773      0.017213
      9.79524     11.84527     18.69934         0.012673      0.000013      0.007356
      9.79409     10.36534     22.05737         0.024590      0.024649      0.028165
      0.00320      0.00000     21.69837         0.021216     -0.000006      0.029215
      9.79590      1.48066      8.77892        -0.000345     -0.000029     -3.487153
      0.00000      2.96132      8.77892        -0.000492     -0.000035      2.771035
      0.00000      1.48066     12.04422        -0.001753      0.000026      0.520503
      9.79590      2.96132     12.04422        -0.000754     -0.000605     -0.707324
      9.79590      1.48066     15.30952        -0.001301     -0.002189      0.665938
      0.00000      2.96132     15.30952        -0.005267     -0.002468     -0.695616
     13.05995      1.48045     18.50928         0.014016     -0.001735      0.017216
      9.79622      2.96191     18.69929         0.020770     -0.013032     -0.006545
      9.79409      1.47993     22.05737         0.024580     -0.024636      0.028195
     13.06102      2.95922     21.69828         0.031798      0.005057      0.033708
      9.79590      4.44197      8.77892        -0.000256     -0.000111     -3.487101
      0.00000      5.92263      8.77892        -0.000405     -0.000056      2.770894
      0.00000      4.44197     12.04422        -0.001998     -0.000085      0.520415
      9.79590      5.92263     12.04422        -0.000305     -0.000008     -0.706879
      9.79590      4.44197     15.30952        -0.004468      0.003805      0.667441
      0.00000      5.92263     15.30952        -0.007100     -0.000015     -0.698007
      0.00044      4.44174     18.50784         0.017033     -0.001410      0.018351
      9.79747      5.92263     18.70108         0.029240     -0.000012     -0.013343
      9.79243      4.44133     22.05697         0.133933     -0.041860      0.013959
     13.05337      5.92263     21.69760         0.044280      0.000031      0.037367
      3.26530      7.40329      8.77892         0.000241      0.000300     -3.488078
      6.53060      8.88395      8.77892         0.000415      0.000284      2.771730
      6.53060      7.40329     12.04422         0.001971      0.006523      0.520946
      3.26530      8.88395     12.04422         0.000785      0.001055     -0.713459
      3.26530      7.40329     15.30952         0.005119      0.003854      0.640201
      6.53060      8.88395     15.30952         0.004171     -0.013361     -0.664705
      6.53098      7.39249     18.52826        -0.015685      0.083896     -0.072884
      3.26454      8.88538     18.69428        -0.021569      0.009543      0.042869
      3.25513      7.40788     22.04062        -0.078878     -0.138077      0.228484
      6.53430      8.88581     21.68174        -0.049379      0.199871      0.022129
      3.26530     10.36461      8.77892         0.000335      0.000123     -3.487769
      6.53060      0.00000      8.77892         0.000291     -0.000053      2.772251
      6.53060     10.36461     12.04422         0.001740      0.002902      0.525286
      3.26530      0.00000     12.04422         0.001254     -0.000009     -0.712142
      3.26530     10.36461     15.30952         0.001999      0.020423      0.656091
      6.53060      0.00000     15.30952         0.002314      0.000032     -0.742457
      6.53226     10.35983     18.49485        -0.014009      0.031414     -0.002784
      3.26610     11.84527     18.69952        -0.011942     -0.000000      0.044499
      3.27027     10.36539     22.05813        -0.020815     -0.037953      0.082579
      6.53112      0.00000     21.68408        -0.026093      0.000014      0.033468
[...]
      6.53060      5.92263     13.32313        -0.000714     -0.000018     -0.110006
      4.54422      4.44197     12.04422         0.419599      0.000675      0.050114
      8.51698      4.44197     12.04422        -0.421832      0.000384      0.049307
      3.26530      5.92263     14.03060        -0.001326      0.000006     -0.090388
      3.26530      5.92263     16.58843         0.004643      0.000009     -0.003364
      7.80952      4.44197     15.30952        -0.461654      0.016587      0.086477
      5.25168      4.44197     15.30952         0.449890      0.017225      0.086946
      6.52998      5.92263     17.32139         0.001900      0.000003      0.046743
      6.53314      5.92263     19.90298         0.009185     -0.000010      0.288077
      4.56969      4.44248     18.60006         0.046614      0.003538      0.001414
      8.49157      4.44293     18.59717        -0.026578      0.005661      0.006622
      3.23873      5.92263     20.56411         0.020885     -0.000005     -0.080956
      3.31638      5.92263     23.13036        -0.082749      0.000028     -0.223230
      7.75759      4.43109     22.00008        -0.087309      0.179760      0.163393
      5.29016      4.41826     21.96375         0.219491      0.235679      0.182304
    total drift:                                0.002018      0.000205     -0.050337

  FREE ENERGIE OF THE ION-ELECTRON SYSTEM (eV)
  free  energy   TOTEN  =     -1740.10393174 eV

  energy  without entropy=    -1740.10393174  energy(sigma->0) =    -1740.10393174