 vasp.6.3.0 20Jan22 (build Apr  1 2022 16:44:48) complex
 executed on        HPECrayEX_GCC date 2022.11.13  01:39:04

 INCAR:
   SYSTEM = MgO-rocksalt
   ISMEAR = 0
   SIGMA = 0.05
   EDIFF = 1E-6
   ALGO = ALL
   ISTART = 0
   IBRION = -1
   NSW = 0
   ISYM = 0
   DIPOL = 0.5 0.5 0.5
   IDIPOL = 3
   LDIPOL = .TRUE.
   LHFCALC = .TRUE.
   GGA = B5
   AEXX = 0.2
   AGGAX = 0.72
   AGGAC = 0.81
   ALDAC = 0.19
   IVDW = 1
   VDW_S6 = 1.05
   VDW_C6 = 0.63 0.70
   VDW_R0 = 1.243 1.342
   ENCUT = 600
   PREC = Accurate
   LASPH = .TRUE.
   LREAL = .FALSE.
   ISPIN = 1
   NELM = 200
   NELMIN = 8
   NCORE = 8
   KPAR = 1
   LWAVE = .FALSE.
   LCHARG = .FALSE.

 POTCAR:    PAW_PBE Mg_pv 13Apr2007
 POTCAR:    PAW_PBE O 08Apr2002
 POTCAR:    PAW_PBE Mg_pv 13Apr2007
   VRHFIN =Mg: p6s2

   TITEL  = PAW_PBE Mg_pv 13Apr2007
   POMASS =   24.305; ZVAL   =    8.000    mass and valenz
   ENMAX  =  403.929; ENMIN  =  302.947 eV

   TITEL  = PAW_PBE O 08Apr2002
   POMASS =   16.000; ZVAL   =    6.000    mass and valenz
   ENMAX  =  400.000; ENMIN  =  300.000 eV

  PAW_PBE Mg_pv 13Apr2007               :
  PAW_PBE O 08Apr2002                   :

 POSCAR: Mg  O
  positions in direct lattice
 exchange correlation table for  LEXCH =       12
   RHO(1)=    0.500       N(1)  =     2000
   RHO(2)=  100.500       N(2)  =     4000

 ion  position               nearest neighbor table
   1  0.000  0.750  0.350-  33 2.14  35 2.14  36 2.14  43 2.14  52 2.14
   2  0.250  0.000  0.350-  34 2.14  35 2.14  36 2.14  44 2.14  51 2.14
   3  0.000  0.000  0.450-  35 2.14  34 2.14  33 2.14  41 2.14  50 2.14  39 2.14
   4  0.250  0.750  0.450-  36 2.14  34 2.14  33 2.14  42 2.14  49 2.14  40 2.14
   5  1.000  0.750  0.550-  56 2.14  47 2.14  39 2.14  40 2.14  33 2.15  37 2.17
   6  0.250  0.000  0.550-  55 2.14  40 2.14  48 2.14  39 2.14  34 2.15  38 2.17
   7  0.000  0.000  0.649-  39 2.12  38 2.13  54 2.14  45 2.14  37 2.14
   8  0.250  0.750  0.649-  40 2.12  37 2.13  38 2.14  53 2.14  46 2.14
   9  0.000  0.250  0.350-  41 2.14  35 2.14  43 2.14  44 2.14  60 2.14
  10  0.250  0.500  0.350-  42 2.14  36 2.14  43 2.14  44 2.14  59 2.14
  11  0.000  0.500  0.450-  43 2.14  41 2.14  42 2.14  33 2.14  58 2.14  47 2.14
  12  0.250  0.250  0.450-  44 2.14  41 2.14  42 2.14  34 2.14  57 2.14  48 2.14
  13  1.000  0.250  0.550-  64 2.14  47 2.14  39 2.14  48 2.14  41 2.15  45 2.17
  14  0.250  0.500  0.550-  63 2.14  48 2.14  40 2.14  47 2.14  42 2.15  46 2.17
  15  0.000  0.500  0.649-  47 2.12  46 2.13  37 2.14  45 2.14  62 2.14
  16  0.250  0.250  0.649-  48 2.12  45 2.13  61 2.14  46 2.14  38 2.14
  17  0.500  0.750  0.350-  49 2.14  36 2.14  51 2.14  52 2.14  59 2.14
  18  0.750  0.000  0.350-  50 2.14  35 2.14  51 2.14  52 2.14  60 2.14
  19  0.500  0.000  0.450-  51 2.14  49 2.14  50 2.14  34 2.14  57 2.14  55 2.14
  20  0.750  0.750  0.450-  52 2.14  49 2.14  50 2.14  33 2.14  58 2.14  56 2.14
  21  0.500  0.750  0.551-  56 2.14  55 2.14  63 2.14  40 2.14  49 2.15  53 2.16
  22  0.750  0.000  0.551-  55 2.14  64 2.14  56 2.14  39 2.14  50 2.15  54 2.16
  23  0.500  0.000  0.650-  55 2.13  53 2.14  61 2.14  38 2.14  54 2.14
  24  0.750  0.750  0.650-  56 2.13  62 2.14  54 2.14  37 2.14  53 2.14
  25  0.500  0.250  0.350-  57 2.14  51 2.14  44 2.14  59 2.14  60 2.14
  26  0.750  0.500  0.350-  58 2.14  52 2.14  43 2.14  59 2.14  60 2.14
  27  0.500  0.500  0.450-  59 2.14  49 2.14  57 2.14  58 2.14  42 2.14  63 2.14
  28  0.750  0.250  0.450-  60 2.14  50 2.14  57 2.14  58 2.14  41 2.14  64 2.14
  29  0.500  0.250  0.551-  64 2.14  55 2.14  63 2.14  48 2.14  57 2.15  61 2.16
  30  0.750  0.500  0.551-  63 2.14  56 2.14  64 2.14  47 2.14  58 2.15  62 2.16
  31  0.500  0.500  0.650-  63 2.13  53 2.14  61 2.14  46 2.14  62 2.14
  32  0.750  0.250  0.650-  64 2.13  62 2.14  54 2.14  45 2.14  61 2.14
  33  0.000  0.750  0.450-   1 2.14   3 2.14   4 2.14  11 2.14  20 2.14   5 2.15
  34  0.250  0.000  0.450-   2 2.14   3 2.14   4 2.14  12 2.14  19 2.14   6 2.15
  35  0.000  0.000  0.350-   3 2.14   2 2.14   1 2.14   9 2.14  18 2.14
  36  0.250  0.750  0.350-   4 2.14   2 2.14   1 2.14  10 2.14  17 2.14
  37  0.000  0.750  0.652-   8 2.13  15 2.14   7 2.14  24 2.14   5 2.17
  38  0.250  0.000  0.652-   7 2.13   8 2.14  16 2.14  23 2.14   6 2.17
  39  1.000  0.000  0.550-   7 2.12  13 2.14   5 2.14  22 2.14   6 2.14   3 2.14
  40  0.250  0.750  0.550-   8 2.12   6 2.14  14 2.14   5 2.14  21 2.14   4 2.14
  41  0.000  0.250  0.450-   9 2.14   3 2.14  11 2.14  12 2.14  28 2.14  13 2.15
  42  0.250  0.500  0.450-  10 2.14   4 2.14  11 2.14  12 2.14  27 2.14  14 2.15
  43  0.000  0.500  0.350-  11 2.14   9 2.14  10 2.14   1 2.14  26 2.14
  44  0.250  0.250  0.350-  12 2.14   9 2.14  10 2.14   2 2.14  25 2.14
  45  0.000  0.250  0.652-  16 2.13   7 2.14  15 2.14  32 2.14  13 2.17
  46  0.250  0.500  0.652-  15 2.13  16 2.14   8 2.14  31 2.14  14 2.17
  47  1.000  0.500  0.550-  15 2.12  13 2.14   5 2.14  14 2.14  30 2.14  11 2.14
  48  0.250  0.250  0.550-  16 2.12   6 2.14  14 2.14  13 2.14  29 2.14  12 2.14
  49  0.500  0.750  0.450-  17 2.14   4 2.14  19 2.14  20 2.14  27 2.14  21 2.15
  50  0.750  0.000  0.450-  18 2.14   3 2.14  19 2.14  20 2.14  28 2.14  22 2.15
  51  0.500  0.000  0.350-  19 2.14  17 2.14  18 2.14   2 2.14  25 2.14
  52  0.750  0.750  0.350-  20 2.14  17 2.14  18 2.14   1 2.14  26 2.14
  53  0.500  0.750  0.652-  23 2.14   8 2.14  31 2.14  24 2.14  21 2.16
  54  0.750  0.000  0.652-   7 2.14  24 2.14  32 2.14  23 2.14  22 2.16
  55  0.500  0.000  0.550-  23 2.13   6 2.14  22 2.14  21 2.14  29 2.14  19 2.14
  56  0.750  0.750  0.550-  24 2.13   5 2.14  21 2.14  30 2.14  22 2.14  20 2.14
  57  0.500  0.250  0.450-  25 2.14  19 2.14  12 2.14  27 2.14  28 2.14  29 2.15
  58  0.750  0.500  0.450-  26 2.14  20 2.14  11 2.14  27 2.14  28 2.14  30 2.15
  59  0.500  0.500  0.350-  27 2.14  17 2.14  25 2.14  26 2.14  10 2.14
  60  0.750  0.250  0.350-  28 2.14  18 2.14  25 2.14  26 2.14   9 2.14
  61  0.500  0.250  0.652-  16 2.14  23 2.14  31 2.14  32 2.14  29 2.16
  62  0.750  0.500  0.652-  32 2.14  24 2.14  15 2.14  31 2.14  30 2.16
  63  0.500  0.500  0.550-  31 2.13  14 2.14  30 2.14  21 2.14  29 2.14  27 2.14
  64  0.750  0.250  0.550-  32 2.13  13 2.14  29 2.14  22 2.14  30 2.14  28 2.14

IMPORTANT INFORMATION: All symmetrisations will be switched off!
NOSYMM: (Re-)initialisation of all symmetry stuff for point group C_1.

                                     Primitive cell

  volume of cell :    1563.6717

  direct lattice vectors                    reciprocal lattice vectors
     8.546113626  0.000000000  0.000000000     0.117012252  0.000000000  0.000000000
     0.000000000  8.546113626  0.000000000     0.000000000  0.117012252  0.000000000
     0.000000000  0.000000000 21.409585219     0.000000000  0.000000000  0.046708051

  length of vectors
     8.546113626  8.546113626 21.409585219     0.117012252  0.117012252  0.046708051

  position of ions in fractional coordinates (direct lattice)
     0.000000000  0.750000000  0.350310383
     0.250000000  0.000000000  0.350310383
     0.000000000  0.000000000  0.450103461
     0.250000000  0.750000000  0.450103461
     0.999957845  0.750112429  0.550418299
     0.250041368  0.000142650  0.550407494
     0.000077236  0.000327530  0.649346663
     0.249831921  0.750295364  0.649332648
     0.000000000  0.250000000  0.350310383
     0.250000000  0.500000000  0.350310383
     0.000000000  0.500000000  0.450103461
     0.250000000  0.250000000  0.450103461
     0.999958040  0.250174880  0.550418847
     0.250074500  0.500144173  0.550411887
     0.000123523  0.500284282  0.649329324
     0.249873169  0.250295521  0.649332897
     0.500000000  0.750000000  0.350310383
     0.750000000  0.000000000  0.350310383
     0.500000000  0.000000000  0.450103461
     0.750000000  0.750000000  0.450103461
     0.500119448  0.750188735  0.550544161
     0.749921968  0.000191838  0.550547101
     0.499808910  0.000365844  0.649754402
     0.750142876  0.750383843  0.649792152
     0.500000000  0.250000000  0.350310383
     0.750000000  0.500000000  0.350310383
     0.500000000  0.500000000  0.450103461
     0.750000000  0.250000000  0.450103461
     0.500118682  0.250163429  0.550543530
     0.749883364  0.500191023  0.550542416
     0.499763848  0.500410116  0.649773803
     0.750101531  0.250420999  0.649792786
     0.000000000  0.750000000  0.450103461
     0.250000000  0.000000000  0.450103461
     0.000000000  0.000000000  0.350310383
     0.250000000  0.750000000  0.350310383
     0.000278687  0.750240793  0.651592155
     0.249627784  0.000265581  0.651554750
     0.999979812  0.000149411  0.550114881
     0.250012929  0.750151876  0.550108076
     0.000000000  0.250000000  0.450103461
     0.250000000  0.500000000  0.450103461
     0.000000000  0.500000000  0.350310383
     0.250000000  0.250000000  0.350310383
     0.000279634  0.250304096  0.651593181
     0.249683466  0.500267254  0.651558196
     0.999985290  0.500139799  0.550114255
     0.250020688  0.250137635  0.550108554
     0.500000000  0.750000000  0.450103461
     0.750000000  0.000000000  0.450103461
     0.500000000  0.000000000  0.350310383
     0.750000000  0.750000000  0.350310383
     0.499807649  0.750411890  0.651590185
     0.750146604  0.000394274  0.651576885
     0.499975254  0.000173696  0.550219147
     0.750048669  0.750186573  0.550221723
     0.500000000  0.250000000  0.450103461
     0.750000000  0.500000000  0.450103461
     0.500000000  0.500000000  0.350310383
     0.750000000  0.250000000  0.350310383
     0.499806576  0.250340854  0.651589790
     0.750082673  0.500392841  0.651588694
     0.499972465  0.500181469  0.550212711
     0.750040496  0.250190756  0.550222315

  ion indices of the primitive-cell ions
   primitive index   ion index
                 1           1
                 2           2
                 3           3
                 4           4
                 5           5
                 6           6
                 7           7
                 8           8
                 9           9
                10          10
                11          11
                12          12
                13          13
                14          14
                15          15
                16          16
                17          17
                18          18
                19          19
                20          20
                21          21
                22          22
                23          23
                24          24
                25          25
                26          26
                27          27
                28          28
                29          29
                30          30
                31          31
                32          32
                33          33
                34          34
                35          35
                36          36
                37          37
                38          38
                39          39
                40          40
                41          41
                42          42
                43          43
                44          44
[...]
   0.25000000  0.50000000  0.45010346
   0.00000000  0.50000000  0.35031038
   0.25000000  0.25000000  0.35031038
   0.00027963  0.25030410  0.65159318
   0.24968347  0.50026725  0.65155820
   0.99998529  0.50013980  0.55011426
   0.25002069  0.25013763  0.55010855
   0.50000000  0.75000000  0.45010346
   0.75000000  0.00000000  0.45010346
   0.50000000  0.00000000  0.35031038
   0.75000000  0.75000000  0.35031038
   0.49980765  0.75041189  0.65159018
   0.75014660  0.00039427  0.65157688
   0.49997525  0.00017370  0.55021915
   0.75004867  0.75018657  0.55022172
   0.50000000  0.25000000  0.45010346
   0.75000000  0.50000000  0.45010346
   0.50000000  0.50000000  0.35031038
   0.75000000  0.25000000  0.35031038
   0.49980658  0.25034085  0.65158979
   0.75008267  0.50039284  0.65158869
   0.49997247  0.50018147  0.55021271
   0.75004050  0.25019076  0.55022232

 position of ions in cartesian coordinates  (Angst):
   0.00000000  6.40958522  7.50000000
   2.13652841  0.00000000  7.50000000
   0.00000000  0.00000000  9.63652841
   2.13652841  6.40958522  9.63652841
   8.54575337  6.41054605 11.78422748
   2.13688194  0.00121910 11.78399616
   0.00066007  0.00279910 13.90224272
   2.13509199  6.41210943 13.90194266
   0.00000000  2.13652841  7.50000000
   2.13652841  4.27305681  7.50000000
   0.00000000  4.27305681  9.63652841
   2.13652841  2.13652841  9.63652841
   8.54575503  2.13802295 11.78423922
   2.13716509  4.27428893 11.78409020
   0.00105564  4.27548632 13.90187149
   2.13544449  2.13905397 13.90194800
   4.27305681  6.40958522  7.50000000
   6.40958522  0.00000000  7.50000000
   4.27305681  0.00000000  9.63652841
   6.40958522  6.40958522  9.63652841
   4.27407763  6.41119817 11.78692214
   6.40891835  0.00163947 11.78698507
   4.27142374  0.00312655 13.91097224
   6.41080625  6.41286559 13.91178045
   4.27305681  2.13652841  7.50000000
   6.40958522  4.27305681  7.50000000
   4.27305681  4.27305681  9.63652841
   6.40958522  2.13652841  9.63652841
   4.27407108  2.13792509 11.78690863
   6.40858843  4.27468931 11.78688477
   4.27103863  4.27656171 13.91138761
   6.41045291  2.14012631 13.91179402
   0.00000000  6.40958522  9.63652841
   2.13652841  0.00000000  9.63652841
   0.00000000  0.00000000  7.50000000
   2.13652841  6.40958522  7.50000000
   0.00238169  6.41164306 13.95031777
   2.13334741  0.00226968 13.94951694
   8.54594110  0.00127689 11.77773143
   2.13663890  6.41088317 11.77758573
   0.00000000  2.13652841  9.63652841
   2.13652841  4.27305681  9.63652841
   0.00000000  4.27305681  7.50000000
   2.13652841  2.13652841  7.50000000
   0.00238979  2.13912725 13.95033974
   2.13382327  4.27534079 13.94959072
   8.54598791  4.27425155 11.77771803
   2.13670521  2.13770465 11.77759596
   4.27305681  6.40958522  9.63652841
   6.40958522  0.00000000  9.63652841
   4.27305681  0.00000000  7.50000000
   6.40958522  6.40958522  7.50000000
   4.27141296  6.41310528 13.95027559
   6.41083811  0.00336951 13.94999084
   4.27284533  0.00148443 11.77996372
   6.41000115  6.41117969 11.78001886
   4.27305681  2.13652841  9.63652841
   6.40958522  4.27305681  9.63652841
   4.27305681  4.27305681  7.50000000
   6.40958522  2.13652841  7.50000000
   4.27140379  2.13944138 13.95026713
   6.41029175  4.27641407 13.95024368
   4.27282150  4.27460767 11.77982592
   6.40993131  2.13815863 11.78003155

--------------------------------------- Iteration      FINAL  ---------------------------------------

--------------------OUTCAR has been truncated-------------------------

[...]

--------------------OUTCAR has been truncated-------------------------

  DFT-D2 method for vdW energy calculation

  Parameters of vdW forcefield:
         C6(Jnm^6/mol)     R0(A)
   Mg       0.630          1.243
   O        0.700          1.342

  vdW correction parametrized for the method ;<ÿ      

  IVDW =   1
  VDW_RADIUS =    50.000 A
  VDW_S6 =     1.050
  VDW_SR =     1.000
  VDW_D =    20.000
  LVDW_EWALD = F

  Number of pair interactions contributing to vdW energy:  705305
  Edisp (eV):   -4.82952

 VOLUME and BASIS-vectors are now :
  energy-cutoff  :      600.00
  volume of cell :     1563.67
      direct lattice vectors                 reciprocal lattice vectors
     8.546113626  0.000000000  0.000000000     0.117012252  0.000000000  0.000000000
     0.000000000  8.546113626  0.000000000     0.000000000  0.117012252  0.000000000
     0.000000000  0.000000000 21.409585219     0.000000000  0.000000000  0.046708051

  length of vectors
     8.546113626  8.546113626 21.409585219     0.117012252  0.117012252  0.046708051

 FORCES acting on ions:
    Electron-Ion                     Ewald-Force                    Non-Local-Force
   0.652E-01 -.189E-02 0.201E+04   -.667E-01 0.217E-02 -.200E+04   0.979E-03 -.181E-03 -.633E+01
   -.593E-01 0.288E-03 0.201E+04   0.607E-01 0.490E-05 -.200E+04   -.908E-03 -.195E-03 -.633E+01
   0.302E+00 0.160E-01 0.665E+03   -.316E+00 -.993E-02 -.665E+03   0.872E-02 -.371E-02 0.417E+00
   -.281E+00 0.127E-01 0.665E+03   0.293E+00 -.659E-02 -.665E+03   -.752E-02 -.371E-02 0.417E+00
   0.574E+00 -.106E+00 -.669E+03   -.612E+00 0.109E+00 0.669E+03   0.289E-01 0.122E-02 -.228E+00
   -.525E+00 -.111E-01 -.668E+03   0.550E+00 0.121E-01 0.669E+03   -.203E-01 -.444E-03 -.236E+00
   0.873E+00 0.111E+00 -.199E+04   -.784E+00 -.100E+00 0.199E+04   -.752E-01 -.117E-01 0.544E+01
   -.902E+00 0.186E-01 -.199E+04   0.812E+00 -.572E-02 0.199E+04   0.781E-01 -.108E-01 0.544E+01
   0.652E-01 0.257E-02 0.201E+04   -.667E-01 -.227E-02 -.200E+04   0.977E-03 -.208E-03 -.633E+01
   -.598E-01 0.501E-03 0.201E+04   0.612E-01 -.215E-03 -.200E+04   -.906E-03 -.197E-03 -.633E+01
   0.298E+00 0.146E-01 0.665E+03   -.311E+00 -.899E-02 -.665E+03   0.803E-02 -.336E-02 0.420E+00
   -.278E+00 0.163E-01 0.665E+03   0.290E+00 -.106E-01 -.665E+03   -.758E-02 -.339E-02 0.417E+00
   0.574E+00 0.837E-01 -.669E+03   -.612E+00 -.823E-01 0.669E+03   0.288E-01 -.336E-02 -.228E+00
   -.508E+00 -.645E-02 -.668E+03   0.545E+00 0.741E-02 0.669E+03   -.305E-01 -.517E-03 -.233E+00
   0.101E+01 0.285E-01 -.199E+04   -.920E+00 -.264E-01 0.199E+04   -.817E-01 -.251E-02 0.543E+01
   -.832E+00 0.915E-01 -.199E+04   0.751E+00 -.917E-01 0.199E+04   0.687E-01 -.238E-02 0.544E+01
   -.644E-01 -.103E-02 0.201E+04   0.661E-01 0.147E-02 -.200E+04   -.110E-02 -.296E-03 -.634E+01
   0.586E-01 0.624E-03 0.201E+04   -.601E-01 -.209E-03 -.200E+04   0.101E-02 -.277E-03 -.634E+01
   -.298E+00 0.161E-01 0.664E+03   0.309E+00 -.870E-02 -.664E+03   -.699E-02 -.441E-02 0.441E+00
   0.273E+00 0.414E-02 0.664E+03   -.281E+00 0.512E-02 -.664E+03   0.545E-02 -.548E-02 0.441E+00
   -.494E+00 0.283E-01 -.670E+03   0.522E+00 -.248E-01 0.670E+03   -.245E-01 -.319E-02 -.275E+00
   0.481E+00 0.222E-02 -.670E+03   -.500E+00 -.282E-02 0.670E+03   0.161E-01 0.450E-04 -.282E+00
   -.434E+00 -.472E-01 -.200E+04   0.395E+00 0.323E-01 0.199E+04   0.343E-01 0.954E-02 0.551E+01
   0.469E+00 -.486E-01 -.200E+04   -.421E+00 0.307E-01 0.199E+04   -.409E-01 0.113E-01 0.551E+01
   -.643E-01 0.205E-02 0.201E+04   0.660E-01 -.175E-02 -.200E+04   -.110E-02 -.203E-03 -.634E+01
   0.590E-01 0.772E-03 0.201E+04   -.605E-01 -.360E-03 -.200E+04   0.100E-02 -.279E-03 -.634E+01
   -.291E+00 0.182E-01 0.664E+03   0.301E+00 -.103E-01 -.664E+03   -.629E-02 -.470E-02 0.439E+00
   0.270E+00 0.263E-01 0.664E+03   -.279E+00 -.187E-01 -.664E+03   0.553E-02 -.441E-02 0.441E+00
   -.495E+00 -.487E-01 -.670E+03   0.522E+00 0.465E-01 0.670E+03   -.244E-01 0.278E-02 -.275E+00
   0.438E+00 0.266E-03 -.670E+03   -.471E+00 -.125E-02 0.670E+03   0.280E-01 0.361E-03 -.277E+00
   -.544E+00 0.372E-01 -.200E+04   0.503E+00 -.440E-01 0.199E+04   0.383E-01 0.409E-03 0.551E+01
   0.399E+00 0.716E-02 -.200E+04   -.361E+00 -.162E-01 0.199E+04   -.316E-01 0.227E-02 0.551E+01
   0.209E+00 -.336E-02 0.498E+03   -.210E+00 -.212E-02 -.498E+03   0.369E-03 0.656E-02 -.866E-01
   -.189E+00 0.105E-01 0.498E+03   0.189E+00 -.177E-01 -.498E+03   0.457E-03 0.844E-02 -.846E-01
   0.495E-01 -.230E-03 0.151E+04   -.512E-01 0.863E-04 -.151E+04   0.214E-02 0.217E-03 0.315E+01
   -.451E-01 -.114E-02 0.151E+04   0.466E-01 0.999E-03 -.151E+04   -.185E-02 0.178E-03 0.315E+01
   0.768E+00 -.132E+00 -.151E+04   -.765E+00 0.143E+00 0.152E+04   -.247E-01 -.838E-02 -.459E+01
   -.773E+00 -.526E-01 -.151E+04   0.769E+00 0.555E-01 0.152E+04   0.288E-01 -.153E-02 -.458E+01
   0.400E+00 0.272E-01 -.495E+03   -.407E+00 -.309E-01 0.495E+03   0.742E-02 0.377E-02 0.338E+00
   -.423E+00 0.745E-02 -.495E+03   0.437E+00 -.690E-02 0.495E+03   -.147E-01 -.133E-02 0.341E+00
   0.209E+00 0.247E-01 0.498E+03   -.209E+00 -.334E-01 -.498E+03   0.345E-03 0.103E-01 -.868E-01
   -.186E+00 0.118E-01 0.498E+03   0.186E+00 -.189E-01 -.498E+03   0.322E-03 0.848E-02 -.846E-01
   0.488E-01 -.119E-03 0.151E+04   -.505E-01 -.980E-04 -.151E+04   0.206E-02 0.261E-03 0.315E+01
   -.451E-01 0.697E-03 0.151E+04   0.465E-01 -.926E-03 -.151E+04   -.182E-02 0.310E-03 0.315E+01
   0.768E+00 0.333E-02 -.151E+04   -.766E+00 -.508E-02 0.152E+04   -.245E-01 0.206E-02 -.459E+01
   -.704E+00 -.491E-01 -.151E+04   0.690E+00 0.517E-01 0.152E+04   0.364E-01 -.119E-02 -.458E+01
   0.435E+00 0.549E-02 -.495E+03   -.445E+00 -.729E-02 0.495E+03   0.102E-01 0.235E-02 0.344E+00
   -.404E+00 0.157E-01 -.495E+03   0.417E+00 -.193E-01 0.495E+03   -.133E-01 0.461E-02 0.341E+00
   -.196E+00 0.104E-01 0.497E+03   0.191E+00 -.201E-01 -.497E+03   0.525E-02 0.114E-01 -.112E+00
   0.183E+00 0.160E-01 0.497E+03   -.179E+00 -.262E-01 -.497E+03   -.463E-02 0.120E-01 -.114E+00
   -.489E-01 -.334E-03 0.151E+04   0.508E-01 0.854E-04 -.151E+04   -.232E-02 0.337E-03 0.315E+01
   0.445E-01 -.206E-02 0.151E+04   -.461E-01 0.190E-02 -.151E+04   0.206E-02 0.221E-03 0.315E+01
   -.476E+00 0.823E-02 -.151E+04   0.482E+00 0.770E-02 0.152E+04   0.465E-02 -.207E-01 -.449E+01
   0.501E+00 -.298E-01 -.151E+04   -.514E+00 0.502E-01 0.152E+04   0.489E-03 -.238E-01 -.448E+01
   -.347E+00 -.135E-02 -.497E+03   0.347E+00 0.139E-02 0.497E+03   0.150E-03 0.156E-03 0.272E+00
   0.311E+00 -.176E-01 -.497E+03   -.306E+00 0.225E-01 0.497E+03   -.636E-02 -.530E-02 0.265E+00
   -.196E+00 0.161E-01 0.497E+03   0.191E+00 -.249E-01 -.497E+03   0.524E-02 0.104E-01 -.112E+00
   0.177E+00 0.165E-01 0.497E+03   -.173E+00 -.266E-01 -.497E+03   -.459E-02 0.119E-01 -.112E+00
   -.482E-01 -.263E-03 0.151E+04   0.500E-01 0.249E-04 -.151E+04   -.224E-02 0.310E-03 0.315E+01
   0.444E-01 0.118E-02 0.151E+04   -.461E-01 -.157E-02 -.151E+04   0.203E-02 0.508E-03 0.315E+01
   -.477E+00 -.841E-01 -.151E+04   0.483E+00 0.104E+00 0.152E+04   0.449E-02 -.208E-01 -.449E+01
   0.410E+00 -.330E-01 -.151E+04   -.412E+00 0.534E-01 0.152E+04   -.715E-02 -.237E-01 -.448E+01
   -.361E+00 0.189E-01 -.497E+03   0.363E+00 -.209E-01 0.497E+03   -.195E-02 0.191E-02 0.270E+00
   0.293E+00 0.276E-02 -.497E+03   -.287E+00 -.291E-02 0.497E+03   -.764E-02 0.245E-03 0.265E+00
   0.144E-01 0.577E-01 0.170E+02   0.479E-12 -.186E-13 -.682E-12   -.134E-01 -.517E-01 -.149E+02

 POSITION                                       TOTAL-FORCE (eV/Angst)
      0.00000      6.40959      7.50000        -0.000400      0.000056      0.626740
      2.13653      0.00000      7.50000         0.000366      0.000057      0.626634
      0.00000      0.00000      9.63653        -0.004158      0.001868      0.023571
      2.13653      6.40959      9.63653         0.003761      0.001893      0.022639
      8.54575      6.41055     11.78423        -0.006329      0.003649     -0.007412
      2.13688      0.00122     11.78400         0.003356      0.000494     -0.006099
      0.00066      0.00280     13.90224         0.006094     -0.002100     -0.206058
      2.13509      6.41211     13.90194        -0.004281      0.000988     -0.203790
      0.00000      2.13653      7.50000        -0.000398      0.000049      0.626737
      2.13653      4.27306      7.50000         0.000364      0.000048      0.626781
      0.00000      4.27306      9.63653        -0.003882      0.001747      0.022325
      2.13653      2.13653      9.63653         0.003759      0.001774      0.022684
      8.54576      2.13802     11.78424        -0.006306     -0.002112     -0.007538
      2.13717      4.27429     11.78409         0.003920      0.000344     -0.008389
      0.00106      4.27549     13.90187         0.002501     -0.000561     -0.201906
      2.13544      2.13905     13.90195        -0.005510     -0.002656     -0.203823
      4.27306      6.40959      7.50000         0.000451      0.000099      0.627955
      6.40959      0.00000      7.50000        -0.000407      0.000087      0.628082
      4.27306      0.00000      9.63653         0.003000      0.002392      0.027545
      6.40959      6.40959      9.63653        -0.002283      0.002990      0.027867
      4.27408      6.41120     11.78692         0.000983      0.000045     -0.016852
      6.40892      0.00164     11.78699        -0.001648     -0.000509     -0.016429
      4.27142      0.00313     13.91097        -0.002013     -0.004178     -0.265527
      6.41081      6.41287     13.91178         0.002494     -0.005170     -0.269902
      4.27306      2.13653      7.50000         0.000454      0.000050      0.627945
      6.40959      4.27306      7.50000        -0.000408      0.000081      0.627939
      4.27306      4.27306      9.63653         0.002685      0.002492      0.027274
      6.40959      2.13653      9.63653        -0.002291      0.002463      0.027892
      4.27407      2.13793     11.78691         0.001000      0.000763     -0.016615
      6.40859      4.27469     11.78688        -0.001830     -0.000538     -0.015373
      4.27104      4.27656     13.91139         0.001375     -0.005878     -0.268227
      6.41045      2.14013     13.91179         0.003675     -0.006068     -0.269946
      0.00000      6.40959      9.63653         0.000024      0.001973      0.041825
      2.13653      0.00000      9.63653         0.000231      0.002457      0.041507
      0.00000      0.00000      7.50000         0.000708      0.000085     -0.273889
      2.13653      6.40959      7.50000        -0.000602      0.000045     -0.273831
      0.00238      6.41164     13.95032        -0.026801      0.001512     -0.205013
      2.13335      0.00227     13.94952         0.029688      0.001280     -0.201688
      8.54594      0.00128     11.77773         0.001842      0.000540      0.013711
      2.13664      6.41088     11.77759        -0.002195     -0.001026      0.014621
      0.00000      2.13653      9.63653         0.000015      0.002913      0.041801
      2.13653      4.27306      9.63653         0.000047      0.002461      0.041880
      0.00000      4.27306      7.50000         0.000689      0.000061     -0.273862
      2.13653      2.13653      7.50000        -0.000616      0.000106     -0.273854
      0.00239      2.13913     13.95034        -0.026793      0.000577     -0.205064
      2.13382      4.27534     13.94959         0.028417      0.001276     -0.202411
      8.54599      4.27425     11.77772         0.001998      0.000844      0.014006
      2.13671      2.13770     11.77760        -0.002395      0.001667      0.014530
      4.27306      6.40959      9.63653         0.001577      0.003331      0.045218
      6.40959      0.00000      9.63653        -0.001504      0.003506      0.044949
      4.27306      0.00000      7.50000        -0.000768      0.000118     -0.274636
      6.40959      6.40959      7.50000         0.000684      0.000076     -0.274664
      4.27141      6.41311     13.95028         0.012540     -0.007797     -0.172874
      6.41084      0.00337     13.94999        -0.012613     -0.006725     -0.170198
      4.27285      0.00148     11.77996         0.000377      0.000187      0.012722
      6.41000      6.41118     11.78002        -0.002401     -0.001185      0.013730
      4.27306      2.13653      9.63653         0.001576      0.003065      0.045216
      6.40959      4.27306      9.63653        -0.001325      0.003484      0.045134
      4.27306      4.27306      7.50000        -0.000756      0.000096     -0.274600
      6.40959      2.13653      7.50000         0.000693      0.000162     -0.274693
      4.27140      2.13944     13.95027         0.012577     -0.003370     -0.172788
      6.41029      4.27641     13.95024        -0.010676     -0.006591     -0.172147
      4.27282      4.27461     11.77983        -0.000169      0.000107      0.015042
      6.40993      2.13816     11.78003        -0.002166      0.000109      0.013600
    total drift:                               -0.000035      0.001121     -0.004586

  FREE ENERGIE OF THE ION-ELECTRON SYSTEM (eV)
  free  energy   TOTEN  =      -437.15416806 eV

  energy  without entropy=     -437.15416806  energy(sigma->0) =     -437.15416806