 vasp.6.4.2 20Jul23 (build Feb 22 2024 13:53:45) complex
 executed on              LinuxNV date 2024.08.27  22:38:43
 OpenACC runtime initialized ...    4 GPUs detected

 INCAR:
   SYSTEM = Oxide-Surface
   ISMEAR = 0
   SIGMA = 0.05
   EDIFF = 1E-5
   ALGO = Normal
   IBRION = -1
   NSW = 0
   ISYM = 0
   DIPOL = 0.5 0.5 0.5
   IDIPOL = 3
   LDIPOL = .TRUE.
   ISTART = 0
   LHFCALC = .FALSE.
   GGA = PE
   IVDW = 21
   VDW_SR = 0.96
   HFRCUT = -1
   ENCUT = 520
   PREC = Normal
   PRECFOCK = Normal
   LASPH = .TRUE.
   LREAL = Auto
   ISPIN = 1
   NELM = 200
   NELMIN = 8
   NCORE = 1
   KPAR = 1
   LWAVE = .TRUE.
   LCHARG = .FALSE.

 POTCAR:    PAW_PBE Mg_pv 13Apr2007
 POTCAR:    PAW_PBE O 08Apr2002
 POTCAR:    PAW_PBE Mg_pv 13Apr2007
   VRHFIN =Mg: p6s2

   TITEL  = PAW_PBE Mg_pv 13Apr2007
   POMASS =   24.305; ZVAL   =    8.000    mass and valenz
   ENMAX  =  403.929; ENMIN  =  302.947 eV

   TITEL  = PAW_PBE O 08Apr2002
   POMASS =   16.000; ZVAL   =    6.000    mass and valenz
   ENMAX  =  400.000; ENMIN  =  300.000 eV

 Optimization of the real space projectors (new method)

 maximal supplied QI-value         = 18.90
 optimisation between [QCUT,QGAM] = [ 11.53, 23.24] = [ 37.21,151.29] Ry
 Optimized for a Real-space Cutoff    1.21 Angstroem

   l    n(q)    QCUT    max X(q) W(low)/X(q) W(high)/X(q)  e(spline)
   1      8    11.527     2.974    0.16E-03    0.13E-03    0.98E-07
   1      8    11.527     4.279    0.42E-03    0.30E-03    0.22E-06
   0      8    11.527    16.381    0.13E-03    0.20E-03    0.72E-07
   0      8    11.527     5.611    0.88E-04    0.13E-03    0.50E-07
   2      7    11.527     4.652    0.25E-03    0.73E-04    0.51E-07
 Optimization of the real space projectors (new method)

 maximal supplied QI-value         = 24.76
 optimisation between [QCUT,QGAM] = [ 11.64, 23.27] = [ 37.91,151.63] Ry
 Optimized for a Real-space Cutoff    1.04 Angstroem

   l    n(q)    QCUT    max X(q) W(low)/X(q) W(high)/X(q)  e(spline)
   0      7    11.635    20.381    0.14E-03    0.49E-03    0.18E-06
   0      7    11.635    15.268    0.16E-03    0.52E-03    0.19E-06
   1      7    11.635     5.964    0.30E-03    0.44E-03    0.22E-06
   1      7    11.635     5.382    0.27E-03    0.34E-03    0.19E-06
  PAW_PBE Mg_pv 13Apr2007               :
  PAW_PBE O 08Apr2002                   :

 POSCAR: Mg  O
  positions in direct lattice
 exchange correlation table for  LEXCH =        8
   RHO(1)=    0.500       N(1)  =     2000
   RHO(2)=  100.500       N(2)  =     4000

 ion  position               nearest neighbor table
   1  0.000  0.750  0.184-  33 2.11  35 2.11  36 2.11  43 2.11  52 2.11
   2  0.250  0.000  0.184-  34 2.11  35 2.11  36 2.11  44 2.11  51 2.11
   3  0.000  0.000  0.308-  35 2.11  34 2.11  33 2.11  41 2.11  50 2.11  39 2.12
   4  0.250  0.750  0.308-  36 2.11  34 2.11  33 2.11  42 2.11  49 2.11  40 2.12
   5  1.000  0.750  0.433-  47 2.11  56 2.11  39 2.11  40 2.11  33 2.12  37 2.15
   6  0.250  0.000  0.433-  48 2.11  55 2.11  40 2.11  39 2.11  34 2.12  38 2.15
   7  1.000  0.000  0.557-  45 2.11  54 2.11  39 2.11  38 2.11  37 2.11
   8  0.250  0.750  0.556-  40 2.10  37 2.11  38 2.11  46 2.11  53 2.11
   9  0.000  0.250  0.184-  41 2.11  35 2.11  43 2.11  44 2.11  60 2.11
  10  0.250  0.500  0.184-  42 2.11  36 2.11  43 2.11  44 2.11  59 2.11
  11  0.000  0.500  0.308-  43 2.11  41 2.11  42 2.11  33 2.11  58 2.11  47 2.12
  12  0.250  0.250  0.308-  44 2.11  41 2.11  42 2.11  34 2.11  57 2.11  48 2.12
  13  1.000  0.250  0.433-  64 2.11  48 2.11  47 2.11  39 2.11  41 2.12  45 2.15
  14  0.250  0.500  0.433-  63 2.11  48 2.11  40 2.11  47 2.11  42 2.13  46 2.15
  15  1.000  0.500  0.556-  62 2.10  46 2.10  47 2.11  45 2.11  37 2.11
  16  0.250  0.250  0.556-  48 2.11  61 2.11  45 2.11  38 2.11  46 2.11
  17  0.500  0.750  0.184-  49 2.11  36 2.11  51 2.11  52 2.11  59 2.11
  18  0.750  0.000  0.184-  50 2.11  35 2.11  51 2.11  52 2.11  60 2.11
  19  0.500  0.000  0.308-  51 2.11  49 2.11  50 2.11  34 2.11  57 2.11  55 2.12
  20  0.750  0.750  0.308-  52 2.11  49 2.11  50 2.11  33 2.11  58 2.11  56 2.12
  21  0.500  0.750  0.433-  63 2.11  56 2.11  40 2.11  55 2.11  49 2.13  53 2.15
  22  0.750  0.000  0.433-  64 2.11  55 2.11  56 2.11  39 2.11  50 2.12  54 2.15
  23  0.500  0.000  0.556-  61 2.10  53 2.11  55 2.11  54 2.11  38 2.11
  24  0.750  0.750  0.556-  56 2.10  62 2.11  37 2.11  54 2.11  53 2.11
  25  0.500  0.250  0.184-  57 2.11  51 2.11  44 2.11  59 2.11  60 2.11
  26  0.750  0.500  0.184-  58 2.11  52 2.11  43 2.11  59 2.11  60 2.11
  27  0.500  0.500  0.308-  59 2.11  49 2.11  57 2.11  58 2.11  42 2.11  63 2.13
  28  0.750  0.250  0.308-  60 2.11  50 2.11  57 2.11  58 2.11  41 2.11  64 2.12
  29  0.500  0.250  0.433-  63 2.11  64 2.11  48 2.11  55 2.12  57 2.13  61 2.14
  30  0.750  0.500  0.433-  63 2.11  64 2.11  56 2.11  47 2.11  58 2.13  62 2.14
  31  0.500  0.499  0.559-  61 2.11  62 2.12  46 2.12  53 2.12  63 2.15
  32  0.750  0.250  0.556-  64 2.11  61 2.11  62 2.11  45 2.11  54 2.11
  33  0.000  0.750  0.308-   1 2.11   3 2.11   4 2.11  11 2.11  20 2.11   5 2.12
  34  0.250  0.000  0.308-   2 2.11   3 2.11   4 2.11  12 2.11  19 2.11   6 2.12
  35  0.000  0.000  0.184-   3 2.11   2 2.11   1 2.11   9 2.11  18 2.11
  36  0.250  0.750  0.184-   4 2.11   2 2.11   1 2.11  10 2.11  17 2.11
  37  0.000  0.750  0.559-   8 2.11  24 2.11   7 2.11  15 2.11   5 2.15
  38  0.250  1.000  0.559-   8 2.11   7 2.11  16 2.11  23 2.11   6 2.15
  39  0.000  1.000  0.432-   7 2.11   5 2.11   6 2.11  22 2.11  13 2.11   3 2.12
  40  0.250  0.750  0.432-   8 2.10  21 2.11   5 2.11   6 2.11  14 2.11   4 2.12
  41  0.000  0.250  0.308-   9 2.11   3 2.11  11 2.11  12 2.11  28 2.11  13 2.12
  42  0.250  0.500  0.308-  10 2.11   4 2.11  11 2.11  12 2.11  27 2.11  14 2.13
  43  0.000  0.500  0.184-  11 2.11   9 2.11  10 2.11   1 2.11  26 2.11
  44  0.250  0.250  0.184-  12 2.11   9 2.11  10 2.11   2 2.11  25 2.11
  45  0.000  0.250  0.559-   7 2.11  16 2.11  15 2.11  32 2.11  13 2.15
  46  0.249  0.500  0.559-  15 2.10   8 2.11  16 2.11  31 2.12  14 2.15
  47  0.000  0.500  0.432-  15 2.11   5 2.11  13 2.11  14 2.11  30 2.11  11 2.12
  48  0.250  0.250  0.432-  16 2.11   6 2.11  13 2.11  14 2.11  29 2.11  12 2.12
  49  0.500  0.750  0.308-  17 2.11   4 2.11  19 2.11  20 2.11  27 2.11  21 2.13
  50  0.750  0.000  0.308-  18 2.11   3 2.11  19 2.11  20 2.11  28 2.11  22 2.12
  51  0.500  0.000  0.184-  19 2.11  17 2.11  18 2.11   2 2.11  25 2.11
  52  0.750  0.750  0.184-  20 2.11  17 2.11  18 2.11   1 2.11  26 2.11
  53  0.500  0.751  0.560-  23 2.11   8 2.11  24 2.11  31 2.12  21 2.15
  54  0.750  1.000  0.559-   7 2.11  24 2.11  32 2.11  23 2.11  22 2.15
  55  0.500  1.000  0.432-  23 2.11   6 2.11  22 2.11  21 2.11  29 2.12  19 2.12
  56  0.750  0.750  0.432-  24 2.10   5 2.11  21 2.11  22 2.11  30 2.11  20 2.12
  57  0.500  0.250  0.308-  25 2.11  19 2.11  12 2.11  27 2.11  28 2.11  29 2.13
  58  0.750  0.500  0.308-  26 2.11  20 2.11  11 2.11  27 2.11  28 2.11  30 2.13
  59  0.500  0.500  0.184-  27 2.11  17 2.11  25 2.11  26 2.11  10 2.11
  60  0.750  0.250  0.184-  28 2.11  18 2.11  25 2.11  26 2.11   9 2.11
  61  0.500  0.249  0.559-  23 2.10  16 2.11  32 2.11  31 2.11  29 2.14
  62  0.751  0.500  0.559-  15 2.10  24 2.11  32 2.11  31 2.12  30 2.14
  63  0.500  0.500  0.433-  21 2.11  14 2.11  30 2.11  29 2.11  27 2.13  31 2.15
  64  0.750  0.250  0.432-  32 2.11  22 2.11  13 2.11  30 2.11  29 2.11  28 2.12

IMPORTANT INFORMATION: All symmetrisations will be switched off!
NOSYMM: (Re-)initialisation of all symmetry stuff for point group C_1.

                                     Primitive cell

  volume of cell :    1211.2538

  direct lattice vectors                    reciprocal lattice vectors
     8.440984654  0.000000000  0.000000000     0.118469591  0.000000000  0.000000000
     0.000000000  8.440984654  0.000000000     0.000000000  0.118469591  0.000000000
     0.000000000  0.000000000 17.000000000     0.000000000  0.000000000  0.058823529

  length of vectors
     8.440984654  8.440984654 17.000000000     0.118469591  0.118469591  0.058823529

  position of ions in fractional coordinates (direct lattice)
     0.000003678  0.750014635  0.183699523
     0.250003678  0.000014635  0.183699523
     0.000003678  0.000014635  0.307831651
     0.250003678  0.750014635  0.307831651
     0.999958025  0.749958546  0.432677010
     0.250062895  0.000098256  0.432697074
     0.999978292  0.000093413  0.556574763
     0.249803788  0.750119214  0.556064616
     0.000003678  0.250014635  0.183699523
     0.250003678  0.500014635  0.183699523
     0.000003678  0.500014635  0.307831651
     0.250003678  0.250014635  0.307831651
     0.999996322  0.250085902  0.432737287
     0.250470277  0.499951058  0.432993793
     0.999914270  0.499958742  0.556347633
     0.250074935  0.249987426  0.556432786
     0.500003678  0.750014635  0.183699523
     0.750003678  0.000014635  0.183699523
     0.500003678  0.000014635  0.307831651
     0.750003678  0.750014635  0.307831651
     0.500022849  0.749528416  0.433004734
     0.749934873  0.000060439  0.432720256
     0.500004313  0.000298773  0.556352798
     0.750109261  0.749994940  0.556245449
     0.500003678  0.250014635  0.183699523
     0.750003678  0.500014635  0.183699523
     0.500003678  0.500014635  0.307831651
     0.750003678  0.250014635  0.307831651
     0.500018596  0.250408803  0.433022603
     0.749557443  0.499957022  0.433006493
     0.500185527  0.499326999  0.559321507
     0.749946987  0.250008855  0.556456309
     0.000003678  0.750014635  0.307831651
     0.250003678  0.000014635  0.307831651
     0.000003678  0.000014635  0.183699523
     0.250003678  0.750014635  0.183699523
     0.000015879  0.750145562  0.559430108
     0.249854125  0.999935043  0.559420358
     0.000005749  0.999985365  0.432483484
     0.249992579  0.750062832  0.432464910
     0.000003678  0.250014635  0.307831651
     0.250003678  0.500014635  0.307831651
     0.000003678  0.500014635  0.183699523
     0.250003678  0.250014635  0.183699523
     0.000025477  0.249903447  0.559432479
     0.249186912  0.500166699  0.559369032
     0.000048645  0.500056722  0.432413803
     0.249905202  0.249983746  0.432457768
     0.500003678  0.750014635  0.307831651
     0.750003678  0.000014635  0.307831651
     0.500003678  0.000014635  0.183699523
     0.750003678  0.750014635  0.183699523
     0.499913895  0.750860290  0.559719056
     0.750130870  0.999925050  0.559443888
     0.499992191  0.999840315  0.432416954
     0.749991554  0.750078916  0.432481166
     0.500003678  0.250014635  0.307831651
     0.750003678  0.500014635  0.307831651
     0.500003678  0.500014635  0.183699523
     0.750003678  0.250014635  0.183699523
     0.499988921  0.249108426  0.558920468
     0.750816707  0.500096856  0.559158266
     0.499978415  0.500099316  0.432940757
     0.750108091  0.249940033  0.432443649

  ion indices of the primitive-cell ions
   primitive index   ion index
                 1           1
                 2           2
                 3           3
                 4           4
                 5           5
                 6           6
[...]
   O         182.081          4.810         18.449          3.41639650
   O         166.282          4.738         17.630          3.26481419
   O         166.169          4.737         17.624          3.26370925
   O         162.265          4.718         17.416          3.22513984
   O         161.587          4.715         17.379          3.21839723
   O         185.152          4.823         18.603          3.44509125
   O         187.072          4.832         18.700          3.46290882

  vdW correction parametrized for the method ÐQ    þ

  IVDW =  21
  VDW_RADIUS =    50.000 A
  VDW_IDAMPF =  0
  VDW_S6 =     1.000
  VDW_SR =     0.960
  VDW_D =    20.000
  LVDW_ONECELL = F F F
  LVDW_SAMETYPE T T
  LVDW_EWALD = F

  Number of pair interactions contributing to vdW energy:  892101
  Edisp (eV):   -3.55191

  FORCE on cell =-STRESS in cart. coord.  units (eV):
  Direction    XX          YY          ZZ          XY          YZ          ZX
  Alpha Z  1098.23100  1098.23100  1098.23100
  Ewald   86206.73580 86206.79053************     0.01162     0.02004    -0.04653
  Hartree 96841.92867 96841.95824-90427.05926     0.00724    -0.00551    -0.02289
  E(xc)   -2456.51536 -2456.51527 -2461.78527     0.00001    -0.00014    -0.00006
  Local  ************************193099.58249    -0.01875    -0.00651     0.06776
  n-local -2809.46551 -2809.46757 -2830.59185    -0.00090     0.00115    -0.00232
  augment  1047.57957  1047.57920  1038.12211     0.00005    -0.00142     0.00007
  Kinetic  7300.86282  7300.86168  7342.68526     0.00006     0.00465     0.00618
  Fock        0.00000     0.00000     0.00000     0.00000     0.00000     0.00000
  vdW        -5.05532    -5.05532    -3.45278    -0.00000     0.00002     0.00006
  Total     -21.03708   -21.03937     3.62949    -0.00069     0.01229     0.00226
  in kB     -27.82665   -27.82968     4.80089    -0.00091     0.01626     0.00299

 VOLUME and BASIS-vectors are now :
  energy-cutoff  :      520.00
  volume of cell :     1211.25
      direct lattice vectors                 reciprocal lattice vectors
     8.440984654  0.000000000  0.000000000     0.118469591  0.000000000  0.000000000
     0.000000000  8.440984654  0.000000000     0.000000000  0.118469591  0.000000000
     0.000000000  0.000000000 17.000000000     0.000000000  0.000000000  0.058823529

  length of vectors
     8.440984654  8.440984654 17.000000000     0.118469591  0.118469591  0.058823529

 FORCES acting on ions
    electron-ion (+dipol)            ewald-force                    non-local-force                 convergence-correction
   0.179E-02 0.837E-01 0.172E+04   -.199E-02 -.849E-01 -.171E+04   0.154E-03 0.938E-03 -.707E+01   0.122E-05 -.301E-04 -.788E-05
   -.860E-01 0.396E-02 0.172E+04   0.874E-01 -.372E-02 -.171E+04   -.100E-02 -.157E-03 -.707E+01   0.246E-04 0.149E-04 -.185E-04
   0.152E-01 -.174E-01 0.568E+03   -.175E-01 0.236E-01 -.568E+03   0.163E-02 -.438E-02 0.478E+00   0.241E-05 -.468E-05 0.585E-04
   -.493E+00 0.475E+00 0.567E+03   0.516E+00 -.493E+00 -.568E+03   -.168E-01 0.123E-01 0.491E+00   -.397E-04 0.221E-04 0.639E-04
   0.228E-02 0.136E+00 -.574E+03   -.808E-02 -.133E+00 0.574E+03   0.708E-02 0.373E-02 -.224E+00   -.112E-04 -.117E-04 0.333E-04
   -.142E+00 0.106E+00 -.574E+03   0.138E+00 -.980E-01 0.574E+03   -.253E-02 -.126E-01 -.227E+00   -.247E-06 -.853E-05 0.404E-04
   0.407E-02 0.817E-01 -.171E+04   -.117E-02 -.939E-01 0.170E+04   -.898E-03 0.248E-02 0.592E+01   0.164E-04 -.185E-04 -.403E-03
   -.115E+01 0.768E+00 -.170E+04   0.107E+01 -.651E+00 0.170E+04   0.781E-01 -.964E-01 0.590E+01   -.471E-04 0.405E-04 -.417E-03
   0.798E-03 -.836E-01 0.172E+04   -.834E-03 0.849E-01 -.171E+04   0.254E-04 -.889E-03 -.707E+01   0.924E-05 0.282E-04 -.117E-04
   -.114E+00 -.377E-02 0.172E+04   0.118E+00 0.360E-02 -.171E+04   -.269E-02 0.176E-03 -.708E+01   -.432E-05 -.143E-04 -.384E-04
   0.127E-01 0.173E-01 0.567E+03   -.107E-01 -.228E-01 -.568E+03   -.154E-02 0.392E-02 0.455E+00   -.142E-04 0.396E-05 0.435E-04
   -.480E+00 -.476E+00 0.567E+03   0.491E+00 0.494E+00 -.568E+03   -.731E-02 -.132E-01 0.488E+00   0.177E-05 -.213E-04 0.478E-04
   -.421E-01 -.130E+00 -.575E+03   0.428E-01 0.126E+00 0.575E+03   0.475E-03 -.313E-02 -.224E+00   -.128E-04 0.128E-04 0.207E-04
   -.128E+01 -.143E+00 -.576E+03   0.141E+01 0.133E+00 0.577E+03   -.133E+00 0.136E-01 -.300E+00   0.311E-04 0.766E-05 0.328E-04
   -.340E+00 -.785E-01 -.170E+04   0.371E+00 0.904E-01 0.170E+04   -.150E-01 -.269E-02 0.590E+01   0.898E-05 0.141E-04 -.420E-03
   0.848E-01 -.633E+00 -.171E+04   -.277E+00 0.498E+00 0.170E+04   0.136E+00 0.106E+00 0.600E+01   -.344E-04 -.380E-04 -.403E-03
   -.198E-02 0.112E+00 0.172E+04   0.209E-02 -.115E+00 -.171E+04   -.777E-04 0.270E-02 -.708E+01   0.100E-05 0.426E-06 -.378E-04
   0.860E-01 0.496E-02 0.172E+04   -.874E-01 -.488E-02 -.171E+04   0.104E-02 -.291E-04 -.707E+01   -.241E-04 0.631E-05 -.216E-04
   -.160E-01 -.501E-02 0.567E+03   0.179E-01 -.442E-02 -.568E+03   -.138E-02 0.687E-02 0.456E+00   -.234E-05 0.373E-04 0.374E-04
   0.493E+00 0.472E+00 0.567E+03   -.517E+00 -.487E+00 -.568E+03   0.176E-01 0.100E-01 0.494E+00   0.395E-04 0.590E-05 0.815E-04
   0.110E-01 0.136E+01 -.577E+03   -.502E-02 -.148E+01 0.578E+03   -.699E-02 0.128E+00 -.252E+00   0.129E-04 -.417E-04 0.353E-04
   0.140E+00 0.149E+00 -.574E+03   -.136E+00 -.148E+00 0.575E+03   0.250E-02 -.587E-02 -.225E+00   -.595E-06 -.883E-05 0.299E-04
   -.392E-02 0.120E+01 -.170E+04   0.240E-03 -.130E+01 0.170E+04   0.162E-02 0.458E-01 0.589E+01   -.178E-04 -.421E-05 -.404E-03
   0.108E+01 0.359E+00 -.170E+04   -.988E+00 -.207E+00 0.170E+04   -.806E-01 -.113E+00 0.593E+01   0.460E-04 0.305E-04 -.433E-03
   -.754E-03 -.112E+00 0.172E+04   0.802E-03 0.116E+00 -.171E+04   -.197E-04 -.242E-02 -.708E+01   -.770E-05 0.183E-05 -.429E-05
   0.114E+00 -.499E-02 0.172E+04   -.118E+00 0.489E-02 -.171E+04   0.266E-02 0.115E-03 -.708E+01   0.415E-05 -.579E-05 -.234E-04
   -.115E-01 -.214E-02 0.565E+03   0.104E-01 0.706E-02 -.566E+03   0.872E-03 -.407E-02 0.559E+00   0.125E-04 -.388E-04 0.757E-04
   0.479E+00 -.473E+00 0.567E+03   -.490E+00 0.487E+00 -.568E+03   0.712E-02 -.988E-02 0.484E+00   -.267E-05 -.547E-05 0.670E-04
   0.507E-01 -.124E+01 -.575E+03   -.515E-01 0.137E+01 0.575E+03   -.501E-03 -.132E+00 -.359E+00   0.116E-04 0.430E-04 -.709E-05
   0.124E+01 -.181E+00 -.576E+03   -.138E+01 0.178E+00 0.576E+03   0.135E+00 0.690E-02 -.328E+00   -.306E-04 0.739E-05 0.165E-04
   0.584E+00 -.204E+01 -.172E+04   -.606E+00 0.211E+01 0.171E+04   -.901E-03 0.102E-01 0.632E+01   -.720E-05 0.445E-05 -.429E-03
   -.106E+00 -.272E+00 -.171E+04   0.298E+00 0.109E+00 0.170E+04   -.137E+00 0.121E+00 0.601E+01   0.331E-04 -.288E-04 -.416E-03
   0.269E-03 0.201E+00 0.425E+03   0.179E-02 -.207E+00 -.425E+03   -.259E-02 0.841E-02 -.100E+00   -.676E-05 0.925E-07 0.640E-04
   -.207E+00 0.311E-01 0.425E+03   0.213E+00 -.336E-01 -.425E+03   -.809E-02 0.305E-02 -.107E+00   -.446E-05 0.331E-05 0.623E-04
   0.155E-02 0.125E-02 0.129E+04   -.182E-02 -.474E-03 -.130E+04   0.407E-03 -.941E-03 0.346E+01   0.304E-05 -.452E-05 -.231E-04
   -.777E-01 0.751E-01 0.129E+04   0.811E-01 -.777E-01 -.130E+04   -.464E-02 0.387E-02 0.346E+01   -.908E-05 0.154E-05 -.272E-04
   0.488E-01 0.764E-01 -.130E+04   -.396E-01 -.747E-01 0.130E+04   -.184E-01 -.147E-01 -.520E+01   0.128E-05 0.342E-05 -.306E-03
   -.797E-01 0.247E-01 -.130E+04   0.863E-01 -.716E-01 0.130E+04   0.620E-02 0.748E-01 -.518E+01   -.640E-05 -.798E-05 -.292E-03
   0.264E-01 -.426E-01 -.426E+03   -.254E-01 0.417E-01 0.426E+03   -.173E-02 0.358E-02 0.161E+00   -.435E-05 -.630E-05 -.163E-03
   -.692E+00 0.577E+00 -.425E+03   0.685E+00 -.569E+00 0.425E+03   0.911E-02 -.133E-01 0.338E+00   -.111E-04 -.641E-06 -.162E-03
   -.356E-02 -.199E+00 0.425E+03   0.316E-02 0.204E+00 -.425E+03   0.673E-03 -.699E-02 -.117E+00   -.763E-05 0.138E-05 0.689E-04
   -.365E+00 -.293E-01 0.424E+03   0.345E+00 0.301E-01 -.424E+03   0.271E-01 -.521E-03 -.157E+00   0.212E-05 -.368E-05 0.647E-04
   0.100E-02 -.132E-02 0.129E+04   -.902E-03 0.509E-03 -.130E+04   -.104E-03 0.125E-02 0.346E+01   -.282E-05 0.569E-05 -.341E-04
   -.758E-01 -.752E-01 0.129E+04   0.777E-01 0.778E-01 -.130E+04   -.258E-02 -.347E-02 0.345E+01   0.157E-05 -.325E-05 -.327E-04
   -.541E-01 -.777E-01 -.130E+04   0.690E-01 0.769E-01 0.130E+04   -.207E-01 0.127E-01 -.514E+01   0.213E-05 0.395E-05 -.301E-03
   -.189E+01 -.180E+00 -.130E+04   0.182E+01 0.254E+00 0.130E+04   0.179E+00 -.109E+00 -.487E+01   -.127E-04 0.814E-05 -.305E-03
   -.693E-01 0.348E-01 -.425E+03   0.751E-01 -.318E-01 0.425E+03   -.957E-02 -.577E-02 0.288E+00   -.103E-04 0.539E-05 -.161E-03
   -.387E+00 -.565E+00 -.425E+03   0.376E+00 0.560E+00 0.425E+03   0.214E-01 0.892E-02 0.281E+00   -.989E-06 0.443E-06 -.177E-03
   -.313E-02 0.359E+00 0.424E+03   0.275E-02 -.337E+00 -.424E+03   0.434E-03 -.295E-01 -.164E+00   0.630E-05 -.460E-05 0.593E-04
   0.206E+00 0.350E-01 0.425E+03   -.211E+00 -.351E-01 -.425E+03   0.750E-02 -.152E-03 -.112E+00   0.724E-05 0.274E-05 0.668E-04
   -.154E-02 0.349E-02 0.129E+04   0.182E-02 -.401E-02 -.130E+04   -.359E-03 0.876E-03 0.345E+01   -.277E-05 0.254E-06 -.389E-04
   0.779E-01 0.747E-01 0.129E+04   -.812E-01 -.769E-01 -.130E+04   0.462E-02 0.325E-02 0.345E+01   0.490E-05 -.193E-05 -.280E-04
   0.399E-01 0.226E+01 -.130E+04   -.678E-01 -.223E+01 0.130E+04   0.390E-01 -.150E+00 -.498E+01   0.521E-06 0.684E-05 -.317E-03
   0.782E-01 0.122E+00 -.130E+04   -.842E-01 -.173E+00 0.130E+04   -.732E-02 0.774E-01 -.517E+01   0.650E-05 -.811E-05 -.308E-03
   -.260E-01 0.279E+00 -.425E+03   0.250E-01 -.296E+00 0.425E+03   0.175E-02 0.287E-01 0.289E+00   0.595E-05 -.142E-05 -.161E-03
   0.687E+00 0.484E+00 -.425E+03   -.681E+00 -.474E+00 0.425E+03   -.772E-02 -.172E-01 0.309E+00   0.498E-05 -.473E-05 -.173E-03
   0.477E-02 -.366E+00 0.424E+03   -.474E-02 0.349E+00 -.424E+03   -.108E-03 0.221E-01 -.153E+00   0.692E-05 0.898E-05 0.683E-04
   0.367E+00 -.369E-01 0.424E+03   -.347E+00 0.373E-01 -.424E+03   -.252E-01 0.119E-03 -.156E+00   -.269E-05 -.709E-05 0.708E-04
   -.110E-02 -.313E-02 0.129E+04   0.947E-03 0.388E-02 -.130E+04   0.254E-03 -.925E-03 0.345E+01   0.262E-05 -.384E-05 -.336E-04
   0.758E-01 -.747E-01 0.129E+04   -.777E-01 0.769E-01 -.130E+04   0.266E-02 -.296E-02 0.345E+01   -.139E-05 0.271E-05 -.206E-04
   0.684E-01 -.151E+01 -.129E+04   -.817E-01 0.139E+01 0.130E+04   0.191E-01 0.234E+00 -.471E+01   -.574E-07 -.658E-05 -.285E-03
   0.167E+01 -.206E+00 -.129E+04   -.158E+01 0.267E+00 0.130E+04   -.201E+00 -.893E-01 -.480E+01   0.109E-04 0.531E-05 -.306E-03
   0.879E-01 -.346E+00 -.434E+03   -.909E-01 0.355E+00 0.434E+03   0.598E-02 -.189E-01 -.231E+00   0.433E-05 -.617E-06 -.173E-03
   0.380E+00 -.469E+00 -.425E+03   -.368E+00 0.462E+00 0.425E+03   -.218E-01 0.143E-01 0.284E+00   0.107E-05 0.498E-05 -.182E-03
   0.244E-01 -.105E+00 0.188E+02   0.294E-12 0.398E-12 0.000E+00   -.231E-01 0.107E+00 -.187E+02   -.115E-04 0.690E-06 -.630E-02

 POSITION                                       TOTAL-FORCE (eV/Angst)
      0.00003      6.33086      3.12289        -0.000058     -0.000382      0.322142
      2.11028      0.00012      3.12289         0.000408      0.000060      0.322580
      0.00003      0.00012      5.23314        -0.000691      0.001715      0.042314
      2.11028      6.33086      5.23314         0.006690     -0.005205      0.043308
      8.44063      6.33039      7.35551         0.001244      0.005899      0.068345
      2.11078      0.00083      7.35585        -0.006630     -0.004264      0.065425
      8.44080      0.00079      9.46177         0.001995     -0.009760      0.052496
      2.10859      6.33174      9.45310        -0.002826      0.020510      0.110668
      0.00003      2.11037      3.12289        -0.000022      0.000384      0.323290
      2.11028      4.22062      3.12289         0.000872     -0.000044      0.324783
      0.00003      4.22062      5.23314         0.000501     -0.001610      0.049784
      2.11028      2.11037      5.23314         0.003601      0.005621      0.042056
      8.44095      2.11097      7.35653         0.001079     -0.006720      0.059758
      2.11422      4.22008      7.36089        -0.001090      0.003374      0.036203
      8.44026      4.22014      9.45791         0.016273      0.009153      0.076481
      2.11088      2.11014      9.45936        -0.055723     -0.028787      0.042555
      4.22052      6.33086      3.12289         0.000013     -0.000869      0.325227
      6.33077      0.00012      3.12289        -0.000439      0.000026      0.322940
      4.22052      0.00012      5.23314         0.000501     -0.002547      0.049788
      6.33077      6.33086      5.23314        -0.007253     -0.004546      0.043129
      4.22069      6.32676      7.36108        -0.001030      0.000835      0.050973
      6.33019      0.00051      7.35624         0.006631     -0.004101      0.063321
      4.22053      0.00252      9.45800        -0.002092     -0.055443      0.078979
      6.33166      6.33070      9.45617         0.008152      0.038765      0.083046
      4.22052      2.11037      3.12289         0.000000      0.000800      0.324302
      6.33077      4.22062      3.12289        -0.000882     -0.000030      0.324555
      4.22052      4.22062      5.23314        -0.000162      0.000766      0.057831
      6.33077      2.11037      5.23314        -0.003558      0.004393      0.041949
      4.22065      2.11370      7.36138        -0.001348      0.001105      0.005715
      6.32700      4.22013      7.36111         0.000296      0.003641      0.022531
      4.22206      4.21481      9.50847        -0.022916      0.078439     -0.293759
      6.33029      2.11032      9.45976         0.055370     -0.041861      0.034247
      0.00003      6.33086      5.23314        -0.000548      0.002587      0.067278
      2.11028      0.00012      5.23314        -0.002428      0.000483      0.067096
      0.00003      0.00012      3.12289         0.000119     -0.000206     -0.526758
      2.11028      6.33086      3.12289        -0.001281      0.001118     -0.527680
      0.00013      6.33197      9.51031        -0.009201     -0.012994     -0.027363
      2.10901      8.44044      9.51015         0.012779      0.027933     -0.022418
      0.00005      8.44086      7.35222        -0.000728      0.002586     -0.025795
      2.11018      6.33127      7.35190         0.001997     -0.004815     -0.020808
      0.00003      2.11037      5.23314         0.000253     -0.002098      0.067111
      2.11028      4.22062      5.23314         0.006384      0.000267      0.077071
      0.00003      4.22062      3.12289        -0.000032      0.000422     -0.527827
      2.11028      2.11037      3.12289        -0.000670     -0.000879     -0.527865
      0.00022      2.10943      9.51035        -0.005871      0.011790     -0.011183
      2.10338      4.22190      9.50927         0.108595     -0.033927      0.056957
      0.00041      4.22097      7.35103        -0.003812     -0.002781     -0.007089
      2.10945      2.11011      7.35178         0.010103      0.004138     -0.006159
      4.22052      6.33086      5.23314         0.000037     -0.006940      0.075859
      6.33077      0.00012      5.23314         0.002292     -0.000301      0.067263
      4.22052      0.00012      3.12289        -0.000098      0.000329     -0.527906
      6.33077      6.33086      3.12289         0.001279      0.000934     -0.527756
      4.21977      6.33800      9.51522         0.011046     -0.111269      0.020379
      6.33184      8.44035      9.51055        -0.013351      0.025715     -0.018643
      4.22043      8.43964      7.35109         0.000691      0.012396     -0.006775
      6.33067      6.33140      7.35218        -0.001939     -0.007347     -0.016060
      4.22052      2.11037      5.23314        -0.000106      0.005277      0.080814
      6.33077      4.22062      5.23314        -0.005914      0.000432      0.078774
      4.22052      4.22062      3.12289         0.000083     -0.000224     -0.529619
      6.33077      2.11037      3.12289         0.000701     -0.000727     -0.527912
      4.22040      2.10272      9.50165         0.005830      0.111112      0.114764
      6.33763      4.22131      9.50569        -0.106035     -0.028859      0.080255
      4.22031      4.22133      7.35999         0.002984     -0.010167      0.017340
      6.33165      2.10974      7.35154        -0.010063      0.006698     -0.002310
    total drift:                                0.001334      0.002168      0.122921

  FREE ENERGIE OF THE ION-ELECTRON SYSTEM (eV)
  free  energy   TOTEN  =      -375.60622413 eV

  energy  without entropy=     -375.60622413  energy(sigma->0) =     -375.60622413

 writing wavefunctions