 vasp.6.4.2 20Jul23 (build Feb 22 2024 13:53:45) complex
 executed on              LinuxNV date 2024.08.27  22:41:21
 OpenACC runtime initialized ...    4 GPUs detected

 INCAR:
   SYSTEM = Oxide-Surface
   ISMEAR = 0
   SIGMA = 0.05
   EDIFF = 1E-5
   ALGO = Normal
   IBRION = -1
   NSW = 0
   ISYM = 0
   DIPOL = 0.5 0.5 0.5
   IDIPOL = 3
   LDIPOL = .TRUE.
   ISTART = 1
   LHFCALC = .TRUE.
   GGA = PE
   IVDW = 21
   VDW_SR = 0.96
   HFRCUT = -1
   ENCUT = 520
   PREC = Normal
   PRECFOCK = Normal
   LASPH = .TRUE.
   LREAL = Auto
   ISPIN = 1
   NELM = 200
   NELMIN = 8
   NCORE = 1
   KPAR = 1
   LWAVE = .FALSE.
   LCHARG = .FALSE.

 POTCAR:    PAW_PBE Mg_pv 13Apr2007
 POTCAR:    PAW_PBE O 08Apr2002
 POTCAR:    PAW_PBE Mg_pv 13Apr2007
   VRHFIN =Mg: p6s2

   TITEL  = PAW_PBE Mg_pv 13Apr2007
   POMASS =   24.305; ZVAL   =    8.000    mass and valenz
   ENMAX  =  403.929; ENMIN  =  302.947 eV

   TITEL  = PAW_PBE O 08Apr2002
   POMASS =   16.000; ZVAL   =    6.000    mass and valenz
   ENMAX  =  400.000; ENMIN  =  300.000 eV

 Optimization of the real space projectors (new method)

 maximal supplied QI-value         = 18.90
 optimisation between [QCUT,QGAM] = [ 11.53, 23.24] = [ 37.21,151.29] Ry
 Optimized for a Real-space Cutoff    1.21 Angstroem

   l    n(q)    QCUT    max X(q) W(low)/X(q) W(high)/X(q)  e(spline)
   1      8    11.527     2.974    0.16E-03    0.13E-03    0.98E-07
   1      8    11.527     4.279    0.42E-03    0.30E-03    0.22E-06
   0      8    11.527    16.381    0.13E-03    0.20E-03    0.72E-07
   0      8    11.527     5.611    0.88E-04    0.13E-03    0.50E-07
   2      7    11.527     4.652    0.25E-03    0.73E-04    0.51E-07
 Optimization of the real space projectors (new method)

 maximal supplied QI-value         = 24.76
 optimisation between [QCUT,QGAM] = [ 11.64, 23.27] = [ 37.91,151.63] Ry
 Optimized for a Real-space Cutoff    1.04 Angstroem

   l    n(q)    QCUT    max X(q) W(low)/X(q) W(high)/X(q)  e(spline)
   0      7    11.635    20.381    0.14E-03    0.49E-03    0.18E-06
   0      7    11.635    15.268    0.16E-03    0.52E-03    0.19E-06
   1      7    11.635     5.964    0.30E-03    0.44E-03    0.22E-06
   1      7    11.635     5.382    0.27E-03    0.34E-03    0.19E-06
  PAW_PBE Mg_pv 13Apr2007               :
  PAW_PBE O 08Apr2002                   :

 POSCAR: Mg  O
  positions in direct lattice
 exchange correlation table for  LEXCH =        8
   RHO(1)=    0.500       N(1)  =     2000
   RHO(2)=  100.500       N(2)  =     4000

 ion  position               nearest neighbor table
   1  0.000  0.750  0.184-  33 2.11  35 2.11  36 2.11  43 2.11  52 2.11
   2  0.250  0.000  0.184-  34 2.11  35 2.11  36 2.11  44 2.11  51 2.11
   3  0.000  0.000  0.308-  35 2.11  34 2.11  33 2.11  41 2.11  50 2.11  39 2.12
   4  0.250  0.750  0.308-  36 2.11  34 2.11  33 2.11  42 2.11  49 2.11  40 2.12
   5  1.000  0.750  0.433-  47 2.11  56 2.11  39 2.11  40 2.11  33 2.12  37 2.15
   6  0.250  0.000  0.433-  48 2.11  55 2.11  40 2.11  39 2.11  34 2.12  38 2.15
   7  1.000  0.000  0.557-  45 2.11  54 2.11  39 2.11  38 2.11  37 2.11
   8  0.250  0.750  0.556-  40 2.10  37 2.11  38 2.11  46 2.11  53 2.11
   9  0.000  0.250  0.184-  41 2.11  35 2.11  43 2.11  44 2.11  60 2.11
  10  0.250  0.500  0.184-  42 2.11  36 2.11  43 2.11  44 2.11  59 2.11
  11  0.000  0.500  0.308-  43 2.11  41 2.11  42 2.11  33 2.11  58 2.11  47 2.12
  12  0.250  0.250  0.308-  44 2.11  41 2.11  42 2.11  34 2.11  57 2.11  48 2.12
  13  1.000  0.250  0.433-  64 2.11  48 2.11  47 2.11  39 2.11  41 2.12  45 2.15
  14  0.250  0.500  0.433-  63 2.11  48 2.11  40 2.11  47 2.11  42 2.13  46 2.15
  15  1.000  0.500  0.556-  62 2.10  46 2.10  47 2.11  45 2.11  37 2.11
  16  0.250  0.250  0.556-  48 2.11  61 2.11  45 2.11  38 2.11  46 2.11
  17  0.500  0.750  0.184-  49 2.11  36 2.11  51 2.11  52 2.11  59 2.11
  18  0.750  0.000  0.184-  50 2.11  35 2.11  51 2.11  52 2.11  60 2.11
  19  0.500  0.000  0.308-  51 2.11  49 2.11  50 2.11  34 2.11  57 2.11  55 2.12
  20  0.750  0.750  0.308-  52 2.11  49 2.11  50 2.11  33 2.11  58 2.11  56 2.12
  21  0.500  0.750  0.433-  63 2.11  56 2.11  40 2.11  55 2.11  49 2.13  53 2.15
  22  0.750  0.000  0.433-  64 2.11  55 2.11  56 2.11  39 2.11  50 2.12  54 2.15
  23  0.500  0.000  0.556-  61 2.10  53 2.11  55 2.11  54 2.11  38 2.11
  24  0.750  0.750  0.556-  56 2.10  62 2.11  37 2.11  54 2.11  53 2.11
  25  0.500  0.250  0.184-  57 2.11  51 2.11  44 2.11  59 2.11  60 2.11
  26  0.750  0.500  0.184-  58 2.11  52 2.11  43 2.11  59 2.11  60 2.11
  27  0.500  0.500  0.308-  59 2.11  49 2.11  57 2.11  58 2.11  42 2.11  63 2.13
  28  0.750  0.250  0.308-  60 2.11  50 2.11  57 2.11  58 2.11  41 2.11  64 2.12
  29  0.500  0.250  0.433-  63 2.11  64 2.11  48 2.11  55 2.12  57 2.13  61 2.14
  30  0.750  0.500  0.433-  63 2.11  64 2.11  56 2.11  47 2.11  58 2.13  62 2.14
  31  0.500  0.499  0.559-  61 2.11  62 2.12  46 2.12  53 2.12  63 2.15
  32  0.750  0.250  0.556-  64 2.11  61 2.11  62 2.11  45 2.11  54 2.11
  33  0.000  0.750  0.308-   1 2.11   3 2.11   4 2.11  11 2.11  20 2.11   5 2.12
  34  0.250  0.000  0.308-   2 2.11   3 2.11   4 2.11  12 2.11  19 2.11   6 2.12
  35  0.000  0.000  0.184-   3 2.11   2 2.11   1 2.11   9 2.11  18 2.11
  36  0.250  0.750  0.184-   4 2.11   2 2.11   1 2.11  10 2.11  17 2.11
  37  0.000  0.750  0.559-   8 2.11  24 2.11   7 2.11  15 2.11   5 2.15
  38  0.250  1.000  0.559-   8 2.11   7 2.11  16 2.11  23 2.11   6 2.15
  39  0.000  1.000  0.432-   7 2.11   5 2.11   6 2.11  22 2.11  13 2.11   3 2.12
  40  0.250  0.750  0.432-   8 2.10  21 2.11   5 2.11   6 2.11  14 2.11   4 2.12
  41  0.000  0.250  0.308-   9 2.11   3 2.11  11 2.11  12 2.11  28 2.11  13 2.12
  42  0.250  0.500  0.308-  10 2.11   4 2.11  11 2.11  12 2.11  27 2.11  14 2.13
  43  0.000  0.500  0.184-  11 2.11   9 2.11  10 2.11   1 2.11  26 2.11
  44  0.250  0.250  0.184-  12 2.11   9 2.11  10 2.11   2 2.11  25 2.11
  45  0.000  0.250  0.559-   7 2.11  16 2.11  15 2.11  32 2.11  13 2.15
  46  0.249  0.500  0.559-  15 2.10   8 2.11  16 2.11  31 2.12  14 2.15
  47  0.000  0.500  0.432-  15 2.11   5 2.11  13 2.11  14 2.11  30 2.11  11 2.12
  48  0.250  0.250  0.432-  16 2.11   6 2.11  13 2.11  14 2.11  29 2.11  12 2.12
  49  0.500  0.750  0.308-  17 2.11   4 2.11  19 2.11  20 2.11  27 2.11  21 2.13
  50  0.750  0.000  0.308-  18 2.11   3 2.11  19 2.11  20 2.11  28 2.11  22 2.12
  51  0.500  0.000  0.184-  19 2.11  17 2.11  18 2.11   2 2.11  25 2.11
  52  0.750  0.750  0.184-  20 2.11  17 2.11  18 2.11   1 2.11  26 2.11
  53  0.500  0.751  0.560-  23 2.11   8 2.11  24 2.11  31 2.12  21 2.15
  54  0.750  1.000  0.559-   7 2.11  24 2.11  32 2.11  23 2.11  22 2.15
  55  0.500  1.000  0.432-  23 2.11   6 2.11  22 2.11  21 2.11  29 2.12  19 2.12
  56  0.750  0.750  0.432-  24 2.10   5 2.11  21 2.11  22 2.11  30 2.11  20 2.12
  57  0.500  0.250  0.308-  25 2.11  19 2.11  12 2.11  27 2.11  28 2.11  29 2.13
  58  0.750  0.500  0.308-  26 2.11  20 2.11  11 2.11  27 2.11  28 2.11  30 2.13
  59  0.500  0.500  0.184-  27 2.11  17 2.11  25 2.11  26 2.11  10 2.11
  60  0.750  0.250  0.184-  28 2.11  18 2.11  25 2.11  26 2.11   9 2.11
  61  0.500  0.249  0.559-  23 2.10  16 2.11  32 2.11  31 2.11  29 2.14
  62  0.751  0.500  0.559-  15 2.10  24 2.11  32 2.11  31 2.12  30 2.14
  63  0.500  0.500  0.433-  21 2.11  14 2.11  30 2.11  29 2.11  27 2.13  31 2.15
  64  0.750  0.250  0.432-  32 2.11  22 2.11  13 2.11  30 2.11  29 2.11  28 2.12

IMPORTANT INFORMATION: All symmetrisations will be switched off!
NOSYMM: (Re-)initialisation of all symmetry stuff for point group C_1.

                                     Primitive cell

  volume of cell :    1211.2538

  direct lattice vectors                    reciprocal lattice vectors
     8.440984654  0.000000000  0.000000000     0.118469591  0.000000000  0.000000000
     0.000000000  8.440984654  0.000000000     0.000000000  0.118469591  0.000000000
     0.000000000  0.000000000 17.000000000     0.000000000  0.000000000  0.058823529

  length of vectors
     8.440984654  8.440984654 17.000000000     0.118469591  0.118469591  0.058823529

  position of ions in fractional coordinates (direct lattice)
     0.000003678  0.750014635  0.183699523
     0.250003678  0.000014635  0.183699523
     0.000003678  0.000014635  0.307831651
     0.250003678  0.750014635  0.307831651
     0.999958025  0.749958546  0.432677010
     0.250062895  0.000098256  0.432697074
     0.999978292  0.000093413  0.556574763
     0.249803788  0.750119214  0.556064616
     0.000003678  0.250014635  0.183699523
     0.250003678  0.500014635  0.183699523
     0.000003678  0.500014635  0.307831651
     0.250003678  0.250014635  0.307831651
     0.999996322  0.250085902  0.432737287
     0.250470277  0.499951058  0.432993793
     0.999914270  0.499958742  0.556347633
     0.250074935  0.249987426  0.556432786
     0.500003678  0.750014635  0.183699523
     0.750003678  0.000014635  0.183699523
     0.500003678  0.000014635  0.307831651
     0.750003678  0.750014635  0.307831651
     0.500022849  0.749528416  0.433004734
     0.749934873  0.000060439  0.432720256
     0.500004313  0.000298773  0.556352798
     0.750109261  0.749994940  0.556245449
     0.500003678  0.250014635  0.183699523
     0.750003678  0.500014635  0.183699523
     0.500003678  0.500014635  0.307831651
     0.750003678  0.250014635  0.307831651
     0.500018596  0.250408803  0.433022603
     0.749557443  0.499957022  0.433006493
     0.500185527  0.499326999  0.559321507
     0.749946987  0.250008855  0.556456309
     0.000003678  0.750014635  0.307831651
     0.250003678  0.000014635  0.307831651
     0.000003678  0.000014635  0.183699523
     0.250003678  0.750014635  0.183699523
     0.000015879  0.750145562  0.559430108
     0.249854125  0.999935043  0.559420358
     0.000005749  0.999985365  0.432483484
     0.249992579  0.750062832  0.432464910
     0.000003678  0.250014635  0.307831651
     0.250003678  0.500014635  0.307831651
     0.000003678  0.500014635  0.183699523
     0.250003678  0.250014635  0.183699523
     0.000025477  0.249903447  0.559432479
     0.249186912  0.500166699  0.559369032
     0.000048645  0.500056722  0.432413803
     0.249905202  0.249983746  0.432457768
     0.500003678  0.750014635  0.307831651
     0.750003678  0.000014635  0.307831651
     0.500003678  0.000014635  0.183699523
     0.750003678  0.750014635  0.183699523
     0.499913895  0.750860290  0.559719056
     0.750130870  0.999925050  0.559443888
     0.499992191  0.999840315  0.432416954
     0.749991554  0.750078916  0.432481166
     0.500003678  0.250014635  0.307831651
     0.750003678  0.500014635  0.307831651
     0.500003678  0.500014635  0.183699523
     0.750003678  0.250014635  0.183699523
     0.499988921  0.249108426  0.558920468
     0.750816707  0.500096856  0.559158266
     0.499978415  0.500099316  0.432940757
     0.750108091  0.249940033  0.432443649

  ion indices of the primitive-cell ions
   primitive index   ion index
                 1           1
                 2           2
                 3           3
                 4           4
                 5           5
                 6           6
[...]
   O         195.878          4.869         19.135          3.54347498
   O         195.910          4.869         19.136          3.54376009
   O         187.557          4.834         18.724          3.46739324
   O         189.346          4.841         18.813          3.48389103
   O         244.139          5.051         21.362          3.95598721
   O         244.707          5.053         21.387          3.96058576
   O         237.116          5.026         21.053          3.89867641
   O         236.911          5.026         21.044          3.89699033
   O         195.866          4.869         19.134          3.54336686
   O         195.885          4.869         19.135          3.54353471
   O         188.445          4.838         18.768          3.47558783
   O         187.434          4.833         18.718          3.46625974
   O         244.051          5.051         21.358          3.95527310
   O         244.892          5.054         21.395          3.96208384
   O         237.203          5.027         21.057          3.89938960
   O         237.179          5.027         21.056          3.89919250
   O         196.027          4.869         19.142          3.54482425
   O         195.918          4.869         19.137          3.54383125
   O         191.079          4.849         18.899          3.49979780
   O         190.143          4.845         18.853          3.49121438
   O         240.470          5.038         21.201          3.92615037
   O         244.682          5.053         21.386          3.96038076

  vdW correction parametrized for the method @¬>    þ

  IVDW =  21
  VDW_RADIUS =    50.000 A
  VDW_IDAMPF =  0
  VDW_S6 =     1.000
  VDW_SR =     0.960
  VDW_D =    20.000
  LVDW_ONECELL = F F F
  LVDW_SAMETYPE T T
  LVDW_EWALD = F

  Number of pair interactions contributing to vdW energy:  892101
  Edisp (eV):   -3.87961

 VOLUME and BASIS-vectors are now :
  energy-cutoff  :      520.00
  volume of cell :     1211.25
      direct lattice vectors                 reciprocal lattice vectors
     8.440984654  0.000000000  0.000000000     0.118469591  0.000000000  0.000000000
     0.000000000  8.440984654  0.000000000     0.000000000  0.118469591  0.000000000
     0.000000000  0.000000000 17.000000000     0.000000000  0.000000000  0.058823529

  length of vectors
     8.440984654  8.440984654 17.000000000     0.118469591  0.118469591  0.058823529

 FORCES acting on ions
    electron-ion (+dipol)            ewald-force                    non-local-force                 convergence-correction
   0.181E-02 0.834E-01 0.172E+04   -.199E-02 -.849E-01 -.171E+04   0.117E-03 0.970E-03 -.677E+01   -.624E-05 -.195E-04 -.156E+00
   -.857E-01 0.396E-02 0.172E+04   0.874E-01 -.372E-02 -.171E+04   -.109E-02 -.176E-03 -.677E+01   0.241E-04 0.107E-04 -.156E+00
   0.151E-01 -.172E-01 0.568E+03   -.175E-01 0.236E-01 -.568E+03   0.145E-02 -.396E-02 0.444E+00   -.626E-05 -.112E-04 -.110E+00
   -.492E+00 0.475E+00 0.567E+03   0.516E+00 -.493E+00 -.568E+03   -.152E-01 0.110E-01 0.455E+00   -.924E-06 0.919E-05 -.110E+00
   0.225E-02 0.134E+00 -.574E+03   -.808E-02 -.133E+00 0.574E+03   0.645E-02 0.454E-02 -.179E+00   0.753E-05 -.293E-04 -.196E-01
   -.141E+00 0.106E+00 -.574E+03   0.138E+00 -.980E-01 0.574E+03   -.350E-02 -.114E-01 -.182E+00   0.369E-04 -.290E-04 -.196E-01
   0.468E-02 0.795E-01 -.171E+04   -.117E-02 -.939E-01 0.170E+04   -.983E-03 0.270E-02 0.565E+01   -.521E-05 -.282E-05 0.803E-01
   -.116E+01 0.778E+00 -.170E+04   0.107E+01 -.651E+00 0.170E+04   0.751E-01 -.909E-01 0.563E+01   0.854E-06 0.257E-04 0.798E-01
   0.801E-03 -.833E-01 0.172E+04   -.834E-03 0.849E-01 -.171E+04   0.216E-04 -.102E-02 -.678E+01   -.508E-05 0.281E-04 -.156E+00
   -.114E+00 -.378E-02 0.172E+04   0.118E+00 0.360E-02 -.171E+04   -.227E-02 0.119E-03 -.678E+01   0.841E-05 -.890E-05 -.156E+00
   0.130E-01 0.171E-01 0.567E+03   -.107E-01 -.228E-01 -.568E+03   -.149E-02 0.348E-02 0.421E+00   -.194E-05 0.699E-05 -.110E+00
   -.479E+00 -.475E+00 0.567E+03   0.491E+00 0.494E+00 -.568E+03   -.642E-02 -.119E-01 0.452E+00   -.111E-05 -.543E-05 -.110E+00
   -.420E-01 -.129E+00 -.575E+03   0.428E-01 0.126E+00 0.575E+03   0.376E-03 -.405E-02 -.180E+00   -.159E-05 0.289E-04 -.195E-01
   -.127E+01 -.143E+00 -.576E+03   0.141E+01 0.133E+00 0.577E+03   -.122E+00 0.122E-01 -.257E+00   -.106E-03 0.321E-04 -.194E-01
   -.338E+00 -.762E-01 -.171E+04   0.371E+00 0.904E-01 0.170E+04   -.132E-01 -.318E-02 0.564E+01   0.111E-04 0.122E-04 0.801E-01
   0.717E-01 -.644E+00 -.171E+04   -.277E+00 0.498E+00 0.170E+04   0.126E+00 0.995E-01 0.573E+01   -.648E-04 -.332E-04 0.801E-01
   -.200E-02 0.112E+00 0.172E+04   0.209E-02 -.115E+00 -.171E+04   -.763E-04 0.222E-02 -.679E+01   0.882E-05 -.990E-05 -.156E+00
   0.857E-01 0.498E-02 0.172E+04   -.874E-01 -.488E-02 -.171E+04   0.110E-02 -.817E-04 -.678E+01   -.263E-04 0.343E-05 -.156E+00
   -.160E-01 -.587E-02 0.567E+03   0.179E-01 -.442E-02 -.568E+03   -.124E-02 0.651E-02 0.422E+00   0.219E-05 -.129E-05 -.110E+00
   0.492E+00 0.472E+00 0.567E+03   -.517E+00 -.487E+00 -.568E+03   0.159E-01 0.889E-02 0.459E+00   0.991E-06 0.103E-04 -.110E+00
   0.110E-01 0.135E+01 -.577E+03   -.502E-02 -.148E+01 0.578E+03   -.633E-02 0.118E+00 -.210E+00   -.115E-04 0.108E-03 -.193E-01
   0.139E+00 0.149E+00 -.574E+03   -.136E+00 -.148E+00 0.575E+03   0.346E-02 -.515E-02 -.180E+00   -.352E-04 -.127E-04 -.196E-01
   -.470E-02 0.119E+01 -.171E+04   0.240E-03 -.130E+01 0.170E+04   0.178E-02 0.407E-01 0.563E+01   0.173E-05 -.677E-04 0.801E-01
   0.109E+01 0.370E+00 -.170E+04   -.988E+00 -.207E+00 0.170E+04   -.761E-01 -.106E+00 0.567E+01   0.105E-04 0.459E-04 0.800E-01
   -.751E-03 -.112E+00 0.172E+04   0.802E-03 0.116E+00 -.171E+04   -.417E-04 -.207E-02 -.678E+01   0.716E-05 0.952E-05 -.156E+00
   0.114E+00 -.501E-02 0.172E+04   -.118E+00 0.489E-02 -.171E+04   0.224E-02 0.839E-04 -.678E+01   -.125E-04 -.131E-04 -.156E+00
   -.116E-01 -.173E-02 0.565E+03   0.104E-01 0.706E-02 -.566E+03   0.837E-03 -.386E-02 0.522E+00   0.238E-05 -.485E-05 -.110E+00
   0.479E+00 -.472E+00 0.567E+03   -.490E+00 0.487E+00 -.568E+03   0.624E-02 -.883E-02 0.449E+00   0.311E-05 -.339E-05 -.110E+00
   0.505E-01 -.123E+01 -.575E+03   -.515E-01 0.137E+01 0.575E+03   -.352E-03 -.121E+00 -.317E+00   -.484E-05 -.120E-03 -.194E-01
   0.124E+01 -.180E+00 -.576E+03   -.138E+01 0.178E+00 0.576E+03   0.124E+00 0.615E-02 -.285E+00   0.115E-03 0.199E-04 -.194E-01
   0.583E+00 -.204E+01 -.172E+04   -.606E+00 0.211E+01 0.171E+04   -.251E-02 0.131E-01 0.604E+01   -.176E-04 0.606E-04 0.827E-01
   -.923E-01 -.285E+00 -.171E+04   0.298E+00 0.109E+00 0.170E+04   -.127E+00 0.113E+00 0.574E+01   0.706E-04 -.564E-04 0.802E-01
   0.446E-03 0.200E+00 0.425E+03   0.179E-02 -.207E+00 -.425E+03   -.239E-02 0.822E-02 -.934E-01   -.294E-05 -.241E-05 -.853E-01
   -.206E+00 0.309E-01 0.425E+03   0.213E+00 -.336E-01 -.425E+03   -.784E-02 0.296E-02 -.988E-01   0.134E-04 0.206E-05 -.853E-01
   0.155E-02 0.127E-02 0.129E+04   -.182E-02 -.474E-03 -.130E+04   0.384E-03 -.756E-03 0.303E+01   -.579E-05 0.368E-05 -.120E+00
   -.776E-01 0.750E-01 0.129E+04   0.811E-01 -.777E-01 -.130E+04   -.408E-02 0.347E-02 0.303E+01   0.153E-04 -.867E-05 -.120E+00
   0.502E-01 0.770E-01 -.130E+04   -.396E-01 -.747E-01 0.130E+04   -.173E-01 -.124E-01 -.466E+01   0.451E-05 -.248E-04 0.607E-01
   -.800E-01 0.202E-01 -.130E+04   0.863E-01 -.716E-01 0.130E+04   0.514E-02 0.693E-01 -.464E+01   0.297E-04 -.280E-04 0.607E-01
   0.265E-01 -.430E-01 -.426E+03   -.254E-01 0.417E-01 0.426E+03   -.157E-02 0.326E-02 0.156E+00   0.393E-05 -.888E-05 -.195E-01
   -.692E+00 0.578E+00 -.425E+03   0.685E+00 -.569E+00 0.425E+03   0.819E-02 -.114E-01 0.314E+00   -.199E-04 0.303E-04 -.195E-01
   -.359E-02 -.198E+00 0.425E+03   0.316E-02 0.204E+00 -.425E+03   0.629E-03 -.680E-02 -.109E+00   -.453E-05 0.137E-04 -.853E-01
   -.367E+00 -.292E-01 0.424E+03   0.345E+00 0.301E-01 -.424E+03   0.255E-01 -.524E-03 -.144E+00   -.149E-04 -.440E-05 -.854E-01
   0.101E-02 -.131E-02 0.129E+04   -.902E-03 0.509E-03 -.130E+04   -.726E-04 0.117E-02 0.302E+01   -.963E-05 -.465E-05 -.120E+00
   -.758E-01 -.752E-01 0.129E+04   0.777E-01 0.778E-01 -.130E+04   -.226E-02 -.300E-02 0.302E+01   0.104E-04 0.900E-05 -.120E+00
   -.531E-01 -.786E-01 -.130E+04   0.690E-01 0.769E-01 0.130E+04   -.187E-01 0.104E-01 -.459E+01   -.786E-06 0.238E-04 0.607E-01
   -.190E+01 -.174E+00 -.130E+04   0.182E+01 0.254E+00 0.130E+04   0.166E+00 -.994E-01 -.435E+01   -.145E-03 0.324E-04 0.606E-01
   -.689E-01 0.352E-01 -.425E+03   0.751E-01 -.318E-01 0.425E+03   -.821E-02 -.499E-02 0.266E+00   0.736E-05 0.197E-04 -.195E-01
   -.388E+00 -.565E+00 -.425E+03   0.376E+00 0.560E+00 0.425E+03   0.183E-01 0.784E-02 0.263E+00   -.306E-04 -.232E-04 -.195E-01
   -.322E-02 0.362E+00 0.424E+03   0.275E-02 -.337E+00 -.424E+03   0.492E-03 -.275E-01 -.150E+00   0.672E-05 0.192E-04 -.854E-01
   0.205E+00 0.350E-01 0.425E+03   -.211E+00 -.351E-01 -.425E+03   0.736E-02 0.492E-05 -.104E+00   -.161E-04 -.479E-06 -.853E-01
   -.153E-02 0.343E-02 0.129E+04   0.182E-02 -.401E-02 -.130E+04   -.308E-03 0.888E-03 0.302E+01   0.699E-05 -.511E-05 -.120E+00
   0.778E-01 0.746E-01 0.129E+04   -.812E-01 -.769E-01 -.130E+04   0.411E-02 0.293E-02 0.302E+01   -.134E-04 -.858E-05 -.120E+00
   0.377E-01 0.228E+01 -.130E+04   -.678E-01 -.223E+01 0.130E+04   0.349E-01 -.138E+00 -.445E+01   -.695E-05 0.142E-03 0.609E-01
   0.786E-01 0.117E+00 -.130E+04   -.842E-01 -.173E+00 0.130E+04   -.631E-02 0.713E-01 -.462E+01   -.257E-04 -.268E-04 0.607E-01
   -.262E-01 0.278E+00 -.425E+03   0.250E-01 -.296E+00 0.425E+03   0.159E-02 0.244E-01 0.268E+00   -.481E-05 -.253E-04 -.195E-01
   0.688E+00 0.484E+00 -.425E+03   -.681E+00 -.474E+00 0.425E+03   -.711E-02 -.147E-01 0.288E+00   0.193E-04 0.314E-04 -.195E-01
   0.479E-02 -.367E+00 0.424E+03   -.474E-02 0.349E+00 -.424E+03   -.854E-04 0.211E-01 -.140E+00   0.177E-05 -.222E-04 -.853E-01
   0.369E+00 -.369E-01 0.424E+03   -.347E+00 0.373E-01 -.424E+03   -.238E-01 0.158E-03 -.142E+00   0.163E-04 -.279E-05 -.854E-01
   -.111E-02 -.310E-02 0.129E+04   0.947E-03 0.388E-02 -.130E+04   0.242E-03 -.739E-03 0.302E+01   0.838E-05 -.314E-05 -.120E+00
   0.757E-01 -.746E-01 0.129E+04   -.777E-01 0.769E-01 -.130E+04   0.237E-02 -.253E-02 0.302E+01   -.103E-04 0.105E-04 -.120E+00
   0.674E-01 -.153E+01 -.129E+04   -.817E-01 0.139E+01 0.130E+04   0.173E-01 0.215E+00 -.421E+01   -.209E-05 -.157E-03 0.603E-01
   0.169E+01 -.202E+00 -.130E+04   -.158E+01 0.267E+00 0.130E+04   -.185E+00 -.821E-01 -.429E+01   0.150E-03 0.247E-04 0.605E-01
   0.876E-01 -.346E+00 -.434E+03   -.909E-01 0.355E+00 0.434E+03   0.517E-02 -.160E-01 -.189E+00   -.906E-05 0.291E-04 -.193E-01
   0.381E+00 -.470E+00 -.425E+03   -.368E+00 0.462E+00 0.425E+03   -.185E-01 0.123E-01 0.266E+00   0.361E-04 -.311E-04 -.195E-01
   0.259E-01 -.111E+00 0.240E+02   0.294E-12 0.398E-12 0.000E+00   -.210E-01 0.102E+00 -.176E+02   0.122E-04 -.128E-04 -.295E+01

 POSITION                                       TOTAL-FORCE (eV/Angst)
      0.00003      6.33086      3.12289        -0.000052     -0.000461      0.546586
      2.11028      0.00012      3.12289         0.000474      0.000041      0.547053
      0.00003      0.00012      5.23314        -0.000721      0.001758      0.038203
      2.11028      6.33086      5.23314         0.006933     -0.005335      0.039314
      8.44063      6.33039      7.35551         0.001266      0.005606      0.065995
      2.11078      0.00083      7.35585        -0.006366     -0.004451      0.063026
      8.44080      0.00079      9.46177         0.002157     -0.010343     -0.117077
      2.10859      6.33174      9.45310        -0.004920      0.023019     -0.058021
      0.00003      2.11037      3.12289        -0.000022      0.000435      0.547805
      2.11028      4.22062      3.12289         0.000857     -0.000054      0.549301
      0.00003      4.22062      5.23314         0.000571     -0.001665      0.046469
      2.11028      2.11037      5.23314         0.003625      0.005783      0.037893
      8.44095      2.11097      7.35653         0.001141     -0.006474      0.057146
      2.11422      4.22008      7.36089        -0.000684      0.003566      0.035214
      8.44026      4.22014      9.45791         0.016742      0.009784     -0.093901
      2.11088      2.11014      9.45936        -0.059078     -0.031634     -0.129994
      4.22052      6.33086      3.12289         0.000010     -0.000867      0.549750
      6.33077      0.00012      3.12289        -0.000504      0.000012      0.547434
      4.22052      0.00012      5.23314         0.000518     -0.002775      0.046437
      6.33077      6.33086      5.23314        -0.007515     -0.004629      0.038993
      4.22069      6.32676      7.36108        -0.001084      0.000526      0.049072
      6.33019      0.00051      7.35624         0.006373     -0.004320      0.060847
      4.22053      0.00252      9.45800        -0.002298     -0.056954     -0.091090
      6.33166      6.33070      9.45617         0.010393      0.041690     -0.087168
      4.22052      2.11037      3.12289         0.000002      0.000765      0.548798
      6.33077      4.22062      3.12289        -0.000863     -0.000043      0.549067
      4.22052      4.22062      5.23314        -0.000192      0.000881      0.052041
      6.33077      2.11037      5.23314        -0.003569      0.004470      0.037902
      4.22065      2.11370      7.36138        -0.001412      0.001488      0.005640
      6.32700      4.22013      7.36111        -0.000133      0.003828      0.022000
      4.22206      4.21481      9.50847        -0.023343      0.079795     -0.476002
      6.33029      2.11032      9.45976         0.058744     -0.044986     -0.138864
      0.00003      6.33086      5.23314        -0.000615      0.002957      0.055355
      2.11028      0.00012      5.23314        -0.002758      0.000583      0.055090
      0.00003      0.00012      3.12289         0.000134     -0.000230     -0.443051
      2.11028      6.33086      3.12289        -0.001346      0.001169     -0.443910
      0.00013      6.33197      9.51031        -0.009759     -0.013127     -0.165411
      2.10901      8.44044      9.51015         0.012771      0.029976     -0.159991
      0.00005      8.44086      7.35222        -0.000778      0.002691     -0.011094
      2.11018      6.33127      7.35190         0.002262     -0.005094     -0.002555
      0.00003      2.11037      5.23314         0.000276     -0.002388      0.054900
      2.11028      4.22062      5.23314         0.007317      0.000269      0.064042
      0.00003      4.22062      3.12289        -0.000032      0.000442     -0.444211
      2.11028      2.11037      3.12289        -0.000697     -0.000930     -0.444140
      0.00022      2.10943      9.51035        -0.006362      0.011872     -0.147661
      2.10338      4.22190      9.50927         0.113549     -0.036729     -0.073643
      0.00041      4.22097      7.35103        -0.003960     -0.002910      0.009451
      2.10945      2.11011      7.35178         0.010461      0.004357      0.011150
      4.22052      6.33086      5.23314         0.000064     -0.007883      0.062672
      6.33077      0.00012      5.23314         0.002616     -0.000287      0.055154
      4.22052      0.00012      3.12289        -0.000100      0.000345     -0.444287
      6.33077      6.33086      3.12289         0.001349      0.000970     -0.444000
      4.21977      6.33800      9.51522         0.011937     -0.115374     -0.112566
      6.33184      8.44035      9.51055        -0.013402      0.027737     -0.155785
      4.22043      8.43964      7.35109         0.000739      0.012729      0.009790
      6.33067      6.33140      7.35218        -0.002214     -0.007659      0.001724
      4.22052      2.11037      5.23314        -0.000113      0.006120      0.067884
      6.33077      4.22062      5.23314        -0.006800      0.000472      0.065809
      4.22052      4.22062      3.12289         0.000091     -0.000243     -0.445967
      6.33077      2.11037      3.12289         0.000730     -0.000770     -0.444207
      4.22040      2.10272      9.50165         0.006320      0.117291     -0.011999
      6.33763      4.22131      9.50569        -0.111422     -0.031267     -0.048772
      4.22031      4.22133      7.35999         0.003089     -0.010486      0.025314
      6.33165      2.10974      7.35154        -0.010397      0.006940      0.015047
    total drift:                                0.001352      0.003261      0.144296

  FREE ENERGIE OF THE ION-ELECTRON SYSTEM (eV)
  free  energy   TOTEN  =      -467.36466096 eV

  energy  without entropy=     -467.36466096  energy(sigma->0) =     -467.36466096