 vasp.6.4.2 20Jul23 (build Feb 22 2024 13:53:45) complex
 executed on              LinuxNV date 2024.08.27  14:31:52
 OpenACC runtime initialized ...    4 GPUs detected

 INCAR:
   SYSTEM = Oxide-Surface
   ISMEAR = 0
   SIGMA = 0.05
   EDIFF = 1E-5
   ALGO = Normal
   IBRION = -1
   NSW = 0
   ISYM = 0
   DIPOL = 0.5 0.5 0.5
   IDIPOL = 3
   LDIPOL = .TRUE.
   ISTART = 1
   GGA = MK
   LUSE_VDW = .TRUE.
   PARAM1 = 0.1234
   PARAM2 = 0.711357
   ZAB_VDW = -1.8867
   AGGAC = 0.0
   ENCUT = 1000
   PREC = Normal
   PRECFOCK = Normal
   LASPH = .TRUE.
   LREAL = Auto
   ISPIN = 1
   NELM = 200
   NELMIN = 8
   NCORE = 1
   KPAR = 1
   LWAVE = .FALSE.
   LCHARG = .FALSE.

 POTCAR:    PAW_PBE C_h 06Feb2004
 POTCAR:    PAW_PBE H_h 06Feb2004
 POTCAR:    PAW_PBE Mg_sv 12Apr2007
 POTCAR:    PAW_PBE O_h 06Feb2004
|               ----> ADVICE to this user running VASP <----                  |
|     You have switched on vdW-DFT.                                           |
|     This routine was written and supplied by Jiri Klimes. We recommend      |
|     that you carefully read and cite the following publications:            |
|       J. Klimes, D.R. Bowler, A. Michelides                                 |
|          J. Phys.: Cond Matt. 22 022201 (2010)                              |
|       J. Klimes, D.R. Bowler, A. Michelides                                 |
|          Phys. Rev. B. 83, 195131 (2011)                                    |
|     and references therein.                                                 |

   TITEL  = PAW_PBE C_h 06Feb2004
   POMASS =   12.011; ZVAL   =    4.000    mass and valenz
   ENMAX  =  700.000; ENMIN  =  500.000 eV

[...]

   TITEL  = PAW_PBE Mg_sv 12Apr2007
   POMASS =   24.305; ZVAL   =   10.000    mass and valenz
   ENMAX  =  495.223; ENMIN  =  371.417 eV

   TITEL  = PAW_PBE O_h 06Feb2004
   POMASS =   16.000; ZVAL   =    6.000    mass and valenz
   ENMAX  =  700.000; ENMIN  =  500.000 eV

 Optimization of the real space projectors (new method)

 maximal supplied QI-value         = 34.20
 optimisation between [QCUT,QGAM] = [ 16.08, 32.15] = [ 72.37,289.48] Ry
 Optimized for a Real-space Cutoff    0.71 Angstroem

   l    n(q)    QCUT    max X(q) W(low)/X(q) W(high)/X(q)  e(spline)
   0      7    16.076   134.812    0.49E-03    0.92E-03    0.59E-07
   0      7    16.076    80.524    0.48E-03    0.91E-03    0.58E-07
   1      6    16.076    79.026    0.37E-03    0.58E-03    0.12E-06
   1      6    16.076    45.188    0.36E-03    0.56E-03    0.12E-06
 Optimization of the real space projectors (new method)

[...]

   l    n(q)    QCUT    max X(q) W(low)/X(q) W(high)/X(q)  e(spline)
   0      9    16.140     8.730    0.14E-04    0.12E-04    0.27E-07
   0      9    16.140     8.910    0.19E-04    0.17E-04    0.41E-07
   1      9    16.140     2.513    0.16E-04    0.28E-04    0.54E-07
   1      9    16.140     3.341    0.27E-04    0.13E-03    0.17E-06
   2      9    16.140     3.683    0.18E-03    0.21E-03    0.81E-07
 Optimization of the real space projectors (new method)

 maximal supplied QI-value         = 34.20
 optimisation between [QCUT,QGAM] = [ 16.08, 32.15] = [ 72.37,289.48] Ry
 Optimized for a Real-space Cutoff    0.71 Angstroem

   l    n(q)    QCUT    max X(q) W(low)/X(q) W(high)/X(q)  e(spline)
   0      7    16.076   280.207    0.42E-03    0.69E-03    0.60E-07
   0      7    16.076   228.978    0.42E-03    0.69E-03    0.61E-07
   1      6    16.076    86.127    0.11E-03    0.66E-03    0.10E-06
   1      6    16.076    65.368    0.11E-03    0.65E-03    0.10E-06
|               ----> ADVICE to this user running VASP <----                  |
|     You enforced a specific xc type in the INCAR file but a different       |
|     type was found in the POTCAR file.                                      |
|     I HOPE YOU KNOW WHAT YOU ARE DOING!                                     |

  PAW_PBE C_h 06Feb2004                 :
  PAW_PBE H_h 06Feb2004                 :
  PAW_PBE Mg_sv 12Apr2007               :
  PAW_PBE O_h 06Feb2004                 :

 POSCAR:  C  H Mg  O
  positions in direct lattice
 exchange correlation table for  LEXCH =       43
   RHO(1)=    0.500       N(1)  =     2000
   RHO(2)=  100.500       N(2)  =     4000

 ion  position               nearest neighbor table
   1  0.625  0.500  0.760-   3 1.10   2 1.10   4 1.10   5 1.10
   2  0.625  0.606  0.797-   1 1.10
   3  0.625  0.394  0.797-   1 1.10
   4  0.732  0.500  0.723-   1 1.10
   5  0.518  0.500  0.723-   1 1.10
   6  0.125  0.750  0.203-
   7  0.375  0.000  0.203-
   8  0.125  0.000  0.327-
   9  0.375  0.750  0.327-
  10  0.125  0.750  0.452-
  11  0.375  1.000  0.452-
  12  0.125  1.000  0.576-
  13  0.375  0.750  0.576-
  14  0.125  0.250  0.203-
  15  0.375  0.500  0.203-
  16  0.125  0.500  0.327-
  17  0.375  0.250  0.327-
  18  0.125  0.250  0.452-
  19  0.375  0.500  0.452-
  20  0.125  0.500  0.576-
  21  0.375  0.250  0.576-
  22  0.625  0.750  0.203-
  23  0.875  0.000  0.203-
  24  0.625  0.000  0.327-
  25  0.875  0.750  0.327-
  26  0.625  0.750  0.452-
  27  0.875  0.000  0.452-
  28  0.625  1.000  0.576-
  29  0.875  0.750  0.576-
  30  0.625  0.250  0.203-
  31  0.875  0.500  0.203-
  32  0.625  0.500  0.327-
  33  0.875  0.250  0.327-
  34  0.625  0.250  0.452-
  35  0.875  0.500  0.452-
  36  0.625  0.500  0.576-
  37  0.875  0.250  0.576-
  38  0.125  0.750  0.327-
  39  0.375  0.000  0.327-
  40  0.125  0.000  0.203-
  41  0.375  0.750  0.203-
  42  0.125  0.750  0.578-
  43  0.375  0.000  0.579-
  44  0.125  1.000  0.452-
  45  0.375  0.750  0.452-
  46  0.125  0.250  0.327-
  47  0.375  0.500  0.327-
  48  0.125  0.500  0.203-
  49  0.375  0.250  0.203-
  50  0.125  0.250  0.578-
  51  0.375  0.500  0.578-
  52  0.125  0.500  0.452-
  53  0.375  0.250  0.452-
  54  0.625  0.750  0.327-
  55  0.875  0.000  0.327-
  56  0.625  0.000  0.203-
  57  0.875  0.750  0.203-
  58  0.625  0.750  0.578-
  59  0.875  0.000  0.579-
  60  0.625  1.000  0.452-
  61  0.875  0.750  0.452-
  62  0.625  0.250  0.327-
  63  0.875  0.500  0.327-
  64  0.625  0.500  0.203-
  65  0.875  0.250  0.203-
  66  0.625  0.250  0.578-
  67  0.875  0.500  0.578-
  68  0.625  0.500  0.452-
  69  0.875  0.250  0.452-

IMPORTANT INFORMATION: All symmetrisations will be switched off!
NOSYMM: (Re-)initialisation of all symmetry stuff for point group C_1.

                                     Primitive cell

  volume of cell :    1211.2538

  direct lattice vectors                    reciprocal lattice vectors
     8.440984654  0.000000000  0.000000000     0.118469591  0.000000000  0.000000000
     0.000000000  8.440984654  0.000000000     0.000000000  0.118469591  0.000000000
     0.000000000  0.000000000 17.000000000     0.000000000  0.000000000  0.058823529

  length of vectors
     8.440984654  8.440984654 17.000000000     0.118469591  0.118469591  0.058823529

  position of ions in fractional coordinates (direct lattice)
     0.624874723  0.499997702  0.760129327
     0.624874667  0.606400246  0.797180401
     0.624874661  0.393601766  0.797179749
     0.731963124  0.500000082  0.723349296
     0.517786221  0.500000086  0.723349275
     0.124874701  0.750000001  0.202819599
     0.374874701  0.000000001  0.202819599
     0.124874701  0.000000001  0.326951726
     0.374874701  0.750000001  0.326951726
     0.124874704  0.750032169  0.451932988
     0.374867470  0.999999999  0.451925450
     0.124874712  0.999999992  0.575783509
     0.374991216  0.750097341  0.575612586
     0.124874701  0.250000001  0.202819599
     0.374874701  0.500000001  0.202819599
     0.124874701  0.500000001  0.326951726
     0.374874701  0.250000001  0.326951726
     0.124874708  0.249967823  0.451932992
     0.374983146  0.500000002  0.451948183
     0.124874712  0.499999995  0.575568334
     0.374991205  0.249902632  0.575612581
     0.624874701  0.750000001  0.202819599
     0.874874701  0.000000001  0.202819599
     0.624874701  0.000000001  0.326951726
     0.874874701  0.750000001  0.326951726
     0.624874696  0.749901113  0.451984522
     0.874881955  0.000000006  0.451925445
     0.624874708  0.999999999  0.575658965
     0.874758227  0.750097345  0.575612601
     0.624874701  0.250000001  0.202819599
     0.874874701  0.500000001  0.202819599
     0.624874701  0.500000001  0.326951726
     0.874874701  0.250000001  0.326951726
     0.624874702  0.250098875  0.451984502
     0.874766288  0.499999992  0.451948190
     0.624874715  0.499999989  0.576325730
     0.874758224  0.249902626  0.575612601
     0.124874701  0.750000001  0.326951726
     0.374874701  0.000000001  0.326951726
     0.124874701  0.000000001  0.202819599
     0.374874701  0.750000001  0.202819599
     0.124874712  0.750041777  0.578461591
     0.374814565  0.000000004  0.578506137
     0.124874716  0.999999982  0.451658755
     0.374798799  0.750012793  0.451587177
     0.124874701  0.250000001  0.326951726
     0.374874701  0.500000001  0.326951726
     0.124874701  0.500000001  0.202819599
     0.374874701  0.250000001  0.202819599
     0.124874718  0.249958210  0.578461567
     0.374624152  0.499999983  0.578487550
     0.124874718  0.500000004  0.451540272
     0.374798803  0.249987199  0.451587172
     0.624874701  0.750000001  0.326951726
     0.874874701  0.000000001  0.326951726
     0.624874701  0.000000001  0.202819599
     0.874874701  0.750000001  0.202819599
     0.624874705  0.750141603  0.578186521
     0.874934875  0.000000005  0.578506145
     0.624874715  0.999999988  0.451528368
     0.874950615  0.750012792  0.451587179
     0.624874701  0.250000001  0.326951726
     0.874874701  0.500000001  0.326951726
     0.624874701  0.500000001  0.202819599
     0.874874701  0.250000001  0.202819599
     0.624874705  0.249858389  0.578186513
     0.875125299  0.499999988  0.578487554
     0.624874718  0.499999993  0.451751169
     0.874950602  0.249987190  0.451587179

  ion indices of the primitive-cell ions
   primitive index   ion index
                 1           1
                 2           2
                 3           3
                 4           4
                 5           5
                 6           6
                 7           7
                 8           8
                 9           9
                10          10
                11          11
                12          12
                13          13
                14          14
                15          15
                16          16
                17          17
                18          18
                19          19
                20          20
                21          21
                22          22
                23          23
                24          24
                25          25
                26          26
                27          27
                28          28
                29          29
                30          30
                31          31
                32          32
                33          33
                34          34
                35          35
                36          36
                37          37
                38          38
                39          39
[...]
  Alpha Z  1220.20342  1220.20342  1220.20342
  Ewald  108338.14358108335.51405************    -0.00000    -0.00271    -0.00001
  Hartree125051.27831125049.93017************    -0.00000    -0.00014     0.00036
  E(xc)   -3245.35107 -3245.36309 -3246.64711    -0.00000    -0.00000    -0.00003
  Local  ************************242850.30626     0.00000     0.00203    -0.00043
  n-local -5641.83213 -5641.85009 -5641.28890    -0.00000    -0.00000     0.05185
  augment   726.79637   726.70250   717.46468     0.00000    -0.00000    -0.00072
  Kinetic 12597.27751 12597.33022 12610.42871    -0.00000     0.00009     0.00301
  Fock        0.00000     0.00000     0.00000     0.00000     0.00000     0.00000
  Total     -25.14265   -25.29879     0.46440    -0.00000    -0.00074     0.05402
  in kB     -33.25726   -33.46380     0.61428    -0.00000    -0.00098     0.07146

 VOLUME and BASIS-vectors are now :
  energy-cutoff  :     1000.00
  volume of cell :     1211.25
      direct lattice vectors                 reciprocal lattice vectors
     8.440984654  0.000000000  0.000000000     0.118469591  0.000000000  0.000000000
     0.000000000  8.440984654  0.000000000     0.000000000  0.118469591  0.000000000
     0.000000000  0.000000000 17.000000000     0.000000000  0.000000000  0.058823529

  length of vectors
     8.440984654  8.440984654 17.000000000     0.118469591  0.118469591  0.058823529

 FORCES acting on ions
    electron-ion (+dipol)            ewald-force                    non-local-force                 convergence-correction
   -.314E-04 -.156E-02 -.674E+03   -.198E-04 0.141E-02 0.674E+03   0.154E-01 0.174E-02 -.131E+00   0.438E-06 -.187E-05 -.220E-01
   -.828E-05 -.429E+02 -.151E+03   -.217E-04 0.474E+02 0.154E+03   0.642E-03 -.455E+01 -.318E+01   0.609E-07 -.215E-02 -.600E-02
   -.564E-05 0.429E+02 -.151E+03   -.246E-04 -.474E+02 0.154E+03   0.642E-03 0.455E+01 -.318E+01   0.932E-07 0.215E-02 -.600E-02
   -.434E+02 -.828E-03 -.186E+03   0.480E+02 0.885E-03 0.183E+03   -.461E+01 -.121E-03 0.307E+01   -.141E-02 -.662E-06 -.609E-02
   0.434E+02 -.830E-03 -.186E+03   -.480E+02 0.887E-03 0.183E+03   0.461E+01 -.121E-03 0.307E+01   0.141E-02 -.530E-06 -.609E-02
   -.231E-02 -.774E+00 0.244E+04   -.362E-05 0.774E+00 -.243E+04   0.303E-02 0.160E-03 -.886E+01   -.450E-05 -.465E-03 0.472E-01
   0.804E+00 0.132E-04 0.244E+04   -.806E+00 -.717E-05 -.243E+04   -.152E-02 0.423E-05 -.886E+01   0.406E-03 -.105E-04 0.474E-01
   -.465E-03 -.861E-05 0.823E+03   -.690E-05 -.756E-07 -.824E+03   0.285E-02 -.593E-06 0.668E+00   0.265E-05 0.887E-05 0.151E-01
   0.834E+00 -.882E+00 0.825E+03   -.832E+00 0.882E+00 -.825E+03   -.135E-02 -.627E-04 0.642E+00   0.223E-03 -.141E-03 0.150E-01
   -.121E-02 -.290E+01 -.786E+03   -.280E-04 0.290E+01 0.786E+03   -.132E-02 -.285E-02 -.251E+00   -.119E-04 -.648E-04 0.293E-02
   0.291E+01 0.441E-04 -.786E+03   -.290E+01 -.539E-04 0.786E+03   -.126E-01 -.125E-04 -.233E+00   0.350E-03 0.207E-04 0.306E-02
   -.294E-03 0.781E-04 -.239E+04   0.258E-04 -.874E-04 0.239E+04   0.202E-02 -.890E-05 0.746E+01   0.437E-05 0.183E-04 -.232E-01
   0.184E+02 -.185E+02 -.237E+04   -.184E+02 0.186E+02 0.236E+04   -.504E-01 -.586E-01 0.747E+01   0.109E-02 -.338E-03 -.206E-01
   -.231E-02 0.774E+00 0.244E+04   -.324E-05 -.774E+00 -.243E+04   0.303E-02 -.162E-03 -.886E+01   -.680E-05 0.465E-03 0.472E-01
   0.102E+01 -.129E-04 0.244E+04   -.102E+01 0.705E-05 -.243E+04   -.295E-02 -.310E-05 -.886E+01   0.407E-03 0.860E-05 0.468E-01
   -.450E-03 0.957E-05 0.825E+03   -.208E-04 -.986E-06 -.825E+03   0.285E-02 0.580E-05 0.615E+00   0.318E-05 -.131E-04 0.150E-01
   0.834E+00 0.882E+00 0.825E+03   -.832E+00 -.882E+00 -.825E+03   -.135E-02 0.634E-04 0.642E+00   0.238E-03 0.142E-03 0.150E-01
   -.120E-02 0.290E+01 -.786E+03   -.460E-04 -.290E+01 0.786E+03   -.133E-02 0.285E-02 -.251E+00   0.866E-05 0.593E-04 0.293E-02
   0.482E+01 -.122E-04 -.778E+03   -.479E+01 0.188E-04 0.779E+03   -.318E-01 -.233E-05 -.269E+00   0.408E-03 -.789E-05 0.287E-02
   -.386E-03 -.660E-04 -.238E+04   0.447E-04 0.706E-04 0.237E+04   0.462E-03 -.946E-06 0.744E+01   0.205E-04 -.390E-05 -.205E-01
   0.184E+02 0.185E+02 -.237E+04   -.184E+02 -.186E+02 0.236E+04   -.505E-01 0.586E-01 0.747E+01   0.112E-02 0.338E-03 -.206E-01
   -.233E-02 -.986E+00 0.244E+04   0.404E-05 0.985E+00 -.243E+04   0.302E-02 0.159E-02 -.886E+01   0.170E-04 -.463E-03 0.469E-01
   -.804E+00 0.126E-04 0.244E+04   0.806E+00 -.778E-05 -.243E+04   -.436E-02 0.235E-05 -.886E+01   -.409E-03 -.753E-05 0.474E-01
   -.478E-03 0.201E-04 0.825E+03   0.892E-05 -.406E-04 -.825E+03   0.286E-02 -.666E-05 0.596E+00   0.760E-06 0.250E-04 0.151E-01
   -.832E+00 -.882E+00 0.825E+03   0.832E+00 0.882E+00 -.825E+03   0.332E-04 -.597E-04 0.642E+00   -.228E-03 -.143E-03 0.150E-01
   -.142E-02 -.486E+01 -.778E+03   0.102E-03 0.484E+01 0.778E+03   -.133E-02 0.233E-01 -.432E+00   0.311E-05 -.934E-04 0.322E-02
   -.291E+01 0.110E-03 -.786E+03   0.290E+01 -.104E-03 0.786E+03   0.798E-02 -.870E-05 -.234E+00   -.357E-03 0.114E-05 0.307E-02
   -.389E-03 0.161E-03 -.238E+04   0.662E-04 -.176E-03 0.237E+04   0.495E-03 -.145E-04 0.746E+01   -.247E-05 0.308E-04 -.207E-01
   -.184E+02 -.185E+02 -.237E+04   0.184E+02 0.186E+02 0.236E+04   0.456E-01 -.582E-01 0.747E+01   -.109E-02 -.313E-03 -.206E-01
   -.233E-02 0.986E+00 0.244E+04   0.334E-05 -.985E+00 -.243E+04   0.302E-02 -.159E-02 -.886E+01   0.124E-04 0.463E-03 0.469E-01
   -.102E+01 -.142E-04 0.244E+04   0.102E+01 0.757E-05 -.243E+04   -.294E-02 -.324E-05 -.886E+01   -.414E-03 0.102E-04 0.468E-01
   -.490E-03 -.189E-04 0.826E+03   0.260E-04 0.395E-04 -.826E+03   0.286E-02 0.409E-05 0.674E+00   -.542E-05 -.236E-04 0.151E-01
   -.832E+00 0.882E+00 0.825E+03   0.832E+00 -.882E+00 -.825E+03   0.355E-04 0.589E-04 0.642E+00   -.242E-03 0.142E-03 0.150E-01
   -.135E-02 0.486E+01 -.778E+03   0.444E-04 -.484E+01 0.778E+03   -.133E-02 -.233E-01 -.432E+00   -.453E-05 0.101E-03 0.323E-02
   -.482E+01 -.404E-04 -.778E+03   0.479E+01 0.388E-04 0.779E+03   0.273E-01 0.238E-05 -.269E+00   -.398E-03 0.516E-05 0.285E-02
   -.264E-03 -.281E-03 -.231E+04   0.599E-04 0.293E-03 0.230E+04   0.835E-03 0.244E-04 0.742E+01   -.358E-04 -.412E-04 -.209E-01
   -.184E+02 0.185E+02 -.237E+04   0.184E+02 -.186E+02 0.236E+04   0.456E-01 0.582E-01 0.747E+01   -.112E-02 0.317E-03 -.206E-01
   0.686E-03 -.505E+00 0.494E+03   -.963E-05 0.496E+00 -.493E+03   -.180E-02 0.111E-01 -.609E-01   -.311E-05 -.125E-03 0.119E-01
   0.504E+00 0.677E-05 0.494E+03   -.494E+00 -.108E-04 -.493E+03   -.131E-01 -.482E-05 -.625E-01   0.165E-03 0.735E-05 0.120E-01
   0.410E-04 0.407E-05 0.148E+04   -.143E-05 -.290E-05 -.148E+04   -.118E-02 0.366E-06 0.269E+01   -.468E-06 -.151E-05 0.303E-01
   0.544E+00 -.527E+00 0.148E+04   -.546E+00 0.527E+00 -.148E+04   0.177E-02 0.923E-03 0.269E+01   0.234E-03 -.281E-03 0.299E-01
   0.114E-04 -.607E+01 -.146E+04   0.345E-04 0.606E+01 0.147E+04   0.200E-03 0.498E-02 -.467E+01   0.151E-05 -.405E-03 -.117E-01
   0.590E+01 0.118E-03 -.146E+04   -.590E+01 -.118E-03 0.147E+04   0.524E-02 -.707E-05 -.469E+01   0.663E-03 0.585E-05 -.118E-01
   0.933E-03 -.594E-05 -.468E+03   -.162E-04 -.201E-06 0.467E+03   0.134E-02 0.210E-05 0.249E+00   0.504E-06 0.364E-05 0.534E-02
   0.229E+01 -.228E+01 -.463E+03   -.228E+01 0.228E+01 0.463E+03   -.169E-01 0.754E-02 0.285E+00   0.161E-03 -.320E-05 0.543E-02
   0.683E-03 0.505E+00 0.494E+03   -.103E-04 -.496E+00 -.493E+03   -.181E-02 -.111E-01 -.609E-01   0.507E-05 0.126E-03 0.119E-01
   0.562E+00 -.332E-05 0.494E+03   -.574E+00 0.860E-05 -.494E+03   0.148E-01 0.343E-05 -.627E-01   0.157E-03 -.879E-05 0.118E-01
   0.432E-04 -.480E-05 0.148E+04   -.258E-05 0.282E-05 -.148E+04   -.118E-02 -.638E-07 0.270E+01   -.152E-05 0.155E-05 0.298E-01
   0.544E+00 0.527E+00 0.148E+04   -.546E+00 -.527E+00 -.148E+04   0.177E-02 -.925E-03 0.269E+01   0.234E-03 0.279E-03 0.299E-01
   0.452E-04 0.607E+01 -.146E+04   -.355E-06 -.606E+01 0.147E+04   0.195E-03 -.498E-02 -.467E+01   0.681E-05 0.398E-03 -.117E-01
   0.189E+02 -.992E-04 -.144E+04   -.188E+02 0.917E-04 0.144E+04   -.725E-01 0.174E-04 -.468E+01   0.166E-03 -.756E-05 -.106E-01
   0.107E-02 -.436E-06 -.464E+03   -.896E-05 -.271E-06 0.463E+03   -.787E-03 -.142E-05 0.306E+00   -.417E-05 0.375E-06 0.530E-02
   0.229E+01 0.228E+01 -.463E+03   -.228E+01 -.228E+01 0.463E+03   -.169E-01 -.754E-02 0.285E+00   0.151E-03 0.294E-06 0.542E-02
   0.659E-03 -.567E+00 0.494E+03   0.157E-04 0.581E+00 -.494E+03   -.181E-02 -.172E-01 -.688E-01   0.341E-05 -.119E-03 0.119E-01
   -.506E+00 0.190E-04 0.494E+03   0.494E+00 -.164E-04 -.493E+03   0.147E-01 -.218E-05 -.625E-01   -.168E-03 -.162E-05 0.120E-01
   0.412E-04 0.158E-05 0.148E+04   0.157E-05 -.613E-05 -.148E+04   -.118E-02 0.943E-06 0.269E+01   0.487E-06 0.346E-05 0.300E-01
   -.546E+00 -.527E+00 0.148E+04   0.546E+00 0.527E+00 -.148E+04   0.110E-02 0.927E-03 0.269E+01   -.232E-03 -.286E-03 0.299E-01
   -.158E-04 -.186E+02 -.144E+04   0.653E-04 0.186E+02 0.145E+04   0.143E-02 0.832E-01 -.473E+01   0.198E-05 -.354E-04 -.101E-01
   -.590E+01 0.132E-03 -.146E+04   0.590E+01 -.130E-03 0.147E+04   0.529E-02 -.464E-05 -.469E+01   -.668E-03 0.857E-06 -.118E-01
   0.103E-02 0.354E-04 -.464E+03   0.306E-04 -.365E-04 0.463E+03   -.765E-03 -.624E-05 0.267E+00   -.173E-05 0.744E-05 0.553E-02
   -.229E+01 -.228E+01 -.463E+03   0.228E+01 0.228E+01 0.463E+03   0.204E-01 0.628E-02 0.285E+00   -.157E-03 0.488E-05 0.542E-02
   0.665E-03 0.567E+00 0.494E+03   0.926E-05 -.581E+00 -.494E+03   -.181E-02 0.172E-01 -.688E-01   0.130E-05 0.121E-03 0.119E-01
   -.564E+00 -.149E-04 0.494E+03   0.574E+00 0.129E-04 -.494E+03   -.131E-01 0.719E-06 -.627E-01   -.156E-03 0.135E-05 0.118E-01
   0.384E-04 -.390E-05 0.148E+04   0.278E-05 0.605E-05 -.148E+04   -.118E-02 -.186E-06 0.269E+01   0.214E-05 -.221E-05 0.296E-01
   -.546E+00 0.527E+00 0.148E+04   0.546E+00 -.527E+00 -.148E+04   0.110E-02 -.925E-03 0.269E+01   -.238E-03 0.286E-03 0.299E-01
   0.189E-04 0.186E+02 -.144E+04   0.340E-04 -.186E+02 0.145E+04   0.143E-02 -.832E-01 -.473E+01   -.528E-05 0.403E-04 -.100E-01
   -.189E+02 -.892E-04 -.144E+04   0.188E+02 0.834E-04 0.144E+04   0.855E-01 0.132E-04 -.468E+01   -.161E-03 -.576E-05 -.107E-01
   0.799E-03 -.369E-04 -.460E+03   0.392E-04 0.367E-04 0.459E+03   0.183E-02 0.829E-05 0.125E+00   -.941E-05 -.586E-05 0.526E-02
   -.229E+01 0.228E+01 -.463E+03   0.228E+01 -.228E+01 0.463E+03   0.204E-01 -.629E-02 0.285E+00   -.159E-03 -.392E-05 0.543E-02
   -.110E-01 -.193E-02 0.227E+02   0.391E-12 0.227E-12 -.301E-11   0.356E-01 0.204E-02 -.233E+02   -.273E-04 0.198E-04 0.597E+00

 POSITION                                       TOTAL-FORCE (eV/Angst)
      5.27456      4.22047     12.92220         0.015040      0.001588      0.033581
      5.27456      5.11862     13.55207         0.000256      0.006262      0.002237
      5.27456      3.32239     13.55206         0.000256     -0.007590      0.003071
      6.17849      4.22049     12.29694         0.025276     -0.000067     -0.008267
      4.37063      4.22049     12.29694        -0.028362     -0.000067     -0.008911
      1.05407      6.33074      3.44793         0.000359     -0.000091      0.311483
      3.16431      0.00000      3.44793        -0.003391     -0.000002      0.308389
      1.05407      0.00000      5.55818         0.002029     -0.000002      0.042880
      3.16431      6.33074      5.55818         0.000430     -0.000102      0.045568
      1.05407      6.33101      7.68286        -0.002928     -0.002794      0.035514
      3.16425      8.44098      7.68273         0.001937     -0.000003      0.031742
      1.05407      8.44098      9.78832         0.001402     -0.000002      0.040960
      3.16530      6.33156      9.78541        -0.007771      0.004363      0.033560
      1.05407      2.11025      3.44793         0.000360      0.000087      0.311483
      3.16431      4.22049      3.44793        -0.003112     -0.000002      0.308006
      1.05407      4.22049      5.55818         0.002029     -0.000000      0.045245
      3.16431      2.11025      5.55818         0.000429      0.000099      0.045570
      1.05407      2.10997      7.68286        -0.002926      0.002789      0.035509
      3.16523      4.22049      7.68312        -0.002746     -0.000005      0.038029
      1.05407      4.22049      9.78466        -0.000215     -0.000002      0.045494
      3.16530      2.10942      9.78541        -0.007766     -0.004365      0.033561
      5.27456      6.33074      3.44793         0.000351     -0.000381      0.312787
      7.38480      0.00000      3.44793        -0.002681     -0.000002      0.308390
      5.27456      0.00000      5.55818         0.002032     -0.000004      0.047656
      7.38480      6.33074      5.55818        -0.000747     -0.000102      0.045579
      5.27456      6.32990      7.68374        -0.002997      0.002464      0.039079
      7.38487      0.00000      7.68273        -0.006431     -0.000004      0.030709
      5.27456      8.44098      9.78620        -0.000186     -0.000000      0.040139
      7.38382      6.33156      9.78541         0.007066      0.004819      0.033029
      5.27456      2.11025      3.44793         0.000350      0.000378      0.312787
      7.38480      4.22049      3.44793        -0.002967     -0.000001      0.308003
      5.27456      4.22049      5.55818         0.002031     -0.000001      0.049224
      7.38480      2.11025      5.55818        -0.000745      0.000098      0.045572
      5.27456      2.11108      7.68374        -0.002999     -0.002467      0.039079
      7.38389      4.22049      7.68312        -0.001710      0.000004      0.037971
      5.27456      4.22049      9.79754         0.000239     -0.000007      0.036081
      7.38382      2.10942      9.78541         0.007064     -0.004820      0.033023
      1.05407      6.33074      5.55818        -0.001487      0.002518      0.066321
      3.16431      0.00000      5.55818        -0.003686     -0.000003      0.061689
      1.05407      0.00000      3.44793        -0.001493     -0.000002     -0.416844
      3.16431      6.33074      3.44793         0.000328      0.000204     -0.422539
      1.05407      6.33109      9.83385        -0.000109     -0.004252     -0.080027
      3.16380      0.00000      9.83460         0.006634     -0.000003     -0.087325
      1.05407      8.44098      7.67820         0.001900     -0.000002      0.000003
      3.16367      6.33085      7.67698        -0.000621      0.000877      0.004249
      1.05407      2.11025      5.55818        -0.001490     -0.002524      0.066321
      3.16431      4.22049      5.55818         0.002638     -0.000002      0.063142
      1.05407      4.22049      3.44793        -0.001492     -0.000002     -0.416283
      3.16431      2.11025      3.44793         0.000329     -0.000207     -0.422536
      1.05407      2.10989      9.83385        -0.000109      0.004248     -0.080026
      3.16220      4.22049      9.83429         0.000231      0.000001     -0.081856
      1.05407      4.22049      7.67618        -0.000090     -0.000004      0.012426
      3.16367      2.11014      7.67698        -0.000622     -0.000882      0.004246
      5.27456      6.33074      5.55818        -0.001488     -0.003863      0.067900
      7.38480      0.00000      5.55818         0.002858     -0.000003      0.061687
      5.27456      0.00000      3.44793        -0.001492     -0.000002     -0.417817
      7.38480      6.33074      3.44793         0.000180      0.000204     -0.422539
      5.27456      6.33193      9.82917         0.001123      0.004495     -0.076324
      7.38531      0.00000      9.83460        -0.000195     -0.000003     -0.087353
      5.27456      8.44098      7.67598        -0.000061     -0.000002      0.009373
      7.38544      6.33085      7.67698         0.002074     -0.000386      0.004134
      5.27456      2.11025      5.55818        -0.001489      0.003859      0.067902
      7.38480      4.22049      5.55818        -0.003469     -0.000002      0.063141
      5.27456      4.22049      3.44793        -0.001493     -0.000002     -0.417492
      7.38480      2.11025      3.44793         0.000179     -0.000207     -0.422538
      5.27456      2.10905      9.82917         0.001121     -0.004502     -0.076327
      7.38692      4.22049      9.83429         0.008659      0.000000     -0.080513
      5.27456      4.22049      7.67977         0.002300      0.000000     -0.002141
      7.38544      2.11014      7.67698         0.002074      0.000383      0.004133
    total drift:                                0.024545      0.000121      0.043200

  FREE ENERGIE OF THE ION-ELECTRON SYSTEM (eV)
  free  energy   TOTEN  =      -277.44845953 eV

  energy  without entropy=     -277.44845953  energy(sigma->0) =     -277.44845953