 vasp.6.3.0 20Jan22 (build Apr  1 2022 16:44:48) complex
 executed on        HPECrayEX_GCC date 2023.01.26  19:35:00

 INCAR:
   SYSTEM = MgO-rocksalt
   ISMEAR = 0
   SIGMA = 0.05
   EDIFF = 1E-6
   ALGO = ALL
   ISTART = 0
   IBRION = -1
   NSW = 0
   ISYM = 0
   DIPOL = 0.5 0.5 0.5
   IDIPOL = 3
   LDIPOL = .TRUE.
   LHFCALC = .TRUE.
   GGA = B5
   AEXX = 0.2
   AGGAX = 0.72
   AGGAC = 0.81
   ALDAC = 0.19
   IVDW = 1
   VDW_S6 = 1.05
   VDW_C6 = 0.63 0.70
   VDW_R0 = 1.243 1.342
   ENCUT = 600
   PREC = Accurate
   LASPH = .TRUE.
   LREAL = .FALSE.
   ISPIN = 1
   NELM = 200
   NELMIN = 8
   NCORE = 8
   KPAR = 1
   LWAVE = .FALSE.
   LCHARG = .FALSE.

 POTCAR:    PAW_PBE Mg_pv 13Apr2007
 POTCAR:    PAW_PBE O 08Apr2002
 POTCAR:    PAW_PBE Mg_pv 13Apr2007
   VRHFIN =Mg: p6s2

   TITEL  = PAW_PBE Mg_pv 13Apr2007
   POMASS =   24.305; ZVAL   =    8.000    mass and valenz
   ENMAX  =  403.929; ENMIN  =  302.947 eV

   TITEL  = PAW_PBE O 08Apr2002
   POMASS =   16.000; ZVAL   =    6.000    mass and valenz
   ENMAX  =  400.000; ENMIN  =  300.000 eV

  PAW_PBE Mg_pv 13Apr2007               :
  PAW_PBE O 08Apr2002                   :

 POSCAR: Mg  O
  positions in direct lattice
 exchange correlation table for  LEXCH =       12
   RHO(1)=    0.500       N(1)  =     2000
   RHO(2)=  100.500       N(2)  =     4000

 ion  position               nearest neighbor table
   1  0.250  0.000  0.352-  35 2.10  36 2.10  43 2.10  52 2.10  33 2.10
   2  0.500  0.250  0.352-  35 2.10  36 2.10  44 2.10  51 2.10  34 2.10
   3  0.250  0.250  0.451-  33 2.10  34 2.10  41 2.10  50 2.10  35 2.10  39 2.10
   4  0.500  0.000  0.451-  33 2.10  34 2.10  42 2.10  49 2.10  36 2.10  40 2.10
   5  0.250  0.000  0.550-  40 2.10  39 2.10  56 2.10  47 2.10  33 2.11  37 2.13
   6  0.500  0.250  0.550-  48 2.10  55 2.10  39 2.10  40 2.11  34 2.11  38 2.12
   7  0.250  0.250  0.648-  39 2.09  54 2.10  37 2.10  45 2.10  38 2.10
   8  0.500  0.001  0.647-  38 2.08  40 2.09  46 2.10  37 2.10  53 2.11
   9  0.250  0.500  0.352-  35 2.10  43 2.10  44 2.10  60 2.10  41 2.10
  10  0.500  0.750  0.352-  36 2.10  43 2.10  44 2.10  59 2.10  42 2.10
  11  0.250  0.750  0.451-  33 2.10  41 2.10  42 2.10  58 2.10  43 2.10  47 2.10
  12  0.500  0.500  0.451-  34 2.10  41 2.10  42 2.10  57 2.10  44 2.10  48 2.12
  13  0.250  0.500  0.550-  48 2.10  47 2.10  39 2.10  64 2.11  41 2.11  45 2.12
  14  0.500  0.750  0.550-  48 2.10  63 2.10  47 2.10  40 2.10  42 2.11  46 2.14
  15  0.249  0.751  0.647-  62 2.08  47 2.09  46 2.10  37 2.10  45 2.11
  16  0.498  0.498  0.650-  38 2.10  45 2.10  48 2.12  61 2.13  46 2.13
  17  0.750  0.000  0.352-  36 2.10  51 2.10  52 2.10  59 2.10  49 2.10
  18  0.000  0.250  0.352-  35 2.10  51 2.10  52 2.10  60 2.10  50 2.10
  19  0.750  0.250  0.451-  34 2.10  49 2.10  50 2.10  57 2.10  51 2.10  55 2.10
  20  0.000  0.000  0.451-  33 2.10  49 2.10  50 2.10  58 2.10  52 2.10  56 2.10
  21  0.750  1.000  0.550-  63 2.10  40 2.10  56 2.10  55 2.11  49 2.11  53 2.12
  22  0.000  0.250  0.550-  64 2.10  39 2.10  56 2.10  55 2.10  50 2.11  54 2.13
  23  0.751  0.249  0.647-  53 2.08  55 2.09  61 2.10  54 2.10  38 2.11
  24  0.001  0.001  0.648-  56 2.09  37 2.10  54 2.10  62 2.10  53 2.10
  25  0.750  0.500  0.352-  44 2.10  51 2.10  59 2.10  60 2.10  57 2.10
  26  0.000  0.750  0.352-  43 2.10  52 2.10  59 2.10  60 2.10  58 2.10
  27  0.750  0.750  0.451-  42 2.10  49 2.10  57 2.10  58 2.10  59 2.10  63 2.12
  28  0.000  0.500  0.451-  41 2.10  50 2.10  57 2.10  58 2.10  60 2.10  64 2.10
  29  0.750  0.500  0.550-  48 2.10  63 2.10  55 2.10  64 2.10  57 2.11  61 2.14
  30  1.000  0.750  0.550-  63 2.10  64 2.10  56 2.10  47 2.11  58 2.11  62 2.12
  31  0.752  0.752  0.649-  62 2.09  53 2.09  63 2.12  61 2.13  46 2.13
  32  0.001  0.500  0.647-  45 2.08  64 2.09  61 2.10  54 2.10  62 2.11
  33  0.250  0.000  0.451-   3 2.10   4 2.10  11 2.10  20 2.10   1 2.10   5 2.11
  34  0.500  0.250  0.451-   3 2.10   4 2.10  12 2.10  19 2.10   2 2.10   6 2.11
  35  0.250  0.250  0.352-   1 2.10   2 2.10   9 2.10  18 2.10   3 2.10
  36  0.500  0.000  0.352-   1 2.10   2 2.10  10 2.10  17 2.10   4 2.10
  37  0.250  0.000  0.650-  24 2.10   7 2.10   8 2.10  15 2.10   5 2.13
  38  0.500  0.249  0.650-   8 2.08  16 2.10   7 2.10  23 2.11   6 2.12
  39  0.250  0.250  0.549-   7 2.09   5 2.10  22 2.10   6 2.10  13 2.10   3 2.10
  40  0.500  1.000  0.549-   8 2.09   5 2.10  21 2.10  14 2.10   4 2.10   6 2.11
  41  0.250  0.500  0.451-   3 2.10  11 2.10  12 2.10  28 2.10   9 2.10  13 2.11
  42  0.500  0.750  0.451-   4 2.10  11 2.10  12 2.10  27 2.10  10 2.10  14 2.11
  43  0.250  0.750  0.352-   1 2.10   9 2.10  10 2.10  26 2.10  11 2.10
  44  0.500  0.500  0.352-   2 2.10   9 2.10  10 2.10  25 2.10  12 2.10
  45  0.249  0.500  0.650-  32 2.08  16 2.10   7 2.10  15 2.11  13 2.12
  46  0.498  0.752  0.650-   8 2.10  15 2.10  16 2.13  31 2.13  14 2.14
  47  0.250  0.750  0.549-  15 2.09  13 2.10   5 2.10  14 2.10  11 2.10  30 2.11
  48  0.500  0.500  0.550-  14 2.10  29 2.10   6 2.10  13 2.10  12 2.12  16 2.12
  49  0.750  0.000  0.451-   4 2.10  19 2.10  20 2.10  27 2.10  17 2.10  21 2.11
  50  0.000  0.250  0.451-   3 2.10  19 2.10  20 2.10  28 2.10  18 2.10  22 2.11
  51  0.750  0.250  0.352-   2 2.10  17 2.10  18 2.10  25 2.10  19 2.10
  52  0.000  0.000  0.352-   1 2.10  17 2.10  18 2.10  26 2.10  20 2.10
  53  0.750  0.001  0.649-  23 2.08  31 2.09  24 2.10   8 2.11  21 2.12
  54  0.000  0.250  0.650-  24 2.10   7 2.10  32 2.10  23 2.10  22 2.13
  55  0.750  0.250  0.549-  23 2.09   6 2.10  22 2.10  29 2.10  19 2.10  21 2.11
  56  0.000  0.000  0.549-  24 2.09   5 2.10  22 2.10  30 2.10  21 2.10  20 2.10
  57  0.750  0.500  0.451-  12 2.10  19 2.10  27 2.10  28 2.10  25 2.10  29 2.11
  58  0.000  0.750  0.451-  11 2.10  20 2.10  27 2.10  28 2.10  26 2.10  30 2.11
  59  0.750  0.750  0.352-  10 2.10  17 2.10  25 2.10  26 2.10  27 2.10
  60  0.000  0.500  0.352-   9 2.10  18 2.10  25 2.10  26 2.10  28 2.10
  61  0.752  0.498  0.650-  32 2.10  23 2.10  16 2.13  31 2.13  29 2.14
  62  0.001  0.750  0.649-  15 2.08  31 2.09  24 2.10  32 2.11  30 2.12
  63  0.750  0.750  0.550-  29 2.10  14 2.10  21 2.10  30 2.10  27 2.12  31 2.12
  64  1.000  0.500  0.549-  32 2.09  22 2.10  30 2.10  29 2.10  28 2.10  13 2.11

IMPORTANT INFORMATION: All symmetrisations will be switched off!
NOSYMM: (Re-)initialisation of all symmetry stuff for point group C_1.

                                     Primitive cell

  volume of cell :    1504.9259

  direct lattice vectors                    reciprocal lattice vectors
     8.404861995  0.000000000  0.000000000     0.118978753  0.000000000  0.000000000
     0.000000000  8.404861995  0.000000000     0.000000000  0.118978753  0.000000000
     0.000000000  0.000000000 21.303646496     0.000000000  0.000000000  0.046940321

  length of vectors
     8.404861995  8.404861995 21.303646496     0.118978753  0.118978753  0.046940321

  position of ions in fractional coordinates (direct lattice)
     0.250000000  0.000000000  0.352052406
     0.500000000  0.250000000  0.352052406
     0.250000000  0.250000000  0.450684135
     0.500000000  0.000000000  0.450684135
     0.250111905  0.000099836  0.549650919
     0.500105357  0.250496865  0.549866575
     0.249830519  0.249830514  0.647569254
     0.499781770  0.001245683  0.647344869
     0.250000000  0.500000000  0.352052406
     0.500000000  0.750000000  0.352052406
     0.250000000  0.750000000  0.450684135
     0.500000000  0.500000000  0.450684135
     0.250496871  0.500105344  0.549866597
     0.500490240  0.749662055  0.549929926
     0.249082035  0.750530264  0.647350366
     0.498481823  0.498481688  0.649704196
     0.750000000  0.000000000  0.352052406
     0.000000000  0.250000000  0.352052406
     0.750000000  0.250000000  0.450684135
     0.000000000  0.000000000  0.450684135
     0.750069645  0.999791816  0.549833450
     0.000099864  0.250111859  0.549650857
     0.750530230  0.249082101  0.647350277
     0.000514103  0.000514034  0.647534161
     0.750000000  0.500000000  0.352052406
     0.000000000  0.750000000  0.352052406
     0.750000000  0.750000000  0.450684135
     0.000000000  0.500000000  0.450684135
     0.749662124  0.500490276  0.549929899
     0.999791867  0.750069664  0.549833436
     0.752011815  0.752011711  0.649460270
     0.001245675  0.499781698  0.647344780
     0.250000000  0.000000000  0.450684135
     0.500000000  0.250000000  0.450684135
     0.250000000  0.250000000  0.352052406
     0.500000000  0.000000000  0.352052406
     0.249895423  0.000421044  0.649609212
     0.499966153  0.249182333  0.649531000
     0.250100586  0.250100452  0.549418518
     0.500068280  0.999894441  0.549448451
     0.250000000  0.500000000  0.450684135
     0.500000000  0.750000000  0.450684135
     0.250000000  0.750000000  0.352052406
     0.500000000  0.500000000  0.352052406
     0.249182325  0.499966102  0.649530966
     0.498483313  0.751852342  0.650179355
     0.250328590  0.750095220  0.549443652
     0.500302337  0.500302318  0.550045875
     0.750000000  0.000000000  0.450684135
     0.000000000  0.250000000  0.450684135
     0.750000000  0.250000000  0.352052406
     0.000000000  0.000000000  0.352052406
     0.750349060  0.001235189  0.649435199
     0.000421048  0.249895517  0.649608898
     0.750095117  0.250328560  0.549443594
     0.000108164  0.000108079  0.549397575
     0.750000000  0.500000000  0.450684135
     0.000000000  0.750000000  0.450684135
     0.750000000  0.750000000  0.352052406
     0.000000000  0.500000000  0.352052406
     0.751852440  0.498483241  0.650179279
     0.001235236  0.750349058  0.649435221
     0.749895223  0.749895221  0.550007133
     0.999894493  0.500068342  0.549448376

  ion indices of the primitive-cell ions
   primitive index   ion index
                 1           1
                 2           2
                 3           3
                 4           4
                 5           5
                 6           6
                 7           7
                 8           8
                 9           9
                10          10
                11          11
                12          12
                13          13
                14          14
                15          15
                16          16
                17          17
                18          18
                19          19
                20          20
                21          21
                22          22
                23          23
                24          24
                25          25
                26          26
                27          27
                28          28
                29          29
                30          30
                31          31
                32          32
                33          33
                34          34
                35          35
                36          36
                37          37
                38          38
                39          39
                40          40
                41          41
                42          42
                43          43
                44          44
[...]
   0.50000000  0.75000000  0.45068414
   0.25000000  0.75000000  0.35205241
   0.50000000  0.50000000  0.35205241
   0.24918232  0.49996610  0.64953097
   0.49848331  0.75185234  0.65017936
   0.25032859  0.75009522  0.54944365
   0.50030234  0.50030232  0.55004588
   0.75000000  0.00000000  0.45068414
   0.00000000  0.25000000  0.45068414
   0.75000000  0.25000000  0.35205241
   0.00000000  0.00000000  0.35205241
   0.75034906  0.00123519  0.64943520
   0.00042105  0.24989552  0.64960890
   0.75009512  0.25032856  0.54944359
   0.00010816  0.00010808  0.54939757
   0.75000000  0.50000000  0.45068414
   0.00000000  0.75000000  0.45068414
   0.75000000  0.75000000  0.35205241
   0.00000000  0.50000000  0.35205241
   0.75185244  0.49848324  0.65017928
   0.00123524  0.75034906  0.64943522
   0.74989522  0.74989522  0.55000713
   0.99989449  0.50006834  0.54944838

 position of ions in cartesian coordinates  (Angst):
   2.10121550  0.00000000  7.50000000
   4.20243100  2.10121550  7.50000000
   2.10121550  2.10121550  9.60121550
   4.20243100  0.00000000  9.60121550
   2.10215604  0.00083911 11.70956888
   4.20331651  2.10539158 11.71416313
   2.09979103  2.09979099 13.79558647
   4.20059681  0.01046979 13.79080624
   2.10121550  4.20243100  7.50000000
   4.20243100  6.30364650  7.50000000
   2.10121550  6.30364650  9.60121550
   4.20243100  4.20243100  9.60121550
   2.10539163  4.20331640 11.71416361
   4.20655140  6.30080612 11.71551275
   2.09350013  6.30810329 13.79092335
   4.18967093  4.18966980 13.84106851
   6.30364650  0.00000000  7.50000000
   0.00000000  2.10121550  7.50000000
   6.30364650  2.10121550  9.60121550
   0.00000000  0.00000000  9.60121550
   6.30423186  8.40311224 11.71345746
   0.00083934  2.10215566 11.70956754
   6.30810300  2.09350069 13.79092146
   0.00432096  0.00432038 13.79483886
   6.30364650  4.20243100  7.50000000
   0.00000000  6.30364650  7.50000000
   6.30364650  6.30364650  9.60121550
   0.00000000  4.20243100  9.60121550
   6.30080670  4.20655170 11.71551217
   8.40311267  6.30423201 11.71345714
   6.32055552  6.32055465 13.83587201
   0.01046973  4.20059620 13.79080436
   2.10121550  0.00000000  9.60121550
   4.20243100  2.10121550  9.60121550
   2.10121550  2.10121550  7.50000000
   4.20243100  0.00000000  7.50000000
   2.10033654  0.00353881 13.83904501
   4.20214652  2.09434312 13.83737882
   2.10206091  2.10205978 11.70461789
   4.20300488  8.40397479 11.70525556
   2.10121550  4.20243100  9.60121550
   4.20243100  6.30364650  9.60121550
   2.10121550  6.30364650  7.50000000
   4.20243100  4.20243100  7.50000000
   2.09434305  4.20214609 13.83737808
   4.18968345  6.31921518 13.85119114
   2.10397725  6.30444681 11.70515332
   4.20497210  4.20497194 11.71798288
   6.30364650  0.00000000  9.60121550
   0.00000000  2.10121550  9.60121550
   6.30364650  2.10121550  7.50000000
   0.00000000  0.00000000  7.50000000
   6.30658030  0.01038159 13.83533790
   0.00353885  2.10033733 13.83903833
   6.30444594  2.10397700 11.70515209
   0.00090910  0.00090839 11.70417171
   6.30364650  4.20243100  9.60121550
   0.00000000  6.30364650  9.60121550
   6.30364650  6.30364650  7.50000000
   0.00000000  4.20243100  7.50000000
   6.31921600  4.18968285 13.85118953
   0.01038199  6.30658028 13.83533837
   6.30276586  6.30276584 11.71715753
   8.40397523  4.20300540 11.70525397

--------------------------------------- Iteration      FINAL  ---------------------------------------

--------------------OUTCAR has been truncated-------------------------

[...]

--------------------OUTCAR has been truncated-------------------------

  DFT-D2 method for vdW energy calculation

  Parameters of vdW forcefield:
         C6(Jnm^6/mol)     R0(A)
   Mg       0.630          1.243
   O        0.700          1.342

  vdW correction parametrized for the method ¾þ      

  IVDW =   1
  VDW_RADIUS =    50.000 A
  VDW_S6 =     1.050
  VDW_SR =     1.000
  VDW_D =    20.000
  LVDW_EWALD = F

  Number of pair interactions contributing to vdW energy:  731166
  Edisp (eV):   -5.17021

 VOLUME and BASIS-vectors are now :
  energy-cutoff  :      600.00
  volume of cell :     1504.93
      direct lattice vectors                 reciprocal lattice vectors
     8.404861995  0.000000000  0.000000000     0.118978753  0.000000000  0.000000000
     0.000000000  8.404861995  0.000000000     0.000000000  0.118978753  0.000000000
     0.000000000  0.000000000 21.303646496     0.000000000  0.000000000  0.046940321

  length of vectors
     8.404861995  8.404861995 21.303646496     0.118978753  0.118978753  0.046940321

 FORCES acting on ions:
    Electron-Ion                     Ewald-Force                    Non-Local-Force
   -.131E+00 0.118E+00 0.209E+04   0.131E+00 -.118E+00 -.208E+04   -.394E-03 -.188E-03 -.641E+01
   -.117E+00 -.170E+00 0.209E+04   0.117E+00 0.172E+00 -.208E+04   -.130E-03 -.178E-02 -.641E+01
   -.689E+00 -.689E+00 0.693E+03   0.704E+00 0.704E+00 -.694E+03   -.919E-02 -.917E-02 0.375E+00
   -.643E+00 0.525E+00 0.693E+03   0.653E+00 -.533E+00 -.693E+03   -.594E-02 0.556E-02 0.357E+00
   -.941E+00 0.880E+00 -.694E+03   0.977E+00 -.911E+00 0.694E+03   -.240E-01 0.183E-01 -.171E+00
   -.972E+00 -.233E+01 -.696E+03   0.100E+01 0.247E+01 0.696E+03   -.198E-01 -.118E+00 -.230E+00
   -.144E+01 -.144E+01 -.208E+04   0.115E+01 0.115E+01 0.207E+04   0.231E+00 0.231E+00 0.557E+01
   -.200E+01 0.445E+01 -.207E+04   0.172E+01 -.461E+01 0.207E+04   0.225E+00 0.302E-01 0.548E+01
   -.170E+00 -.117E+00 0.209E+04   0.172E+00 0.117E+00 -.208E+04   -.179E-02 -.127E-03 -.641E+01
   -.160E+00 0.170E+00 0.209E+04   0.162E+00 -.172E+00 -.208E+04   -.152E-02 0.153E-02 -.642E+01
   -.558E+00 0.709E+00 0.693E+03   0.579E+00 -.715E+00 -.693E+03   -.136E-01 0.372E-02 0.357E+00
   -.507E+00 -.507E+00 0.690E+03   0.523E+00 0.523E+00 -.690E+03   -.104E-01 -.104E-01 0.530E+00
   -.233E+01 -.972E+00 -.696E+03   0.247E+01 0.100E+01 0.696E+03   -.118E+00 -.198E-01 -.230E+00
   -.281E+01 0.278E+01 -.702E+03   0.292E+01 -.291E+01 0.703E+03   -.957E-01 0.117E+00 -.281E+00
   -.449E+01 0.192E+01 -.207E+04   0.464E+01 -.164E+01 0.207E+04   -.168E-01 -.218E+00 0.548E+01
   -.847E+01 -.847E+01 -.209E+04   0.834E+01 0.834E+01 0.209E+04   0.284E+00 0.284E+00 0.588E+01
   0.131E+00 0.161E+00 0.209E+04   -.132E+00 -.162E+00 -.208E+04   0.133E-03 0.109E-02 -.641E+01
   0.118E+00 -.131E+00 0.209E+04   -.118E+00 0.131E+00 -.208E+04   -.187E-03 -.386E-03 -.641E+01
   0.709E+00 -.558E+00 0.693E+03   -.715E+00 0.579E+00 -.693E+03   0.374E-02 -.136E-01 0.357E+00
   0.658E+00 0.659E+00 0.694E+03   -.661E+00 -.662E+00 -.694E+03   0.164E-02 0.164E-02 0.368E+00
   0.105E+01 0.236E+01 -.695E+03   -.109E+01 -.247E+01 0.696E+03   0.246E-01 0.962E-01 -.241E+00
   0.880E+00 -.940E+00 -.694E+03   -.911E+00 0.977E+00 0.694E+03   0.183E-01 -.239E-01 -.171E+00
   0.192E+01 -.449E+01 -.207E+04   -.164E+01 0.464E+01 0.207E+04   -.218E+00 -.168E-01 0.548E+01
   0.154E+01 0.154E+01 -.208E+04   -.123E+01 -.123E+01 0.207E+04   -.240E+00 -.240E+00 0.558E+01
   0.170E+00 -.160E+00 0.209E+04   -.172E+00 0.162E+00 -.208E+04   0.154E-02 -.152E-02 -.642E+01
   0.161E+00 0.131E+00 0.209E+04   -.162E+00 -.132E+00 -.208E+04   0.108E-02 0.135E-03 -.641E+01
   0.574E+00 0.574E+00 0.690E+03   -.584E+00 -.584E+00 -.690E+03   0.715E-02 0.719E-02 0.524E+00
   0.525E+00 -.643E+00 0.693E+03   -.533E+00 0.653E+00 -.693E+03   0.555E-02 -.595E-02 0.357E+00
   0.278E+01 -.281E+01 -.702E+03   -.291E+01 0.292E+01 0.703E+03   0.117E+00 -.957E-01 -.281E+00
   0.236E+01 0.105E+01 -.695E+03   -.247E+01 -.109E+01 0.696E+03   0.962E-01 0.246E-01 -.241E+00
   0.861E+01 0.861E+01 -.209E+04   -.848E+01 -.848E+01 0.208E+04   -.297E+00 -.297E+00 0.587E+01
   0.445E+01 -.200E+01 -.207E+04   -.461E+01 0.172E+01 0.207E+04   0.302E-01 0.225E+00 0.548E+01
   -.371E+00 0.343E+00 0.520E+03   0.372E+00 -.354E+00 -.520E+03   -.764E-03 0.128E-01 -.646E-01
   -.327E+00 -.606E+00 0.519E+03   0.327E+00 0.570E+00 -.518E+03   -.234E-03 0.444E-01 -.903E-01
   -.117E+00 -.117E+00 0.157E+04   0.118E+00 0.118E+00 -.157E+04   -.109E-02 -.108E-02 0.312E+01
   -.109E+00 0.974E-01 0.157E+04   0.109E+00 -.987E-01 -.157E+04   -.499E-03 0.174E-02 0.312E+01
   -.117E+01 0.116E+01 -.158E+04   0.133E+01 -.131E+01 0.158E+04   -.164E+00 0.156E+00 -.460E+01
   -.156E+01 -.281E+01 -.158E+04   0.172E+01 0.276E+01 0.158E+04   -.170E+00 0.117E+00 -.428E+01
   -.904E+00 -.904E+00 -.515E+03   0.894E+00 0.894E+00 0.515E+03   0.131E-01 0.131E-01 0.316E+00
   -.940E+00 0.146E+01 -.515E+03   0.932E+00 -.153E+01 0.514E+03   0.121E-01 0.927E-01 0.372E+00
   -.606E+00 -.327E+00 0.519E+03   0.570E+00 0.327E+00 -.518E+03   0.444E-01 -.230E-03 -.903E-01
   -.586E+00 0.621E+00 0.518E+03   0.549E+00 -.593E+00 -.518E+03   0.454E-01 -.338E-01 -.116E+00
   -.107E+00 0.117E+00 0.157E+04   0.108E+00 -.118E+00 -.157E+04   -.198E-02 0.145E-02 0.312E+01
   -.975E-01 -.976E-01 0.157E+04   0.987E-01 0.987E-01 -.157E+04   -.143E-02 -.142E-02 0.312E+01
   -.281E+01 -.156E+01 -.158E+04   0.276E+01 0.172E+01 0.158E+04   0.117E+00 -.170E+00 -.428E+01
   -.625E+01 0.598E+01 -.158E+04   0.639E+01 -.610E+01 0.158E+04   0.147E-01 -.288E-01 -.418E+01
   -.154E+01 0.960E+00 -.515E+03   0.161E+01 -.946E+00 0.514E+03   -.966E-01 -.179E-01 0.368E+00
   -.179E+01 -.179E+01 -.527E+03   0.185E+01 0.185E+01 0.527E+03   -.781E-01 -.780E-01 -.125E+00
   0.389E+00 0.612E+00 0.519E+03   -.398E+00 -.588E+00 -.519E+03   0.111E-01 -.292E-01 -.825E-01
   0.343E+00 -.371E+00 0.520E+03   -.354E+00 0.372E+00 -.520E+03   0.128E-01 -.766E-03 -.646E-01
   0.117E+00 -.107E+00 0.157E+04   -.118E+00 0.108E+00 -.157E+04   0.148E-02 -.199E-02 0.312E+01
   0.108E+00 0.108E+00 0.157E+04   -.109E+00 -.109E+00 -.157E+04   0.777E-03 0.779E-03 0.312E+01
   0.154E+01 0.293E+01 -.158E+04   -.171E+01 -.286E+01 0.158E+04   0.172E+00 -.143E+00 -.428E+01
   0.116E+01 -.117E+01 -.158E+04   -.131E+01 0.133E+01 0.158E+04   0.156E+00 -.164E+00 -.460E+01
   0.960E+00 -.154E+01 -.515E+03   -.946E+00 0.161E+01 0.514E+03   -.179E-01 -.966E-01 0.368E+00
   0.861E+00 0.861E+00 -.515E+03   -.854E+00 -.854E+00 0.514E+03   -.120E-01 -.120E-01 0.316E+00
   0.621E+00 -.586E+00 0.518E+03   -.593E+00 0.549E+00 -.518E+03   -.338E-01 0.454E-01 -.116E+00
   0.612E+00 0.389E+00 0.519E+03   -.588E+00 -.398E+00 -.519E+03   -.292E-01 0.111E-01 -.825E-01
   0.106E+00 0.106E+00 0.157E+04   -.108E+00 -.108E+00 -.157E+04   0.245E-02 0.246E-02 0.312E+01
   0.973E-01 -.109E+00 0.157E+04   -.987E-01 0.109E+00 -.157E+04   0.174E-02 -.503E-03 0.312E+01
   0.598E+01 -.625E+01 -.158E+04   -.610E+01 0.639E+01 0.158E+04   -.288E-01 0.147E-01 -.418E+01
   0.293E+01 0.154E+01 -.158E+04   -.286E+01 -.171E+01 0.158E+04   -.143E+00 0.172E+00 -.428E+01
   0.185E+01 0.185E+01 -.526E+03   -.190E+01 -.190E+01 0.527E+03   0.737E-01 0.737E-01 -.687E-01
   0.146E+01 -.940E+00 -.515E+03   -.153E+01 0.932E+00 0.514E+03   0.927E-01 0.121E-01 0.372E+00
   0.407E-01 0.406E-01 0.155E+02   -.650E-12 0.968E-13 -.819E-11   -.339E-01 -.339E-01 -.136E+02

 POSITION                                       TOTAL-FORCE (eV/Angst)
      2.10122      0.00000      7.50000         0.000129     -0.000050      0.407136
      4.20243      2.10122      7.50000         0.000031      0.000467      0.407343
      2.10122      2.10122      9.60122         0.004547      0.004552      0.024396
      4.20243      0.00000      9.60122         0.003176     -0.002028      0.040372
      2.10216      0.00084     11.70957         0.009257     -0.009592     -0.000235
      4.20332      2.10539     11.71416         0.009292      0.008357     -0.036559
      2.09979      2.09979     13.79559        -0.042072     -0.042060     -0.028481
      4.20060      0.01047     13.79081        -0.037307     -0.116671      0.032314
      2.10122      4.20243      7.50000         0.000465      0.000027      0.407255
      4.20243      6.30365      7.50000         0.000342     -0.000493      0.408451
      2.10122      6.30365      9.60122         0.005900     -0.001844      0.039464
      4.20243      4.20243      9.60122         0.004031      0.003993      0.048004
      2.10539      4.20332     11.71416         0.008355      0.009300     -0.036577
      4.20655      6.30081     11.71551         0.003284     -0.004449      0.086292
      2.09350      6.30810     13.79092         0.116763      0.036027      0.030168
      4.18967      4.18967     13.84107         0.166388      0.166389     -0.313778
      6.30365      0.00000      7.50000        -0.000191     -0.000351      0.406881
      0.00000      2.10122      7.50000        -0.000048      0.000140      0.407127
      6.30365      2.10122      9.60122        -0.001847      0.005900      0.039462
      0.00000      0.00000      9.60122        -0.001079     -0.001096      0.023565
      6.30423      8.40311     11.71346        -0.009650     -0.008589     -0.038011
      0.00084      2.10216     11.70957        -0.009574      0.009261     -0.000233
      6.30810      2.09350     13.79092         0.036020      0.116768      0.030136
      0.00432      0.00432     13.79484         0.042426      0.042417     -0.028863
      6.30365      4.20243      7.50000        -0.000492      0.000329      0.408496
      0.00000      6.30365      7.50000        -0.000353     -0.000183      0.406916
      6.30365      6.30365      9.60122        -0.002068     -0.002036      0.046606
      0.00000      4.20243      9.60122        -0.002035      0.003176      0.040342
      6.30081      4.20655     11.71551        -0.004459      0.003279      0.086298
      8.40311      6.30423     11.71346        -0.008585     -0.009654     -0.038015
      6.32056      6.32055     13.83587        -0.176721     -0.176696     -0.285149
      0.01047      4.20060     13.79080        -0.116650     -0.037311      0.032322
      2.10122      0.00000      9.60122        -0.000238      0.003705      0.037048
      4.20243      2.10122      9.60122        -0.000120      0.014181      0.053058
      2.10122      2.10122      7.50000        -0.000443     -0.000445     -0.494145
      4.20243      0.00000      7.50000        -0.000227      0.000561     -0.494053
      2.10034      0.00354     13.83905        -0.028717      0.026814     -0.007412
      4.20215      2.09434     13.83738        -0.028868      0.090447      0.092147
      2.10206      2.10206     11.70462         0.005370      0.005376      0.015614
      4.20300      8.40397     11.70526         0.006356      0.038474      0.000916
      2.10122      4.20243      9.60122         0.014190     -0.000124      0.053061
      4.20243      6.30365      9.60122         0.014477     -0.010982      0.051192
      2.10122      6.30365      7.50000        -0.000715      0.000461     -0.494150
      4.20243      4.20243      7.50000        -0.000529     -0.000548     -0.494766
      2.09434      4.20215     13.83738         0.090449     -0.028871      0.092168
      4.18968      6.31922     13.85119         0.162882     -0.161396      0.069662
      2.10398      6.30445     11.70515        -0.039722     -0.006095      0.001139
      4.20497      4.20497     11.71798        -0.033984     -0.033976     -0.014060
      6.30365      0.00000      9.60122         0.003166     -0.010017      0.052196
      0.00000      2.10122      9.60122         0.003711     -0.000235      0.037041
      6.30365      2.10122      7.50000         0.000465     -0.000721     -0.494161
      0.00000      0.00000      7.50000         0.000260      0.000254     -0.493789
      6.30658      0.01038     13.83534         0.029939     -0.100534      0.097483
      0.00354      2.10034     13.83904         0.026821     -0.028727     -0.007393
      6.30445      2.10398     11.70515        -0.006106     -0.039726      0.001138
      0.00091      0.00091     11.70417        -0.006317     -0.006325      0.015830
      6.30365      4.20243      9.60122        -0.010993      0.014474      0.051181
      0.00000      6.30365      9.60122        -0.010011      0.003184      0.052210
      6.30365      6.30365      7.50000         0.000768      0.000792     -0.494641
      0.00000      4.20243      7.50000         0.000553     -0.000251     -0.494022
      6.31922      4.18968     13.85119        -0.161416      0.162883      0.069673
      0.01038      6.30658     13.83534        -0.100525      0.029943      0.097488
      6.30277      6.30277     11.71716         0.033776      0.033784     -0.012018
      8.40398      4.20301     11.70525         0.038472      0.006359      0.000919
    total drift:                                0.003483      0.003429     -0.001964

  FREE ENERGIE OF THE ION-ELECTRON SYSTEM (eV)
  free  energy   TOTEN  =      -438.69728021 eV

  energy  without entropy=     -438.69728021  energy(sigma->0) =     -438.69728021