 vasp.6.3.0 20Jan22 (build Apr  1 2022 16:44:48) complex
 executed on        HPECrayEX_GCC date 2023.04.05  15:24:16

 INCAR:
   SYSTEM = MgO-rocksalt
   ISMEAR = 0
   SIGMA = 0.05
   EDIFF = 1E-7
   ALGO = ALL
   ISTART = 0
   IBRION = 2
   NSW = 1000
   ISYM = 2
   ISIF = 3
   EDIFFG = -0.005
   GGA = RE
   IVDW = 13
   VDW_S8 = 1.7468
   VDW_A1 = 0.5363
   VDW_A2 = 3.0726
   ENCUT = 600
   PREC = Accurate
   LASPH = .TRUE.
   LREAL = .FALSE.
   ISPIN = 1
   NELM = 200
   NELMIN = 8
   NCORE = 8
   KPAR = 1
   LWAVE = .FALSE.
   LCHARG = .FALSE.

 POTCAR:    PAW_PBE Ti_pv 07Sep2000
 POTCAR:    PAW_PBE O 08Apr2002
 POTCAR:    PAW_PBE Ti_pv 07Sep2000
   VRHFIN =Ti: d3 s1

   TITEL  = PAW_PBE Ti_pv 07Sep2000
   POMASS =   47.880; ZVAL   =   10.000    mass and valenz
   ENMAX  =  222.335; ENMIN  =  166.751 eV

   TITEL  = PAW_PBE O 08Apr2002
   POMASS =   16.000; ZVAL   =    6.000    mass and valenz
   ENMAX  =  400.000; ENMIN  =  300.000 eV

  PAW_PBE Ti_pv 07Sep2000               :
  PAW_PBE O 08Apr2002                   :

 POSCAR: Ti4 O8
  positions in direct lattice
  velocities in cartesian coordinates
|           W    W    AA    RRRRR   N    N  II  N    N   GGGG   !!!           |
|           W    W   A  A   R    R  NN   N  II  NN   N  G    G  !!!           |
|           W    W  A    A  R    R  N N  N  II  N N  N  G       !!!           |
|           W WW W  AAAAAA  RRRRR   N  N N  II  N  N N  G  GGG   !            |
|           WW  WW  A    A  R   R   N   NN  II  N   NN  G    G                |
|           W    W  A    A  R    R  N    N  II  N    N   GGGG   !!!           |
|     Specifying the vdW parameters                                           |
|     VDW_S8 = 1.747                                                          |
|     VDW_A1 = 0.536                                                          |
|     VDW_A2 = 3.073                                                          |
|     in the INCAR file will overwrite the defaults for revpbe. Please        |
|     make sure that is what you intended.                                    |

 ion  position               nearest neighbor table
   1  0.500  0.500  0.500-   5 1.94   7 1.94   7 1.94   5 1.94   6 1.99  12 1.99   2 3.05   2 3.05
                             4 3.05   4 3.05
   2  0.500  0.000  0.750-   6 1.94   8 1.94   6 1.94   8 1.94   7 1.99   9 1.99   1 3.05   1 3.05
                             3 3.05   3 3.05
   3  0.000  0.000  0.000-   9 1.94  11 1.94  11 1.94   9 1.94  10 1.99   8 1.99   4 3.05   2 3.05
                             2 3.05   4 3.05
   4  0.000  0.500  0.250-  10 1.94  12 1.94  10 1.94  12 1.94  11 1.99   5 1.99   3 3.05   1 3.05
                             1 3.05   3 3.05
   5  0.000  0.500  0.459-   1 1.94   1 1.94   4 1.99
   6  0.500  0.500  0.709-   2 1.94   2 1.94   1 1.99
   7  0.500  0.000  0.541-   1 1.94   1 1.94   2 1.99
   8  0.000  0.000  0.791-   2 1.94   2 1.94   3 1.99
   9  0.500  0.000  0.959-   3 1.94   3 1.94   2 1.99
  10  0.000  0.000  0.209-   4 1.94   4 1.94   3 1.99
  11  0.000  0.500  0.041-   3 1.94   3 1.94   4 1.99
  12  0.500  0.500  0.291-   4 1.94   4 1.94   1 1.99

  LATTYP: Found a simple tetragonal cell.
 ALAT       =     3.7896034726
 C/A-ratio  =     2.5198655959

  Lattice vectors:

 A1 = (   3.7896034726,   0.0000000000,   0.0000000000)
 A2 = (   0.0000000000,   3.7896034726,   0.0000000000)
 A3 = (   0.0000000000,   0.0000000000,   9.5492914126)

Analysis of symmetry for initial positions (statically):
 Subroutine PRICEL returns following result:

  LATTYP: Found a body centered tetragonal cell.
 ALAT       =     3.7896034726
 C/A-ratio  =     2.5198655959

[...]

   2 primitive cells build up your supercell.

 Routine SETGRP: Setting up the symmetry group for a
 simple tetragonal supercell.

 Subroutine GETGRP returns: Found 16 space group operations
 (whereof  8 operations were pure point group operations)
 out of a pool of 16 trial point group operations.

The static configuration has the point symmetry D_2d.
 The point group associated with its full space group is D_4h.

Analysis of symmetry for dynamics (positions and initial velocities):
 Subroutine PRICEL returns following result:

  LATTYP: Found a body centered tetragonal cell.
 ALAT       =     3.7896034726
 C/A-ratio  =     2.5198655959

  Lattice vectors:

 A1 = (  -1.8948017363,   1.8948017363,   4.7746457063)
 A2 = (   1.8948017363,  -1.8948017363,   4.7746457063)
 A3 = (   1.8948017363,   1.8948017363,  -4.7746457063)

   2 primitive cells build up your supercell.

 Routine SETGRP: Setting up the symmetry group for a
 simple tetragonal supercell.

 Subroutine GETGRP returns: Found 16 space group operations
 (whereof  8 operations were pure point group operations)
 out of a pool of 16 trial point group operations.

The dynamic configuration has the point symmetry D_2d.
 The point group associated with its full space group is D_4h.

 Subroutine INISYM returns: Found 16 space group operations
 (whereof  8 operations are pure point group operations),
 and found     2 'primitive' translations

                                     Primitive cell

  volume of cell :      68.5691

  direct lattice vectors                    reciprocal lattice vectors
    -1.894801736  1.894801736  4.774645706    -0.000000000  0.263879851  0.104719812
     1.894801736 -1.894801736  4.774645706     0.263879851 -0.000000000  0.104719812
     1.894801736  1.894801736 -4.774645706     0.263879851  0.263879851  0.000000000

  length of vectors
     5.475197609  5.475197609  5.475197609     0.283899304  0.283899304  0.373182464

  position of ions in fractional coordinates (direct lattice)
     0.000000000  0.000000000  0.000000000
     0.750000000  0.250000000  0.500000000
     0.958801135  0.458801135  0.500000000
     0.208801135  0.208801135  0.000000000
     0.541198865  0.041198865  0.500000000
     0.791198865  0.791198865  0.000000000

  ion indices of the primitive-cell ions
   primitive index   ion index
                 1           1
                 2           2
                 3           5
                 4           6
                 5           7
                 6          12

 KPOINTS: pymatgen v2020.8.13 with grid density =

Automatic generation of k-mesh.
 Grid dimensions read from file:
 generate k-points for:    6    6    2

 Generating k-lattice:

  Cartesian coordinates                     Fractional coordinates (reciprocal lattice)
     0.043979975 -0.000000000  0.000000000     0.166666667 -0.000000000  0.000000000
     0.000000000  0.043979975  0.000000000     0.000000000  0.166666667  0.000000000
    -0.000000000 -0.000000000  0.052359906     0.000000000  0.000000000  0.500000000

  Length of vectors
     0.043979975  0.043979975  0.052359906

  Shift w.r.t. Gamma in fractional coordinates (k-lattice)
     0.000000000  0.000000000  0.000000000

 Subroutine IBZKPT returns following result:

 Found     20 irreducible k-points:

 Following reciprocal coordinates:
            Coordinates               Weight
  0.000000  0.000000  0.000000      1.000000
  0.166667  0.000000  0.000000      4.000000
  0.333333  0.000000  0.000000      4.000000
  0.500000  0.000000  0.000000      2.000000
  0.166667  0.166667  0.000000      4.000000
  0.333333  0.166667  0.000000      8.000000
  0.500000  0.166667  0.000000      4.000000
  0.333333  0.333333  0.000000      4.000000
  0.500000  0.333333  0.000000      4.000000
  0.500000  0.500000  0.000000      1.000000
  0.000000  0.000000  0.500000      1.000000
  0.166667  0.000000  0.500000      4.000000
  0.333333  0.000000  0.500000      4.000000
  0.500000  0.000000  0.500000      2.000000
  0.166667  0.166667  0.500000      4.000000
  0.333333  0.166667  0.500000      8.000000
  0.500000  0.166667  0.500000      4.000000
  0.333333  0.333333  0.500000      4.000000
  0.500000  0.333333  0.500000      4.000000
  0.500000  0.500000  0.500000      1.000000

 Following cartesian coordinates:
            Coordinates               Weight
  0.000000  0.000000  0.000000      1.000000
  0.043980  0.000000  0.000000      4.000000
  0.087960  0.000000  0.000000      4.000000
  0.131940  0.000000  0.000000      2.000000
  0.043980  0.043980  0.000000      4.000000
  0.087960  0.043980  0.000000      8.000000
  0.131940  0.043980  0.000000      4.000000
  0.087960  0.087960  0.000000      4.000000
  0.131940  0.087960  0.000000      4.000000
  0.131940  0.131940  0.000000      1.000000
  0.000000  0.000000  0.052360      1.000000
  0.043980  0.000000  0.052360      4.000000
  0.087960  0.000000  0.052360      4.000000
  0.131940  0.000000  0.052360      2.000000
  0.043980  0.043980  0.052360      4.000000
  0.087960  0.043980  0.052360      8.000000
  0.131940  0.043980  0.052360      4.000000
  0.087960  0.087960  0.052360      4.000000
  0.131940  0.087960  0.052360      4.000000
  0.131940  0.131940  0.052360      1.000000

 SYSTEM =  MgO-rocksalt
 POSCAR =  Ti4 O8

  energy-cutoff  :      600.00
  volume of cell :      137.14
      direct lattice vectors                 reciprocal lattice vectors
     3.789603473  0.000000000  0.000000000     0.263879851 -0.000000000  0.000000000
     0.000000000  3.789603473  0.000000000     0.000000000  0.263879851  0.000000000
     0.000000000  0.000000000  9.549291413    -0.000000000 -0.000000000  0.104719812

[...]

 k-points in units of 2pi/SCALE and weight: pymatgen v2020.8.13 with grid density =
   0.00000000  0.00000000  0.00000000       0.014
   0.04397998  0.00000000  0.00000000       0.056
   0.08795995  0.00000000  0.00000000       0.056
   0.13193993  0.00000000  0.00000000       0.028
   0.04397998  0.04397998  0.00000000       0.056
   0.08795995  0.04397998  0.00000000       0.111
   0.13193993  0.04397998  0.00000000       0.056
   0.08795995  0.08795995  0.00000000       0.056
   0.13193993  0.08795995  0.00000000       0.056
   0.13193993  0.13193993  0.00000000       0.014
   0.00000000  0.00000000  0.05235991       0.014
   0.04397998  0.00000000  0.05235991       0.056
   0.08795995  0.00000000  0.05235991       0.056
   0.13193993  0.00000000  0.05235991       0.028
   0.04397998  0.04397998  0.05235991       0.056
   0.08795995  0.04397998  0.05235991       0.111
   0.13193993  0.04397998  0.05235991       0.056
   0.08795995  0.08795995  0.05235991       0.056
   0.13193993  0.08795995  0.05235991       0.056
   0.13193993  0.13193993  0.05235991       0.014

 k-points in reciprocal lattice and weights: pymatgen v2020.8.13 with grid density =
   0.00000000  0.00000000  0.00000000       0.014
   0.16666667  0.00000000  0.00000000       0.056
   0.33333333  0.00000000  0.00000000       0.056
   0.50000000  0.00000000  0.00000000       0.028
   0.16666667  0.16666667  0.00000000       0.056
   0.33333333  0.16666667  0.00000000       0.111
   0.50000000  0.16666667  0.00000000       0.056
   0.33333333  0.33333333  0.00000000       0.056
   0.50000000  0.33333333  0.00000000       0.056
   0.50000000  0.50000000  0.00000000       0.014
   0.00000000  0.00000000  0.50000000       0.014
   0.16666667  0.00000000  0.50000000       0.056
   0.33333333  0.00000000  0.50000000       0.056
   0.50000000  0.00000000  0.50000000       0.028
   0.16666667  0.16666667  0.50000000       0.056
   0.33333333  0.16666667  0.50000000       0.111
   0.50000000  0.16666667  0.50000000       0.056
   0.33333333  0.33333333  0.50000000       0.056
   0.50000000  0.33333333  0.50000000       0.056
   0.50000000  0.50000000  0.50000000       0.014

 position of ions in fractional coordinates (direct lattice)
   0.50000000  0.50000000  0.50000000
   0.50000000  0.00000000  0.75000000
   0.00000000  0.00000000  0.00000000
   0.00000000  0.50000000  0.25000000
   0.00000000  0.50000000  0.45880113
   0.50000000  0.50000000  0.70880113
   0.50000000  0.00000000  0.54119887
   0.00000000  0.00000000  0.79119887
   0.50000000  0.00000000  0.95880113
   0.00000000  0.00000000  0.20880113
   0.00000000  0.50000000  0.04119887
   0.50000000  0.50000000  0.29119887

 position of ions in cartesian coordinates  (Angst):
   1.89480174  1.89480174  4.77464571
   1.89480174  0.00000000  7.16196856
   0.00000000  0.00000000  0.00000000
   0.00000000  1.89480174  2.38732285
   0.00000000  1.89480174  4.38122573
   1.89480174  1.89480174  6.76854859
   1.89480174  0.00000000  5.16806568
   0.00000000  0.00000000  7.55538853
   1.89480174  0.00000000  9.15587144
   0.00000000  0.00000000  1.99390288
   0.00000000  1.89480174  0.39341997
   1.89480174  1.89480174  2.78074282

--------------------------------------- Iteration      FINAL  ---------------------------------------

--------------------OUTCAR has been truncated-------------------------

[...]

--------------------OUTCAR has been truncated-------------------------

  FORCE on cell =-STRESS in cart. coord.  units (eV):
  Direction    XX          YY          ZZ          XY          YZ          ZX
  Alpha Z   398.79699   398.79699   398.79699
  Ewald   -1993.21917 -1993.21917 -1429.80591     0.00000     0.00000    -0.00000
  Hartree   574.22132   574.22132   928.94257    -0.00000    -0.00000    -0.00000
  E(xc)    -431.29556  -431.29556  -430.96025     0.00000    -0.00000    -0.00000
  Local      34.32641    34.32641  -878.15016    -0.00000    -0.00000    -0.00000
  n-local  -268.40484  -262.92202  -268.27022    -0.01786    -0.00000    -0.00000
  augment   261.20895   261.20895   260.69656     0.00000     0.00000     0.00000
  Kinetic  1421.85494  1434.91315  1425.18287    -1.27534     0.00000    -0.00000
  Fock        0.00000     0.00000     0.00000     0.00000     0.00000     0.00000
  vdW        -6.71969    -6.71973    -6.42578    -0.00000    -0.00000    -0.00000
  Total       0.03985     0.03985     0.00668    -0.00000     0.00000     0.00000
  in kB       0.46552     0.46552     0.07801    -0.00000     0.00000     0.00000

 VOLUME and BASIS-vectors are now :
  energy-cutoff  :      600.00
  volume of cell :      137.14
      direct lattice vectors                 reciprocal lattice vectors
     3.789603473  0.000000000  0.000000000     0.263879851 -0.000000000  0.000000000
     0.000000000  3.789603473  0.000000000     0.000000000  0.263879851  0.000000000
     0.000000000  0.000000000  9.549291413    -0.000000000 -0.000000000  0.104719812

  length of vectors
     3.789603473  3.789603473  9.549291413     0.263879851  0.263879851  0.104719812

 FORCES acting on ions:
    Electron-Ion                     Ewald-Force                    Non-Local-Force
   0.151E-12 -.120E-11 0.420E-12   0.943E-14 0.255E-14 0.568E-13   0.207E-23 -.414E-24 -.307E-16
   0.170E-12 -.421E-12 -.287E-12   -.240E-14 0.157E-13 0.131E-12   -.569E-24 -.827E-24 0.526E-16
   -.120E-13 0.505E-12 0.135E-12   0.153E-13 0.241E-14 0.000E+00   -.827E-24 0.000E+00 0.396E-16
   0.361E-14 -.297E-12 -.683E-13   0.345E-14 0.164E-13 -.142E-13   0.414E-24 0.000E+00 -.854E-17
   -.114E-13 -.153E-12 -.856E+02   0.927E-14 0.136E-13 0.927E+02   0.827E-24 -.101E-23 -.714E+01
   0.154E-12 0.195E-13 -.856E+02   0.145E-13 -.751E-14 0.927E+02   -.414E-24 0.165E-23 -.714E+01
   0.132E-12 0.168E-12 0.856E+02   -.145E-13 -.996E-14 -.927E+02   0.827E-24 -.124E-23 0.714E+01
   0.237E-14 0.198E-12 0.856E+02   -.133E-13 -.154E-13 -.927E+02   0.414E-24 0.414E-24 0.714E+01
   0.938E-13 -.175E-12 -.856E+02   0.350E-14 0.154E-13 0.927E+02   -.331E-23 0.000E+00 -.714E+01
   0.295E-14 -.220E-12 -.856E+02   0.152E-13 -.556E-14 0.927E+02   -.827E-24 0.207E-23 -.714E+01
   -.141E-13 0.333E-12 0.856E+02   -.136E-13 -.733E-14 -.927E+02   0.414E-24 0.000E+00 0.714E+01
   0.106E-12 -.860E-12 0.856E+02   -.192E-13 -.130E-13 -.927E+02   0.372E-23 0.000E+00 0.714E+01
   0.783E-12 -.212E-11 0.171E-11   0.769E-14 0.735E-14 0.227E-12   0.274E-23 0.646E-24 0.355E-14

 POSITION                                       TOTAL-FORCE (eV/Angst)
      1.89480      1.89480      4.77465        -0.000000     -0.000000     -0.000000
      1.89480      0.00000      7.16197         0.000000     -0.000000      0.000000
      0.00000      0.00000      0.00000        -0.000000     -0.000000      0.000000
      0.00000      1.89480      2.38732         0.000000      0.000000     -0.000000
      0.00000      1.89480      4.38123        -0.000000      0.000000     -0.002731
      1.89480      1.89480      6.76855         0.000000      0.000000     -0.002731
      1.89480      0.00000      5.16807        -0.000000      0.000000      0.002731
      0.00000      0.00000      7.55539         0.000000     -0.000000      0.002731
      1.89480      0.00000      9.15587        -0.000000      0.000000     -0.002731
      0.00000      0.00000      1.99390        -0.000000     -0.000000     -0.002731
      0.00000      1.89480      0.39342         0.000000      0.000000      0.002731
      1.89480      1.89480      2.78074         0.000000     -0.000000      0.002731
    total drift:                                0.000000     -0.000000      0.000000

  FREE ENERGIE OF THE ION-ELECTRON SYSTEM (eV)
  free  energy   TOTEN  =      -107.48137563 eV

  energy  without entropy=     -107.48137563  energy(sigma->0) =     -107.48137563

 reached required accuracy - stopping structural energy minimisation