 vasp.6.3.0 20Jan22 (build Mar 11 2022 13:48:16) complex

 executed on             LinuxIFC date 2024.08.21  17:40:54

 INCAR:
   SYSTEM = MgO-rocksalt
   ISMEAR = 0
   SIGMA = 0.05
   EDIFF = 1E-7
   ALGO = Normal
   ISTART = 0
   IBRION = 2
   NSW = 1000
   ISYM = 2
   ISIF = 3
   EDIFFG = -0.005
   GGA = RE
   IVDW = 13
   VDW_S8 = 1.7468
   VDW_A1 = 0.5363
   VDW_A2 = 3.0726
   ENCUT = 600
   PREC = Accurate
   LASPH = .TRUE.
   LREAL = .FALSE.
   ISPIN = 1
   NELM = 200
   NELMIN = 8
   NCORE = 8
   KPAR = 1
   LWAVE = .FALSE.
   LCHARG = .FALSE.

 POTCAR:    PAW_PBE Ti_pv 07Sep2000
 POTCAR:    PAW_PBE O 08Apr2002
|           W    W    AA    RRRRR   N    N  II  N    N   GGGG   !!!           |
|           W    W   A  A   R    R  NN   N  II  NN   N  G    G  !!!           |
|           W    W  A    A  R    R  N N  N  II  N N  N  G       !!!           |
|           W WW W  AAAAAA  RRRRR   N  N N  II  N  N N  G  GGG   !            |
|           WW  WW  A    A  R   R   N   NN  II  N   NN  G    G                |
|           W    W  A    A  R    R  N    N  II  N    N   GGGG   !!!           |
|     For optimal performance we recommend to set                             |
|       NCORE = 2 up to number-of-cores-per-socket                            |
|     This setting can greatly improve the performance of VASP for DFT.       |
|     The default, NCORE=1 might be grossly inefficient on modern             |
|     multi-core architectures or massively parallel machines. Do your        |
|     Unfortunately you need to use the default for GW and RPA                |
|     calculations (for HF NCORE is supported but not extensively tested      |
|     yet).                                                                   |

   TITEL  = PAW_PBE Ti_pv 07Sep2000
   POMASS =   47.880; ZVAL   =   10.000    mass and valenz
   ENMAX  =  222.335; ENMIN  =  166.751 eV

   TITEL  = PAW_PBE O 08Apr2002
   POMASS =   16.000; ZVAL   =    6.000    mass and valenz
   ENMAX  =  400.000; ENMIN  =  300.000 eV

  PAW_PBE Ti_pv 07Sep2000               :
  PAW_PBE O 08Apr2002                   :

 POSCAR: Ti4 O8
  positions in direct lattice
  velocities in cartesian coordinates
|           W    W    AA    RRRRR   N    N  II  N    N   GGGG   !!!           |
|           W    W   A  A   R    R  NN   N  II  NN   N  G    G  !!!           |
|           W    W  A    A  R    R  N N  N  II  N N  N  G       !!!           |
|           W WW W  AAAAAA  RRRRR   N  N N  II  N  N N  G  GGG   !            |
|           WW  WW  A    A  R   R   N   NN  II  N   NN  G    G                |
|           W    W  A    A  R    R  N    N  II  N    N   GGGG   !!!           |
|     Specifying the vdW parameters                                           |
|     VDW_S8 = 1.747                                                          |
|     VDW_A1 = 0.536                                                          |
|     VDW_A2 = 3.073                                                          |
|     in the INCAR file will overwrite the defaults for revpbe. Please        |
|     make sure that is what you intended.                                    |

 ion  position               nearest neighbor table
   1  0.500  0.500  0.500-   5 1.94   7 1.94   7 1.94   5 1.94   6 1.99  12 1.99   2 3.05   2 3.05
                             4 3.05   4 3.05
   2  0.500  0.000  0.750-   6 1.94   8 1.94   6 1.94   8 1.94   7 1.99   9 1.99   1 3.05   1 3.05
                             3 3.05   3 3.05
   3  0.000  0.000  0.000-   9 1.94  11 1.94  11 1.94   9 1.94  10 1.99   8 1.99   4 3.05   2 3.05
                             2 3.05   4 3.05
   4  0.000  0.500  0.250-  10 1.94  12 1.94  10 1.94  12 1.94  11 1.99   5 1.99   3 3.05   1 3.05
                             1 3.05   3 3.05
   5  0.000  0.500  0.459-   1 1.94   1 1.94   4 1.99
   6  0.500  0.500  0.709-   2 1.94   2 1.94   1 1.99
   7  0.500  0.000  0.541-   1 1.94   1 1.94   2 1.99
   8  0.000  0.000  0.791-   2 1.94   2 1.94   3 1.99
   9  0.500  0.000  0.959-   3 1.94   3 1.94   2 1.99
  10  0.000  0.000  0.209-   4 1.94   4 1.94   3 1.99
  11  0.000  0.500  0.041-   3 1.94   3 1.94   4 1.99
  12  0.500  0.500  0.291-   4 1.94   4 1.94   1 1.99

  LATTYP: Found a simple tetragonal cell.
 ALAT       =     3.7896049469
 C/A-ratio  =     2.5195536083

  Lattice vectors:

 A1 = (   3.7896049469,   0.0000000000,   0.0000000000)
 A2 = (   0.0000000000,   3.7896049469,   0.0000000000)
 A3 = (   0.0000000000,   0.0000000000,   9.5481128179)

Analysis of symmetry for initial positions (statically):
 Subroutine PRICEL returns following result:

  LATTYP: Found a body centered tetragonal cell.
 ALAT       =     3.7896049469
 C/A-ratio  =     2.5195536083

[...]

   2 primitive cells build up your supercell.

 Routine SETGRP: Setting up the symmetry group for a
 simple tetragonal supercell.

 Subroutine GETGRP returns: Found 16 space group operations
 (whereof  8 operations were pure point group operations)
 out of a pool of 16 trial point group operations.

The static configuration has the point symmetry D_2d.
 The point group associated with its full space group is D_4h.

Analysis of symmetry for dynamics (positions and initial velocities):
 Subroutine PRICEL returns following result:

  LATTYP: Found a body centered tetragonal cell.
 ALAT       =     3.7896049469
 C/A-ratio  =     2.5195536083

  Lattice vectors:

 A1 = (  -1.8948024735,   1.8948024735,   4.7740564090)
 A2 = (   1.8948024735,  -1.8948024735,   4.7740564090)
 A3 = (   1.8948024735,   1.8948024735,  -4.7740564090)

   2 primitive cells build up your supercell.

 Routine SETGRP: Setting up the symmetry group for a
 simple tetragonal supercell.

 Subroutine GETGRP returns: Found 16 space group operations
 (whereof  8 operations were pure point group operations)
 out of a pool of 16 trial point group operations.

The dynamic configuration has the point symmetry D_2d.
 The point group associated with its full space group is D_4h.

 Subroutine INISYM returns: Found 16 space group operations
 (whereof  8 operations are pure point group operations),
 and found     2 'primitive' translations

                                     Primitive cell

  volume of cell :      68.5607

  direct lattice vectors                    reciprocal lattice vectors
    -1.894802473  1.894802473  4.774056409    -0.000000000  0.263879748  0.104732738
     1.894802473 -1.894802473  4.774056409     0.263879748 -0.000000000  0.104732738
     1.894802473  1.894802473 -4.774056409     0.263879748  0.263879748 -0.000000000

  length of vectors
     5.474684230  5.474684230  5.474684230     0.283903977  0.283903977  0.373182319

  position of ions in fractional coordinates (direct lattice)
     0.000000000  1.000000000  1.000000000
     0.750000000  0.250000000  0.500000000
     0.958821901  0.458821901  0.500000000
     0.208821901  0.208821901  1.000000000
     0.541178099  0.041178099  0.500000000
     0.791178099  0.791178099  1.000000000

  ion indices of the primitive-cell ions
   primitive index   ion index
                 1           1
                 2           2
                 3           5
                 4           6
                 5           7
                 6          12

 KPOINTS: pymatgen v2020.8.13 with grid density =

Automatic generation of k-mesh.
 Grid dimensions read from file:
 generate k-points for:    6    6    2

 Generating k-lattice:

  Cartesian coordinates                     Fractional coordinates (reciprocal lattice)
     0.043979958 -0.000000000  0.000000000     0.166666667  0.000000000  0.000000000
     0.000000000  0.043979958  0.000000000     0.000000000  0.166666667  0.000000000
    -0.000000000 -0.000000000  0.052366369     0.000000000  0.000000000  0.500000000

  Length of vectors
     0.043979958  0.043979958  0.052366369

  Shift w.r.t. Gamma in fractional coordinates (k-lattice)
     0.000000000  0.000000000  0.000000000

 Subroutine IBZKPT returns following result:

 Found     20 irreducible k-points:

 Following reciprocal coordinates:
            Coordinates               Weight
  0.000000  0.000000  0.000000      1.000000
  0.166667  0.000000  0.000000      4.000000
  0.333333 -0.000000  0.000000      4.000000
  0.500000 -0.000000  0.000000      2.000000
  0.166667  0.166667  0.000000      4.000000
  0.333333  0.166667  0.000000      8.000000
  0.500000  0.166667  0.000000      4.000000
  0.333333  0.333333  0.000000      4.000000
  0.500000  0.333333  0.000000      4.000000
  0.500000  0.500000  0.000000      1.000000
  0.000000  0.000000  0.500000      1.000000
  0.166667 -0.000000  0.500000      4.000000
  0.333333 -0.000000  0.500000      4.000000
  0.500000 -0.000000  0.500000      2.000000
  0.166667  0.166667  0.500000      4.000000
  0.333333  0.166667  0.500000      8.000000
  0.500000  0.166667  0.500000      4.000000
  0.333333  0.333333  0.500000      4.000000
  0.500000  0.333333  0.500000      4.000000
  0.500000  0.500000  0.500000      1.000000

 Following cartesian coordinates:
            Coordinates               Weight
  0.000000  0.000000  0.000000      1.000000
  0.043980 -0.000000  0.000000      4.000000
  0.087960 -0.000000  0.000000      4.000000
  0.131940 -0.000000  0.000000      2.000000
  0.043980  0.043980  0.000000      4.000000
  0.087960  0.043980  0.000000      8.000000
  0.131940  0.043980  0.000000      4.000000
  0.087960  0.087960  0.000000      4.000000
  0.131940  0.087960  0.000000      4.000000
  0.131940  0.131940  0.000000      1.000000
 -0.000000 -0.000000  0.052366      1.000000
  0.043980 -0.000000  0.052366      4.000000
  0.087960 -0.000000  0.052366      4.000000
  0.131940 -0.000000  0.052366      2.000000
  0.043980  0.043980  0.052366      4.000000
  0.087960  0.043980  0.052366      8.000000
  0.131940  0.043980  0.052366      4.000000
  0.087960  0.087960  0.052366      4.000000
  0.131940  0.087960  0.052366      4.000000
  0.131940  0.131940  0.052366      1.000000

 SYSTEM =  MgO-rocksalt
 POSCAR =  Ti4 O8

  energy-cutoff  :      600.00
  volume of cell :      137.12
      direct lattice vectors                 reciprocal lattice vectors
     3.789604947  0.000000000  0.000000000     0.263879748 -0.000000000  0.000000000
     0.000000000  3.789604947  0.000000000     0.000000000  0.263879748  0.000000000
     0.000000000  0.000000000  9.548112818    -0.000000000 -0.000000000  0.104732738

[...]

 k-points in units of 2pi/SCALE and weight: pymatgen v2020.8.13 with grid density =
   0.00000000  0.00000000  0.00000000       0.014
   0.04397996 -0.00000000  0.00000000       0.056
   0.08795992 -0.00000000  0.00000000       0.056
   0.13193987 -0.00000000  0.00000000       0.028
   0.04397996  0.04397996  0.00000000       0.056
   0.08795992  0.04397996  0.00000000       0.111
   0.13193987  0.04397996  0.00000000       0.056
   0.08795992  0.08795992  0.00000000       0.056
   0.13193987  0.08795992  0.00000000       0.056
   0.13193987  0.13193987  0.00000000       0.014
  -0.00000000 -0.00000000  0.05236637       0.014
   0.04397996 -0.00000000  0.05236637       0.056
   0.08795992 -0.00000000  0.05236637       0.056
   0.13193987 -0.00000000  0.05236637       0.028
   0.04397996  0.04397996  0.05236637       0.056
   0.08795992  0.04397996  0.05236637       0.111
   0.13193987  0.04397996  0.05236637       0.056
   0.08795992  0.08795992  0.05236637       0.056
   0.13193987  0.08795992  0.05236637       0.056
   0.13193987  0.13193987  0.05236637       0.014

 k-points in reciprocal lattice and weights: pymatgen v2020.8.13 with grid density =
   0.00000000  0.00000000  0.00000000       0.014
   0.16666667  0.00000000  0.00000000       0.056
   0.33333333 -0.00000000  0.00000000       0.056
   0.50000000 -0.00000000  0.00000000       0.028
   0.16666667  0.16666667  0.00000000       0.056
   0.33333333  0.16666667  0.00000000       0.111
   0.50000000  0.16666667  0.00000000       0.056
   0.33333333  0.33333333  0.00000000       0.056
   0.50000000  0.33333333  0.00000000       0.056
   0.50000000  0.50000000  0.00000000       0.014
   0.00000000  0.00000000  0.50000000       0.014
   0.16666667 -0.00000000  0.50000000       0.056
   0.33333333 -0.00000000  0.50000000       0.056
   0.50000000 -0.00000000  0.50000000       0.028
   0.16666667  0.16666667  0.50000000       0.056
   0.33333333  0.16666667  0.50000000       0.111
   0.50000000  0.16666667  0.50000000       0.056
   0.33333333  0.33333333  0.50000000       0.056
   0.50000000  0.33333333  0.50000000       0.056
   0.50000000  0.50000000  0.50000000       0.014

 position of ions in fractional coordinates (direct lattice)
   0.50000000  0.50000000  0.50000000
   0.50000000  0.00000000  0.75000000
   0.00000000  0.00000000  0.00000000
   0.00000000  0.50000000  0.25000000
   0.00000000  0.50000000  0.45882190
   0.50000000  0.50000000  0.70882190
   0.50000000  0.00000000  0.54117810
   0.00000000  0.00000000  0.79117810
   0.50000000  0.00000000  0.95882190
   0.00000000  0.00000000  0.20882190
   0.00000000  0.50000000  0.04117810
   0.50000000  0.50000000  0.29117810

 position of ions in cartesian coordinates  (Angst):
   1.89480247  1.89480247  4.77405641
   1.89480247  0.00000000  7.16108461
   0.00000000  0.00000000  0.00000000
   0.00000000  1.89480247  2.38702820
   0.00000000  1.89480247  4.38088328
   1.89480247  1.89480247  6.76791148
   1.89480247  0.00000000  5.16722954
   0.00000000  0.00000000  7.55425775
   1.89480247  0.00000000  9.15493968
   0.00000000  0.00000000  1.99385507
   0.00000000  1.89480247  0.39317313
   1.89480247  1.89480247  2.78020134

--------------------------------------- Iteration      FINAL  ---------------------------------------

--------------------OUTCAR has been truncated-------------------------

[...]

--------------------OUTCAR has been truncated-------------------------

  FORCE on cell =-STRESS in cart. coord.  units (eV):
  Direction    XX          YY          ZZ          XY          YZ          ZX
  Alpha Z   398.84591   398.84591   398.84591
  Ewald   -1993.21850 -1993.21850 -1430.12933     0.00000    -0.00000    -0.00000
  Hartree   574.21997   574.21997   928.74579    -0.00000    -0.00000    -0.00000
  E(xc)    -431.29754  -431.29754  -430.96297     0.00000     0.00000     0.00000
  Local      34.28010    34.28010  -877.67387    -0.00000    -0.00000    -0.00000
  n-local  -268.40658  -262.91246  -268.26770    -0.01819    -0.00000     0.00000
  augment   261.20876   261.20876   260.69549     0.00000    -0.00000    -0.00000
  Kinetic  1421.86214  1434.93337  1425.19418    -1.27706     0.00000    -0.00000
  Fock        0.00000     0.00000     0.00000     0.00000     0.00000     0.00000
  vdW        -6.72101    -6.72105    -6.42679    -0.00000    -0.00000    -0.00000
  Total       0.05590     0.05590     0.02070    -0.00000     0.00000     0.00000
  in kB       0.65317     0.65317     0.24190    -0.00000     0.00000     0.00000

 VOLUME and BASIS-vectors are now :
  energy-cutoff  :      600.00
  volume of cell :      137.12
      direct lattice vectors                 reciprocal lattice vectors
     3.789604947  0.000000000  0.000000000     0.263879748 -0.000000000  0.000000000
     0.000000000  3.789604947  0.000000000     0.000000000  0.263879748  0.000000000
     0.000000000  0.000000000  9.548112818    -0.000000000 -0.000000000  0.104732738

  length of vectors
     3.789604947  3.789604947  9.548112818     0.263879748  0.263879748  0.104732738

 FORCES acting on ions
    electron-ion (+dipol)            ewald-force                    non-local-force                 convergence-correction
   0.151E-12 -.154E-11 0.512E-12   0.880E-14 0.792E-14 -.568E-13   -.132E-24 -.735E-25 0.407E-16   0.211E-13 0.153E-12 0.545E-13
   0.143E-12 -.952E-13 -.507E-12   0.926E-15 0.135E-13 0.135E-12   0.711E-25 -.207E-24 -.704E-16   0.994E-13 -.122E-12 -.911E-13
   0.649E-14 0.832E-13 0.391E-12   0.119E-13 0.710E-14 0.114E-12   0.353E-25 -.104E-24 0.265E-16   0.151E-12 0.169E-12 -.173E-12
   0.103E-13 0.391E-13 -.485E-12   0.402E-14 0.135E-13 -.568E-13   -.282E-24 0.511E-25 0.321E-16   0.222E-12 -.110E-12 0.411E-13
   0.169E-13 0.106E-11 -.856E+02   0.160E-13 0.233E-13 0.928E+02   -.360E-25 -.590E-26 -.714E+01   0.499E-13 0.863E-13 0.334E-04
   0.142E-12 -.115E-11 -.856E+02   0.184E-13 0.172E-13 0.928E+02   -.326E-25 -.432E-25 -.714E+01   0.832E-13 0.121E-12 0.334E-04
   0.142E-12 0.295E-12 0.856E+02   -.227E-13 -.330E-13 -.928E+02   0.359E-25 0.563E-25 0.714E+01   0.373E-13 -.988E-13 -.334E-04
   0.863E-14 -.785E-12 0.856E+02   -.265E-13 -.266E-13 -.928E+02   0.202E-24 0.332E-25 0.714E+01   -.204E-13 -.467E-13 -.334E-04
   0.740E-13 0.749E-12 -.856E+02   0.142E-13 0.241E-13 0.928E+02   -.240E-24 0.313E-26 -.714E+01   -.428E-13 0.720E-13 0.334E-04
   0.420E-14 -.310E-12 -.856E+02   0.177E-13 0.178E-13 0.928E+02   -.804E-25 -.500E-25 -.714E+01   0.144E-12 0.126E-12 0.334E-04
   0.277E-14 0.402E-12 0.856E+02   -.235E-13 -.316E-13 -.928E+02   0.518E-25 0.524E-25 0.714E+01   0.977E-13 -.101E-12 -.334E-04
   0.799E-13 0.736E-12 0.856E+02   -.284E-13 -.254E-13 -.928E+02   0.272E-24 -.983E-26 0.714E+01   -.112E-12 -.597E-13 -.334E-04
   0.781E-12 -.519E-12 -.526E-12   -.917E-14 0.785E-14 0.171E-12   -.134E-24 -.297E-24 -.888E-15   0.730E-12 0.189E-12 -.619E-13

 POSITION                                       TOTAL-FORCE (eV/Angst)
      1.89480      1.89480      4.77406        -0.000000     -0.000000     -0.000000
      1.89480      0.00000      7.16108         0.000000      0.000000     -0.000000
      0.00000      0.00000      0.00000         0.000000      0.000000     -0.000000
      0.00000      1.89480      2.38703        -0.000000     -0.000000     -0.000000
      0.00000      1.89480      4.38088        -0.000000      0.000000     -0.003394
      1.89480      1.89480      6.76791        -0.000000      0.000000     -0.003394
      1.89480      0.00000      5.16723         0.000000     -0.000000      0.003394
      0.00000      0.00000      7.55426         0.000000     -0.000000      0.003394
      1.89480      0.00000      9.15494         0.000000     -0.000000     -0.003394
      0.00000      0.00000      1.99386        -0.000000      0.000000     -0.003394
      0.00000      1.89480      0.39317         0.000000     -0.000000      0.003394
      1.89480      1.89480      2.78020        -0.000000      0.000000      0.003394
    total drift:                                0.000000     -0.000000     -0.000000

  FREE ENERGIE OF THE ION-ELECTRON SYSTEM (eV)
  free  energy   TOTEN  =      -107.48134157 eV

  energy  without entropy=     -107.48134157  energy(sigma->0) =     -107.48134157

 reached required accuracy - stopping structural energy minimisation