 vasp.6.4.1 05Apr23 (build Sep 19 2024 10:44:22) complex

 executed on             LinuxIFC date 2024.10.20  07:35:51

 INCAR:
   SYSTEM = TiO2
   ISMEAR = 0
   SIGMA = 0.05
   EDIFF = 1E-7
   ALGO = ALL
   ISTART = 0
   IBRION = 2
   NSW = 1000
   ISYM = 0
   ISIF = 2
   EDIFFG = -0.01
   DIPOL = 0.5 0.5 0.5
   IDIPOL = 3
   LDIPOL = .TRUE.
   GGA = PE
   IVDW = 21
   ENCUT = 600
   PREC = Accurate
   LASPH = .TRUE.
   LREAL = .FALSE.
   ISPIN = 1
   NELM = 200
   NELMIN = 8
   NCORE = 8
   KPAR = 1
   LWAVE = .FALSE.
   LCHARG = .FALSE.

 POTCAR:    PAW_PBE H 15Jun2001
 POTCAR:    PAW_PBE O 08Apr2002
 POTCAR:    PAW_PBE Ti_pv 07Sep2000
 POTCAR:    PAW_PBE O 08Apr2002
|           W    W    AA    RRRRR   N    N  II  N    N   GGGG   !!!           |
|           W    W   A  A   R    R  NN   N  II  NN   N  G    G  !!!           |
|           W    W  A    A  R    R  N N  N  II  N N  N  G       !!!           |
|           W WW W  AAAAAA  RRRRR   N  N N  II  N  N N  G  GGG   !            |
|           WW  WW  A    A  R   R   N   NN  II  N   NN  G    G                |
|           W    W  A    A  R    R  N    N  II  N    N   GGGG   !!!           |
|     For optimal performance we recommend to set                             |
|       NCORE = 2 up to number-of-cores-per-socket                            |
|     This setting can greatly improve the performance of VASP for DFT.       |
|     The default, NCORE=1 might be grossly inefficient on modern             |
|     multi-core architectures or massively parallel machines. Do your        |
|     Unfortunately you need to use the default for GW and RPA                |
|     calculations (for HF NCORE is supported but not extensively tested      |
|     yet).                                                                   |

   TITEL  = PAW_PBE H 15Jun2001
   POMASS =    1.000; ZVAL   =    1.000    mass and valenz
   ENMAX  =  250.000; ENMIN  =  200.000 eV

   TITEL  = PAW_PBE O 08Apr2002
   POMASS =   16.000; ZVAL   =    6.000    mass and valenz
   ENMAX  =  400.000; ENMIN  =  300.000 eV

   TITEL  = PAW_PBE Ti_pv 07Sep2000
   POMASS =   47.880; ZVAL   =   10.000    mass and valenz
   ENMAX  =  222.335; ENMIN  =  166.751 eV

   TITEL  = PAW_PBE O 08Apr2002
   POMASS =   16.000; ZVAL   =    6.000    mass and valenz
   ENMAX  =  400.000; ENMIN  =  300.000 eV

  PAW_PBE H 15Jun2001                   :
  PAW_PBE O 08Apr2002                   :
  PAW_PBE Ti_pv 07Sep2000               :
  PAW_PBE O 08Apr2002                   :

 POSCAR:  H  O Ti  O
  positions in direct lattice
 exchange correlation table for  LEXCH =        8
   RHO(1)=    0.500       N(1)  =     2000
   RHO(2)=  100.500       N(2)  =     4000

 ion  position               nearest neighbor table
   1  0.687  0.568  0.767-   3 0.98
   2  0.687  0.432  0.767-   3 0.98
   3  0.629  0.500  0.769-   2 0.98   1 0.98  51 2.30
   4  0.817  0.833  0.295-  54 1.94  88 1.94  56 1.94  55 2.00  53 2.00  21 3.07   5 3.07   7 3.07

   5  0.600  0.667  0.326-  57 1.94 119 1.94  52 1.94  55 1.94  58 2.00  56 2.00  36 3.07   4 3.07
                             6 3.07  10 3.10
   6  0.317  0.667  0.295-  58 1.94 124 1.94  60 1.94  59 2.00  52 2.00  39 3.07   7 3.07   5 3.07

   7  0.100  0.833  0.326-  61 1.94  91 1.94  53 1.94  59 1.94  54 2.00  60 2.00  22 3.07   6 3.07
                             4 3.07   8 3.10
   8  0.951  0.833  0.422-  62 1.93  64 1.94  96 1.94  54 1.98  63 1.99  61 2.01  11 3.02   9 3.07
                            25 3.07   7 3.10
   9  0.731  0.667  0.452-  57 1.90  63 1.94 127 1.94  65 1.97  66 1.99  64 2.01  10 3.02   8 3.07
                            40 3.07  14 3.12
  10  0.451  0.667  0.422-  66 1.93 132 1.94  68 1.94  58 1.98  67 1.99  57 2.01   9 3.02  11 3.07
                            43 3.07   5 3.10
  11  0.231  0.833  0.452-  61 1.90  99 1.94  67 1.94  69 1.97  62 1.99  68 2.01   8 3.02  26 3.07
                            10 3.07  12 3.12
  12  0.089  0.833  0.550-  72 1.93 104 1.93  70 1.94  71 1.99  62 2.00  69 2.01  15 2.98  13 3.07
                            29 3.07  11 3.12
  13  0.867  0.667  0.577-  65 1.87  71 1.94 135 1.94  74 1.95  73 2.00  72 2.03  14 2.98  12 3.07
                            44 3.07
  14  0.589  0.667  0.550- 140 1.93  76 1.93  74 1.94  75 1.99  66 2.00  65 2.01  13 2.98  15 3.07
                            47 3.07   9 3.12
  15  0.367  0.833  0.577-  69 1.87  75 1.94 107 1.94  70 1.95  77 2.00  76 2.03  12 2.98  14 3.07
                            30 3.07
  16  0.234  0.833  0.680-  78 1.86 112 1.93  80 1.93  79 2.01  70 2.09  77 2.11  19 2.87  33 3.09
                            17 3.09
  17  0.004  0.667  0.701-  73 1.79  81 1.83  79 1.98 143 1.98  80 2.06  18 2.87  48 3.09  16 3.09

[...]

  20  0.817  0.167  0.295-  86 1.94  88 1.94 120 1.94  87 2.00  85 2.00  21 3.07  37 3.07  23 3.07

[...]

  36  0.817  0.500  0.295- 118 1.94  56 1.94 120 1.94 119 2.00 117 2.00  37 3.07   5 3.07  39 3.07

  37  0.600  0.333  0.326- 121 1.94 119 1.94 116 1.94  87 1.94 122 2.00 120 2.00  36 3.07  20 3.07
                            38 3.07  42 3.10
  38  0.317  0.333  0.295- 122 1.94 124 1.94  92 1.94 123 2.00 116 2.00  39 3.07  23 3.07  37 3.07

  39  0.100  0.500  0.326- 125 1.94 123 1.94  59 1.94 117 1.94 118 2.00 124 2.00   6 3.07  38 3.07
                            36 3.07  40 3.10
  40  0.951  0.500  0.422- 126 1.93  64 1.94 128 1.94 118 1.98 127 1.99 125 2.01  43 3.02  41 3.07
                             9 3.07  39 3.10
  41  0.731  0.333  0.452- 121 1.90  95 1.94 127 1.94 129 1.97 130 1.99 128 2.01  42 3.02  40 3.07
                            24 3.07  46 3.12
  42  0.451  0.333  0.422- 130 1.93 132 1.94 100 1.94 122 1.98 131 1.99 121 2.01  41 3.02  27 3.07
                            43 3.07  37 3.10
  43  0.231  0.500  0.452- 125 1.90 131 1.94  67 1.94 133 1.97 126 1.99 132 2.01  40 3.02  10 3.07
                            42 3.07  44 3.12
  44  0.089  0.500  0.550- 136 1.93  72 1.93 134 1.94 135 1.99 126 2.00 133 2.01  47 2.98  45 3.07
                            13 3.07  43 3.12
  45  0.867  0.333  0.577- 129 1.87 135 1.94 103 1.94 138 1.95 137 2.00 136 2.03  46 2.98  44 3.07
                            28 3.07
  46  0.589  0.333  0.550- 140 1.93 108 1.93 138 1.94 139 1.99 130 2.00 129 2.01  45 2.98  31 3.07
                            47 3.07  41 3.12
  47  0.367  0.500  0.577- 133 1.87 139 1.94  75 1.94 134 1.95 141 2.00 140 2.03  44 2.98  46 3.07
                            14 3.07
  48  0.234  0.500  0.680- 142 1.86  80 1.93 144 1.93 143 2.01 134 2.09 141 2.11  51 2.87  17 3.09
                            49 3.09
  49  0.004  0.333  0.701- 137 1.79 145 1.83 143 1.98 111 1.98 144 2.06  50 2.87  32 3.09  48 3.09

  50  0.734  0.333  0.680- 145 1.86 115 1.93 147 1.93 146 2.01 138 2.09 137 2.11  49 2.87  35 3.09
                            51 3.09
  51  0.504  0.500  0.701- 141 1.79 142 1.83  82 1.98 146 1.98 147 2.06   3 2.30  48 2.87  18 3.09
                            50 3.09
  52  0.496  0.667  0.269-   5 1.94   6 2.00
  53  0.996  0.833  0.269-   7 1.94   4 2.00
  54  0.920  0.833  0.352-   4 1.94   8 1.98   7 2.00
  55  0.637  0.833  0.321-  21 1.94   5 1.94   4 2.00
  56  0.779  0.667  0.300-  36 1.94   4 1.94   5 2.00
  57  0.629  0.667  0.395-   9 1.90   5 1.94  10 2.01
  58  0.420  0.667  0.352-   6 1.94  10 1.98   5 2.00
  59  0.137  0.667  0.321-  39 1.94   7 1.94   6 2.00
  60  0.279  0.833  0.300-  22 1.94   6 1.94   7 2.00
  61  0.129  0.833  0.395-  11 1.90   7 1.94   8 2.01
  62  0.055  0.833  0.480-   8 1.93  11 1.99  12 2.00
  63  0.771  0.833  0.447-   9 1.94  25 1.94   8 1.99
  64  0.913  0.667  0.427-   8 1.94  40 1.94   9 2.01
  65  0.766  0.667  0.521-  13 1.87   9 1.97  14 2.01
  66  0.555  0.667  0.480-  10 1.93   9 1.99  14 2.00
  67  0.271  0.667  0.447-  11 1.94  43 1.94  10 1.99
  68  0.413  0.833  0.427-  26 1.94  10 1.94  11 2.01
  69  0.266  0.833  0.521-  15 1.87  11 1.97  12 2.01
  70  0.197  0.833  0.607-  12 1.94  15 1.95  16 2.09
  71  0.908  0.833  0.573-  29 1.94  13 1.94  12 1.99
  72  0.052  0.667  0.553-  12 1.93  44 1.93  13 2.03
  73  0.914  0.667  0.646-  17 1.79  13 2.00  18 2.11
  74  0.697  0.667  0.607-  14 1.94  13 1.95  18 2.09
  75  0.408  0.667  0.573-  15 1.94  47 1.94  14 1.99
  76  0.552  0.833  0.553-  14 1.93  30 1.93  15 2.03
  77  0.414  0.833  0.646-  19 1.79  15 2.00  16 2.11
  78  0.349  0.833  0.732-  19 1.83  16 1.86
  79  0.056  0.833  0.709-  33 1.98  17 1.98  16 2.01
  80  0.196  0.667  0.680-  48 1.93  16 1.93  17 2.06
  81  0.849  0.667  0.732-  17 1.83  18 1.86
  82  0.556  0.667  0.709-  19 1.98  51 1.98  18 2.01
  83  0.696  0.833  0.680-  34 1.93  18 1.93  19 2.06
  84  0.496  0.000  0.269-  21 1.94  22 2.00
  85  0.996  0.167  0.269-  23 1.94  20 2.00
  86  0.920  0.167  0.352-  20 1.94  24 1.98  23 2.00
  87  0.637  0.167  0.321-  21 1.94  37 1.94  20 2.00
  88  0.779  0.000  0.300-   4 1.94  20 1.94  21 2.00
  89  0.629  0.000  0.395-  25 1.90  21 1.94  26 2.01
  90  0.420  0.000  0.352-  22 1.94  26 1.98  21 2.00
  91  0.137  0.000  0.321-   7 1.94  23 1.94  22 2.00
  92  0.279  0.167  0.300-  22 1.94  38 1.94  23 2.00
  93  0.129  0.167  0.395-  27 1.90  23 1.94  24 2.01
  94  0.055  0.167  0.480-  24 1.93  27 1.99  28 2.00
  95  0.771  0.167  0.447-  41 1.94  25 1.94  24 1.99
  96  0.913  0.000  0.427-  24 1.94   8 1.94  25 2.01
  97  0.766  1.000  0.521-  29 1.87  25 1.97  30 2.01
  98  0.555  1.000  0.480-  26 1.93  25 1.99  30 2.00
  99  0.271  1.000  0.447-  11 1.94  27 1.94  26 1.99
 100  0.413  0.167  0.427-  26 1.94  42 1.94  27 2.01
 101  0.266  0.167  0.521-  31 1.87  27 1.97  28 2.01
 102  0.197  0.167  0.607-  28 1.94  31 1.95  32 2.09
 103  0.908  0.167  0.573-  29 1.94  45 1.94  28 1.99
 104  0.052  0.000  0.553-  12 1.93  28 1.93  29 2.03
 105  0.914  1.000  0.646-  33 1.79  29 2.00  34 2.11
 106  0.697  0.000  0.607-  30 1.94  29 1.95  34 2.09
 107  0.408  0.000  0.573-  15 1.94  31 1.94  30 1.99
 108  0.552  0.167  0.553-  30 1.93  46 1.93  31 2.03
 109  0.414  0.167  0.646-  35 1.79  31 2.00  32 2.11
 110  0.349  0.167  0.732-  35 1.83  32 1.86
 111  0.056  0.167  0.709-  49 1.98  33 1.98  32 2.01
[...]
 133  0.266  0.500  0.521-  47 1.87  43 1.97  44 2.01
 134  0.197  0.500  0.607-  44 1.94  47 1.95  48 2.09
 135  0.908  0.500  0.573-  45 1.94  13 1.94  44 1.99
 136  0.052  0.333  0.553-  28 1.93  44 1.93  45 2.03
 137  0.914  0.333  0.646-  49 1.79  45 2.00  50 2.11
 138  0.697  0.333  0.607-  46 1.94  45 1.95  50 2.09
 139  0.408  0.333  0.573-  31 1.94  47 1.94  46 1.99
 140  0.552  0.500  0.553-  46 1.93  14 1.93  47 2.03
 141  0.414  0.500  0.646-  51 1.79  47 2.00  48 2.11
 142  0.349  0.500  0.732-  51 1.83  48 1.86
 143  0.056  0.500  0.709-  49 1.98  17 1.98  48 2.01
 144  0.196  0.333  0.680-  32 1.93  48 1.93  49 2.06
 145  0.849  0.333  0.732-  49 1.83  50 1.86
 146  0.556  0.333  0.709-  35 1.98  51 1.98  50 2.01
 147  0.696  0.500  0.680-  18 1.93  50 1.93  51 2.06

IMPORTANT INFORMATION: All symmetrisations will be switched off!
NOSYMM: (Re-)initialisation of all symmetry stuff for point group C_1.

                                     Primitive cell

  volume of cell :    3293.6692

[...]
   O          52.721          3.912          9.927          1.83834321
   O          38.865          3.718          8.523          1.57839372
   O          50.915          3.890          9.756          1.80658878
   O          53.049          3.916          9.958          1.84406700

  Number of pair interactions contributing to vdW energy: 1718991
  Edisp (eV):  -18.01975

  FORCE on cell =-STRESS in cart. coord.  units (eV):
  Direction    XX          YY          ZZ          XY          YZ          ZX
  Alpha Z  2418.24387  2418.24387  2418.24387
  Ewald  481891.12664475225.65636************    -0.00847     0.00022 -1830.19050
  Hartree503093.39062498992.51924************    -0.00184     0.00024 -1245.12541
  E(xc)   -5181.54479 -5185.75484 -5192.72643    -0.00000    -0.00001    -1.38209
  Local  ************************993850.00669     0.00729    -0.00026  3084.73919
  n-local -3294.21402 -3262.00278 -3304.37878     0.00052    -0.00006     3.10557
  augment  3139.95927  3135.54552  3128.46618     0.00007    -0.00001    -0.93968
  Kinetic 17154.73951 17205.42562 17287.33089     0.00010     0.00011   -19.76359
  Fock        0.00000     0.00000     0.00000     0.00000     0.00000     0.00000
  vdW       -19.76034   -26.21160   -21.39023    -0.00000     0.00000    -0.72113
  Total     -48.29128   -18.03137   -13.56124    -0.00233     0.00025   -10.27763
  in kB     -23.49088    -8.77120    -6.59675    -0.00114     0.00012    -4.99946

 VOLUME and BASIS-vectors are now :
  energy-cutoff  :      600.00
  volume of cell :     3293.67
      direct lattice vectors                 reciprocal lattice vectors
    10.375787277  0.000000000  0.000000000     0.096378229 -0.000000000  0.000000000
     0.000000000 11.367280081  0.000000000     0.000000000  0.087971792  0.000000000
     0.000000000  0.000000000 27.925590326     0.000000000  0.000000000  0.035809449

  length of vectors
    10.375787277 11.367280081 27.925590326     0.096378229  0.087971792  0.035809449

 FORCES acting on ions:
    Electron-Ion                     Ewald-Force                    Non-Local-Force
   -.515E+02 -.659E+02 -.355E+03   0.564E+02 0.724E+02 0.355E+03   -.495E+01 -.655E+01 0.224E+00
   -.515E+02 0.659E+02 -.355E+03   0.564E+02 -.724E+02 0.355E+03   -.495E+01 0.656E+01 0.224E+00
   0.124E+02 -.696E-02 -.216E+04   -.536E+02 0.126E-01 0.217E+04   0.412E+02 -.166E-02 -.984E+01
   0.441E+01 -.784E-01 0.334E+04   0.415E+00 0.813E-01 -.333E+04   -.104E+01 -.607E-03 -.338E+01
   0.517E+01 -.223E+00 0.274E+04   -.672E+01 0.225E+00 -.275E+04   -.102E+00 -.856E-03 -.428E-01
   0.452E+01 0.130E+00 0.334E+04   0.268E+00 -.133E+00 -.333E+04   -.104E+01 0.898E-03 -.338E+01
   0.363E+01 0.851E-01 0.274E+04   -.522E+01 -.909E-01 -.275E+04   -.934E-01 0.137E-02 -.474E-01
   -.370E+00 0.266E-01 0.125E+04   0.216E+00 -.285E-01 -.125E+04   0.163E+00 -.819E-03 0.304E-01
   0.146E+01 -.231E+01 0.797E+03   -.139E+01 0.230E+01 -.796E+03   -.501E-01 0.222E-01 -.154E+00
   0.183E+01 -.135E+00 0.125E+04   -.197E+01 0.130E+00 -.125E+04   0.149E+00 0.598E-02 0.695E-02
   -.518E+01 0.227E+00 0.786E+03   0.523E+01 -.226E+00 -.786E+03   -.272E-01 0.114E-02 -.150E+00
   -.661E+01 -.229E+01 -.774E+03   0.632E+01 0.228E+01 0.774E+03   0.311E+00 0.513E-02 0.136E+00
   -.127E+02 -.476E+01 -.115E+04   0.129E+02 0.480E+01 0.115E+04   -.971E-01 -.397E-01 -.267E+00
   0.223E+01 -.265E+01 -.741E+03   -.246E+01 0.265E+01 0.741E+03   0.262E+00 0.361E-02 0.879E-01
   0.928E+00 -.204E+01 -.119E+04   -.779E+00 0.204E+01 0.119E+04   -.111E+00 -.928E-02 -.307E+00
   0.276E+02 -.121E+02 -.276E+04   -.285E+02 0.121E+02 0.276E+04   0.989E+00 0.113E-01 -.132E+00
   -.883E+02 -.270E+02 -.314E+04   0.886E+02 0.268E+02 0.314E+04   -.575E-01 0.169E+00 0.719E+00
   -.129E+02 -.532E+02 -.266E+04   0.121E+02 0.532E+02 0.266E+04   0.830E+00 -.391E-01 0.686E-02
   -.565E+02 -.345E+02 -.314E+04   0.567E+02 0.345E+02 0.314E+04   -.270E-01 0.557E-02 0.752E+00
   0.441E+01 0.784E-01 0.334E+04   0.415E+00 -.813E-01 -.333E+04   -.104E+01 0.608E-03 -.338E+01
   0.507E+01 -.636E-05 0.274E+04   -.665E+01 0.585E-05 -.275E+04   -.940E-01 0.223E-06 -.502E-01
   0.438E+01 -.549E-05 0.334E+04   0.438E+00 0.508E-05 -.333E+04   -.104E+01 0.114E-06 -.338E+01
   0.363E+01 -.851E-01 0.274E+04   -.522E+01 0.909E-01 -.275E+04   -.934E-01 -.137E-02 -.474E-01
   -.370E+00 -.265E-01 0.125E+04   0.216E+00 0.284E-01 -.125E+04   0.163E+00 0.818E-03 0.304E-01
   -.157E+01 -.130E-03 0.792E+03   0.160E+01 0.136E-03 -.791E+03   -.130E-01 -.597E-06 -.158E+00
   0.196E+01 0.230E-04 0.125E+04   -.210E+01 -.212E-04 -.125E+04   0.152E+00 -.428E-06 0.141E-01
   -.518E+01 -.227E+00 0.786E+03   0.523E+01 0.226E+00 -.786E+03   -.272E-01 -.114E-02 -.150E+00
   -.661E+01 0.229E+01 -.774E+03   0.632E+01 -.228E+01 0.774E+03   0.311E+00 -.512E-02 0.136E+00
   -.101E+02 0.822E-04 -.118E+04   0.103E+02 -.663E-04 0.118E+04   -.684E-01 -.370E-05 -.283E+00
   -.213E+01 0.372E-04 -.763E+03   0.185E+01 -.370E-04 0.763E+03   0.296E+00 -.381E-06 0.160E+00
   0.928E+00 0.204E+01 -.119E+04   -.779E+00 -.204E+01 0.119E+04   -.111E+00 0.928E-02 -.307E+00
   0.276E+02 0.121E+02 -.276E+04   -.285E+02 -.121E+02 0.276E+04   0.989E+00 -.113E-01 -.132E+00
   -.746E+02 -.970E-04 -.315E+04   0.748E+02 0.111E-03 0.315E+04   -.856E-01 0.107E-05 0.718E+00
   0.979E+01 0.189E-03 -.275E+04   -.107E+02 -.166E-03 0.275E+04   0.917E+00 -.387E-05 -.780E-01
   -.565E+02 0.345E+02 -.314E+04   0.567E+02 -.345E+02 0.314E+04   -.270E-01 -.558E-02 0.752E+00
   0.439E+01 -.562E-05 0.334E+04   0.449E+00 0.654E-05 -.333E+04   -.104E+01 -.235E-06 -.338E+01
   0.517E+01 0.223E+00 0.274E+04   -.672E+01 -.225E+00 -.275E+04   -.102E+00 0.856E-03 -.428E-01
   0.452E+01 -.130E+00 0.334E+04   0.268E+00 0.133E+00 -.333E+04   -.104E+01 -.898E-03 -.338E+01
   0.266E+01 -.267E-05 0.274E+04   -.420E+01 0.327E-05 -.275E+04   -.111E+00 -.298E-06 -.448E-01
   0.158E+00 -.513E-04 0.125E+04   -.297E+00 0.515E-04 -.125E+04   0.146E+00 -.333E-06 0.706E-01
   0.146E+01 0.231E+01 0.797E+03   -.139E+01 -.230E+01 -.796E+03   -.501E-01 -.222E-01 -.154E+00
   0.183E+01 0.135E+00 0.125E+04   -.197E+01 -.130E+00 -.125E+04   0.149E+00 -.598E-02 0.696E-02
   -.775E+01 0.491E-04 0.769E+03   0.780E+01 -.498E-04 -.769E+03   -.377E-01 -.245E-06 -.526E-01
   -.407E+01 -.415E-04 -.777E+03   0.385E+01 0.408E-04 0.776E+03   0.231E+00 -.467E-06 0.159E+00
   -.127E+02 0.476E+01 -.115E+04   0.129E+02 -.480E+01 0.115E+04   -.971E-01 0.397E-01 -.267E+00
   0.223E+01 0.265E+01 -.741E+03   -.246E+01 -.265E+01 0.741E+03   0.262E+00 -.361E-02 0.879E-01
   0.312E+00 -.363E-03 -.123E+04   -.186E+00 0.370E-03 0.123E+04   -.979E-01 -.124E-06 -.158E+00
   0.423E+02 0.958E-04 -.276E+04   -.431E+02 -.122E-03 0.276E+04   0.779E+00 0.236E-05 -.283E-01
   -.883E+02 0.270E+02 -.314E+04   0.886E+02 -.268E+02 0.314E+04   -.575E-01 -.169E+00 0.719E+00
   -.129E+02 0.532E+02 -.266E+04   0.121E+02 -.532E+02 0.266E+04   0.830E+00 0.391E-01 0.683E-02
   0.300E+02 -.200E-02 -.310E+04   -.295E+02 0.189E-02 0.310E+04   -.405E+00 0.339E-04 0.439E+00
   -.313E+02 -.343E-01 0.225E+04   0.360E+02 0.350E-01 -.227E+04   -.647E+01 -.777E-03 0.170E+02
   -.316E+02 -.294E-01 0.225E+04   0.363E+02 0.283E-01 -.227E+04   -.646E+01 0.141E-02 0.170E+02
   0.796E+02 0.889E-01 0.137E+04   -.841E+02 -.946E-01 -.137E+04   0.342E+01 0.319E-02 -.417E+01
   0.728E+02 -.716E-01 0.167E+04   -.794E+02 0.745E-01 -.167E+04   0.694E+01 -.590E-02 -.248E+01
   -.845E+02 -.102E+00 0.192E+04   0.912E+02 0.102E+00 -.192E+04   -.642E+01 -.378E-03 -.346E+00
   -.673E+02 -.966E+00 0.105E+04   0.725E+02 0.101E+01 -.105E+04   -.532E+01 -.392E-01 0.397E+01
   0.805E+02 0.930E-01 0.137E+04   -.848E+02 -.774E-01 -.137E+04   0.338E+01 -.180E-01 -.401E+01
   0.719E+02 0.104E+00 0.167E+04   -.785E+02 -.111E+00 -.167E+04   0.695E+01 0.171E-01 -.250E+01
   -.846E+02 0.245E-01 0.192E+04   0.913E+02 -.228E-01 -.192E+04   -.640E+01 -.652E-02 -.351E+00
[...]
   0.873E+02 -.844E-04 -.106E+04   -.940E+02 0.776E-04 0.107E+04   0.674E+01 0.919E-05 -.686E+01
   0.668E+02 -.132E-03 -.703E+03   -.724E+02 0.137E-03 0.706E+03   0.557E+01 0.532E-05 -.288E+01
   -.810E+02 0.128E+01 -.460E+03   0.870E+02 -.136E+01 0.457E+03   -.601E+01 0.732E-01 0.244E+01
   -.678E+02 0.149E+02 -.127E+04   0.699E+02 -.155E+02 0.126E+04   -.207E+01 0.611E+00 0.936E+01
   0.792E+02 0.159E+02 -.102E+04   -.852E+02 -.166E+02 0.103E+04   0.603E+01 0.704E+00 -.527E+01
   0.793E+02 0.172E+01 -.718E+03   -.853E+02 -.182E+01 0.721E+03   0.600E+01 0.972E-01 -.298E+01
   -.703E+02 -.120E-03 -.463E+03   0.760E+02 0.117E-03 0.461E+03   -.570E+01 0.116E-04 0.195E+01
   -.518E+02 0.784E-04 -.130E+04   0.566E+02 -.110E-03 0.129E+04   -.483E+01 0.368E-04 0.653E+01
   0.110E+03 -.401E-03 -.225E+04   -.116E+03 0.387E-03 0.227E+04   0.610E+01 0.214E-04 -.207E+02
   0.405E+02 -.356E-03 -.198E+04   -.439E+02 0.354E-03 0.199E+04   0.335E+01 0.345E-04 -.733E+01
   -.490E+02 0.783E+01 -.164E+04   0.535E+02 -.774E+01 0.164E+04   -.455E+01 -.836E-01 0.269E+01
   0.464E+01 0.362E+02 -.223E+04   -.955E+01 -.360E+02 0.225E+04   0.491E+01 -.237E+00 -.189E+02
   0.806E+02 0.551E+02 -.194E+04   -.851E+02 -.552E+02 0.194E+04   0.443E+01 0.195E-01 -.669E+01
   -.555E+02 -.891E-03 -.151E+04   0.586E+02 0.886E-03 0.150E+04   -.310E+01 0.637E-04 0.522E+01
   -.415E+02 -.410E-03 0.761E+02   -.995E-13 -.760E-12 0.136E-11   0.415E+02 0.416E-03 -.761E+02

 POSITION                                       TOTAL-FORCE (eV/Angst)
      7.13394      6.45482     21.59099        -0.006674     -0.004252      0.003224
      7.13392      4.91251     21.59099        -0.003726      0.000390      0.003069
      6.52750      5.68361     21.62455         0.003390      0.003952      0.000645
      8.47263      9.47273      8.23077         3.820739      0.002281      1.765381
      6.22461      7.57819      9.11262        -1.652992      0.001668     -1.902436
      3.28474      7.57819      8.23077         3.790280     -0.001635      1.745520
      1.03672      9.47273      9.11262        -1.687479     -0.004450     -1.908145
      9.86851      9.47403     11.79736        -0.002721     -0.000347      0.000755
      7.59926      7.57363     12.59698         0.001831     -0.001824      0.000991
      4.67308      7.57613     11.79298        -0.000530     -0.001685     -0.001255
      2.40028      9.47227     12.61072         0.001806      0.002764      0.002684
      0.93479      9.47541     15.36407        -0.001681      0.001204      0.000227
      9.01464      7.57354     16.06617        -0.001764     -0.001170      0.000362
      6.10472      7.57629     15.33443        -0.003303      0.004126     -0.000013
      3.81350      9.47311     16.10384        -0.000880     -0.001293      0.000435
      2.40974      9.46513     19.00745        -0.001208     -0.005156      0.000129
      0.01124      7.56754     19.55331        -0.001386      0.000214     -0.000277
      7.57539      7.56783     18.90630        -0.005319     -0.000402      0.001174
      5.22988      9.48427     19.55649        -0.000555     -0.003264      0.002016
      8.47263      1.89455      8.23077         3.820736     -0.002282      1.765378
      6.22461      0.00000      9.11262        -1.675262     -0.000000     -1.901459
      3.28474      0.00000      8.23077         3.814552     -0.000000      1.760278
      1.03672      1.89455      9.11262        -1.687475      0.004450     -1.908146
      9.86851      1.89325     11.79736        -0.002725      0.000345      0.000765
      7.59238     -0.00000     12.60166        -0.000926      0.000005     -0.001412
      4.67541     -0.00000     11.79693        -0.003544      0.000001      0.000894
      2.40028      1.89501     12.61072         0.001806     -0.002762      0.002688
      0.93479      1.89187     15.36406        -0.001687     -0.001205      0.000234
      8.99984     -0.00000     16.08286         0.001193      0.000012      0.002272
      6.11071     -0.00000     15.35014        -0.004073     -0.000000      0.000358
      3.81350      1.89417     16.10384        -0.000884      0.001288      0.000442
      2.40974      1.90215     19.00745        -0.001203      0.005182      0.000143
      0.03685     -0.00000     19.55183         0.000206      0.000014      0.006458
      7.60857      0.00000     18.97974        -0.008216      0.000019     -0.002143
      5.22988      1.88301     19.55649        -0.000528      0.003327      0.002035
      8.47263      5.68364      8.23077         3.828659      0.000001      1.757864
      6.22461      3.78909      9.11262        -1.652993     -0.001668     -1.902436
      3.28474      3.78909      8.23077         3.790281      0.001635      1.745521
      1.03672      5.68364      9.11262        -1.654756      0.000000     -1.842724
      9.88310      5.68364     11.79194         0.001308     -0.000000      0.001759
      7.59926      3.79365     12.59698         0.001831      0.001818      0.001006
      4.67308      3.79115     11.79298        -0.000532      0.001684     -0.001251
      2.40457      5.68364     12.64011        -0.002267     -0.000001      0.000681
      0.96348      5.68364     15.36981        -0.002413     -0.000001     -0.000541
      9.01464      3.79374     16.06617        -0.001773      0.001157      0.000380
      6.10472      3.79099     15.33443        -0.003278     -0.004125     -0.000009
      3.83388      5.68364     16.18937        -0.000274      0.000005      0.001103
      2.44165      5.68364     19.02081         0.002150     -0.000023      0.005098
      0.01124      3.79973     19.55331        -0.001500     -0.000223     -0.000233
      7.57539      3.79945     18.90630        -0.005281      0.000381      0.001272
      5.24958      5.68364     19.72747        -0.002545     -0.000078     -0.001805
      5.14763      7.57819      7.50000        -1.776391     -0.000066      0.992271
     10.33552      9.47273      7.50000        -1.770728      0.000329      0.986864
      9.54962      9.47273      9.84340        -0.997064     -0.002495     -0.145870
      6.60974      9.47273      8.96155         0.378814     -0.002972     -0.067568
      8.08751      7.57819      8.38185         0.294590     -0.000882     -1.081035
      6.53135      7.57819     11.02740        -0.080577      0.005543      0.389533
      4.36172      7.57819      9.84340        -1.004036     -0.002399     -0.137009
      1.42184      7.57819      8.96155         0.389651      0.010385     -0.074943
      2.89961      9.47273      8.38185         0.304636     -0.004768     -1.083540
[...]
      2.78389      5.68364     14.57605        -0.000388     -0.000002      0.001700
      2.04850      5.68364     16.96608        -0.002188      0.000002     -0.001196
      9.43064      5.68364     16.00210        -0.001933      0.000011     -0.000371
      0.56030      3.79163     15.45423        -0.000407     -0.000989     -0.001028
      9.48547      3.77406     18.01634        -0.000359      0.000308      0.001496
      7.24414      3.75864     16.90327         0.000776     -0.002276      0.000923
      4.24616      3.79155     16.03796        -0.000751      0.000978      0.000324
      5.74166      5.68364     15.47651        -0.002956      0.000009     -0.002292
      4.29652      5.68364     18.12239        -0.005922      0.000005     -0.002582
      3.59341      5.68364     20.49210        -0.002585      0.000007      0.001862
      0.55166      5.68364     19.78092        -0.002081      0.000032     -0.000012
      2.01627      3.79394     19.02920        -0.002944      0.003127      0.001445
      8.74670      3.85315     20.39846        -0.002746      0.001248      0.000948
      5.76892      3.76952     19.76782         0.001024     -0.001887      0.000472
      7.18289      5.68364     18.86158        -0.001437      0.000059      0.003267
    total drift:                               -0.007415      0.000006      0.014371

  FREE ENERGIE OF THE ION-ELECTRON SYSTEM (eV)
  free  energy   TOTEN  =     -1308.65508795 eV

  energy  without entropy=    -1308.65508795  energy(sigma->0) =    -1308.65508795

 d Force = 0.3842646E-04[ 0.252E-04, 0.516E-04]  d Energy = 0.3847459E-04-0.481E-07
 d Force = 0.8970100E+01[ 0.897E+01, 0.897E+01]  d Ewald  = 0.8970100E+01-0.291E-08

 Conjugate gradient step on ions:
 trial-energy change:   -0.000038  1 .order   -0.000038   -0.000052   -0.000025
  (g-gl).g = 0.102E-03      g.g   = 0.100E-03  gl.gl    = 0.187E-03
 g(Force)  = 0.100E-03   g(Stress)= 0.000E+00 ortho     = 0.167E-05
 gamma     =   0.54300
 trial     =   0.51062
 opt step  =   0.99976  (harmonic =   0.99976) maximal distance =0.00103355
 next E    = -1308.655100   (d E  =  -0.00005)

 reached required accuracy - stopping structural energy minimisation