 vasp.6.4.2 20Jul23 (build Feb 22 2024 13:53:45) complex
 executed on              LinuxNV date 2024.08.27  18:11:08
 OpenACC runtime initialized ...    4 GPUs detected

 INCAR:
   SYSTEM = Oxide-Surface
   ISMEAR = 0
   SIGMA = 0.05
   EDIFF = 1E-5
   ALGO = Normal
   IBRION = -1
   NSW = 0
   ISYM = 0
   DIPOL = 0.5 0.5 0.5
   IDIPOL = 3
   LDIPOL = .TRUE.
   ISTART = 1
   GGA = MK
   LUSE_VDW = .TRUE.
   PARAM1 = 0.1234
   PARAM2 = 0.711357
   ZAB_VDW = -1.8867
   AGGAC = 0.0
   ENCUT = 1000
   PREC = Normal
   PRECFOCK = Normal
   LASPH = .TRUE.
   LREAL = Auto
   ISPIN = 1
   NELM = 200
   NELMIN = 8
   NCORE = 1
   KPAR = 1
   LWAVE = .FALSE.
   LCHARG = .FALSE.

 POTCAR:    PAW_PBE Mg_sv 12Apr2007
 POTCAR:    PAW_PBE O_h 06Feb2004
|               ----> ADVICE to this user running VASP <----                  |
|     You have switched on vdW-DFT.                                           |
|     This routine was written and supplied by Jiri Klimes. We recommend      |
|     that you carefully read and cite the following publications:            |
|       J. Klimes, D.R. Bowler, A. Michelides                                 |
|          J. Phys.: Cond Matt. 22 022201 (2010)                              |
|       J. Klimes, D.R. Bowler, A. Michelides                                 |
|          Phys. Rev. B. 83, 195131 (2011)                                    |
|     and references therein.                                                 |

   TITEL  = PAW_PBE Mg_sv 12Apr2007
   POMASS =   24.305; ZVAL   =   10.000    mass and valenz
   ENMAX  =  495.223; ENMIN  =  371.417 eV

   TITEL  = PAW_PBE O_h 06Feb2004
   POMASS =   16.000; ZVAL   =    6.000    mass and valenz
   ENMAX  =  700.000; ENMIN  =  500.000 eV

 Optimization of the real space projectors (new method)

 maximal supplied QI-value         = 22.11
 optimisation between [QCUT,QGAM] = [ 16.14, 32.28] = [ 72.95,291.79] Ry
 Optimized for a Real-space Cutoff    0.98 Angstroem

   l    n(q)    QCUT    max X(q) W(low)/X(q) W(high)/X(q)  e(spline)
   0      9    16.140     8.730    0.14E-04    0.12E-04    0.27E-07
   0      9    16.140     8.910    0.19E-04    0.17E-04    0.41E-07
   1      9    16.140     2.513    0.16E-04    0.28E-04    0.54E-07
   1      9    16.140     3.341    0.27E-04    0.13E-03    0.17E-06
   2      9    16.140     3.683    0.18E-03    0.21E-03    0.81E-07
 Optimization of the real space projectors (new method)

 maximal supplied QI-value         = 34.20
 optimisation between [QCUT,QGAM] = [ 16.08, 32.15] = [ 72.37,289.48] Ry
 Optimized for a Real-space Cutoff    0.71 Angstroem

   l    n(q)    QCUT    max X(q) W(low)/X(q) W(high)/X(q)  e(spline)
   0      7    16.076   280.207    0.42E-03    0.69E-03    0.60E-07
   0      7    16.076   228.978    0.42E-03    0.69E-03    0.61E-07
   1      6    16.076    86.127    0.11E-03    0.66E-03    0.10E-06
   1      6    16.076    65.368    0.11E-03    0.65E-03    0.10E-06
|               ----> ADVICE to this user running VASP <----                  |
|     You enforced a specific xc type in the INCAR file but a different       |
|     type was found in the POTCAR file.                                      |
|     I HOPE YOU KNOW WHAT YOU ARE DOING!                                     |

  PAW_PBE Mg_sv 12Apr2007               :
  PAW_PBE O_h 06Feb2004                 :

 POSCAR: Mg  O
  positions in direct lattice
 exchange correlation table for  LEXCH =       43
   RHO(1)=    0.500       N(1)  =     2000
   RHO(2)=  100.500       N(2)  =     4000

 ion  position               nearest neighbor table
   1  0.000  0.750  0.252-
   2  0.250  0.000  0.252-
   3  0.000  0.000  0.376-
   4  0.250  0.750  0.376-
   5  1.000  0.750  0.499-
   6  0.252  0.001  0.502-
   7  0.000  0.003  0.624-
   8  0.237  0.750  0.623-  37 2.00
   9  0.000  0.250  0.252-
  10  0.250  0.500  0.252-
  11  0.000  0.500  0.376-
  12  0.250  0.250  0.376-
  13  0.000  0.250  0.500-
  14  0.252  0.500  0.502-
  15  0.000  0.498  0.624-
  16  0.248  0.250  0.625-
  17  0.500  0.750  0.252-
  18  0.750  0.000  0.252-
  19  0.500  0.000  0.376-
  20  0.750  0.750  0.376-
  21  0.500  0.750  0.498-
  22  0.748  0.001  0.502-
  23  0.500  0.011  0.636-  61 2.02
  24  0.763  0.750  0.623-  37 2.00
  25  0.500  0.250  0.252-
  26  0.750  0.500  0.252-
  27  0.500  0.500  0.376-
  28  0.750  0.250  0.376-
  29  0.500  0.250  0.502-
  30  0.748  0.500  0.502-
  31  0.500  0.489  0.636-  61 2.02
  32  0.752  0.250  0.625-
  33  0.000  0.750  0.376-
  34  0.250  0.000  0.376-
  35  0.000  0.000  0.252-
  36  0.250  0.750  0.252-
  37  0.000  0.750  0.626-   8 2.00  24 2.00
  38  0.248  0.999  0.626-
  39  0.000  1.000  0.500-
  40  0.252  0.750  0.501-
  41  0.000  0.250  0.376-
  42  0.250  0.500  0.376-
  43  0.000  0.500  0.252-
  44  0.250  0.250  0.252-
  45  0.000  0.250  0.626-
  46  0.248  0.502  0.626-
  47  0.000  0.501  0.500-
  48  0.251  0.250  0.501-
  49  0.500  0.750  0.376-
  50  0.750  0.000  0.376-
  51  0.500  0.000  0.252-
  52  0.750  0.750  0.252-
  53  0.500  0.750  0.633-
  54  0.752  0.999  0.626-
  55  0.500  0.998  0.502-
  56  0.748  0.750  0.501-
  57  0.500  0.250  0.376-
  58  0.750  0.500  0.376-
  59  0.500  0.500  0.252-
  60  0.750  0.250  0.252-
  61  0.500  0.250  0.628-  23 2.02  31 2.02
  62  0.752  0.502  0.626-
  63  0.500  0.503  0.502-
  64  0.749  0.250  0.501-

IMPORTANT INFORMATION: All symmetrisations will be switched off!
NOSYMM: (Re-)initialisation of all symmetry stuff for point group C_1.

                                     Primitive cell

  volume of cell :    1211.2538

  direct lattice vectors                    reciprocal lattice vectors
     8.440984654  0.000000000  0.000000000     0.118469591  0.000000000  0.000000000
     0.000000000  8.440984654  0.000000000     0.000000000  0.118469591  0.000000000
     0.000000000  0.000000000 17.000000000     0.000000000  0.000000000  0.058823529

  length of vectors
     8.440984654  8.440984654 17.000000000     0.118469591  0.118469591  0.058823529

  position of ions in fractional coordinates (direct lattice)
     0.000000012  0.750271483  0.251856836
     0.250000012  0.000271483  0.251856836
     0.000000012  0.000271483  0.375988963
     0.250000012  0.750271483  0.375988963
     0.999999988  0.750271429  0.499368462
     0.252039891  0.001028111  0.501782346
     0.000000034  0.002582678  0.624444171
     0.237174200  0.750271417  0.622958809
     0.000000012  0.250271483  0.251856836
     0.250000012  0.500271483  0.251856836
     0.000000012  0.500271483  0.375988963
     0.250000012  0.250271483  0.375988963
     0.000000025  0.250271481  0.500321386
     0.252039913  0.499514860  0.501782439
     0.000000033  0.497960304  0.624444240
     0.247666331  0.250271551  0.624926941
     0.500000012  0.750271483  0.251856836
     0.750000012  0.000271483  0.251856836
     0.500000012  0.000271483  0.375988963
     0.750000012  0.750271483  0.375988963
     0.500000031  0.750271498  0.497974947
     0.747960134  0.001028090  0.501782397
     0.500000002  0.011479476  0.636458488
     0.762825859  0.750271422  0.622958927
     0.500000012  0.250271483  0.251856836
     0.750000012  0.500271483  0.251856836
     0.500000012  0.500271483  0.375988963
     0.750000012  0.250271483  0.375988963
     0.500000005  0.250271518  0.502223723
     0.747960113  0.499514886  0.501782491
     0.500000001  0.489064058  0.636458884
     0.752333702  0.250271549  0.624926893
     0.000000012  0.750271483  0.375988963
     0.250000012  0.000271483  0.375988963
     0.000000012  0.000271483  0.251856836
     0.250000012  0.750271483  0.251856836
     0.000000034  0.750271519  0.625525054
     0.248158668  0.998774097  0.625931889
     0.000000015  0.999728517  0.499971061
     0.252314560  0.750271518  0.501128046
     0.000000012  0.250271483  0.375988963
     0.250000012  0.500271483  0.375988963
     0.000000012  0.500271483  0.251856836
     0.250000012  0.250271483  0.251856836
     0.000000017  0.250271467  0.626441503
     0.248158646  0.501768877  0.625931815
     0.000000014  0.500814411  0.499971054
     0.250533599  0.250271460  0.500674415
     0.500000012  0.750271483  0.375988963
     0.750000012  0.000271483  0.375988963
     0.500000012  0.000271483  0.251856836
     0.750000012  0.750271483  0.251856836
     0.499999972  0.750272301  0.632609027
     0.751841373  0.998774078  0.625931895
     0.500000008  0.997971315  0.502167211
     0.747685467  0.750271518  0.501128092
     0.500000012  0.250271483  0.375988963
     0.750000012  0.500271483  0.375988963
     0.500000012  0.500271483  0.251856836
     0.750000012  0.250271483  0.251856836
     0.500000019  0.250271401  0.628355073
     0.751841390  0.501768901  0.625931830
     0.500000009  0.502571702  0.502167205
     0.749466433  0.250271458  0.500674433

  ion indices of the primitive-cell ions
   primitive index   ion index
                 1           1
                 2           2
                 3           3
                 4           4
                 5           5
                 6           6
                 7           7
                 8           8
                 9           9
                10          10
                11          11
                12          12
                13          13
                14          14
                15          15
                16          16
                17          17
                18          18
                19          19
                20          20
                21          21
                22          22
                23          23
                24          24
                25          25
                26          26
                27          27
                28          28
                29          29
                30          30
                31          31
                32          32
                33          33
                34          34
                35          35
                36          36
                37          37
                38          38
                39          39
                40          40
                41          41
                42          42
                43          43
                44          44
                45          45
                46          46
                47          47
                48          48
                49          49
                50          50
                51          51
                52          52
                53          53
                54          54
                55          55
                56          56
                57          57
                58          58
                59          59
                60          60
                61          61
                62          62
                63          63
                64          64

 KPOINTS: pymatgen v2020.8.13 with grid density =

Automatic generation of k-mesh.
 Grid dimensions read from file:
 generate k-points for:    2    2    1

 Generating k-lattice:

  Cartesian coordinates                     Fractional coordinates (reciprocal lattice)
[...]
   0.00000012  4.22736676  8.49950792
   2.11475027  2.11253755  8.51146506
   4.22049243  6.33303007  6.39181237
   6.33073860  0.00229158  6.39181237
   4.22049243  0.00229158  4.28156621
   6.33073860  6.33303007  4.28156621
   4.22049209  6.33303698 10.75435346
   6.34628149  8.43063666 10.64084222
   4.22049239  8.42386055  8.53684259
   6.31120156  6.33303037  8.51917757
   4.22049243  2.11253775  6.39181237
   6.33073860  4.22278391  6.39181237
   4.22049243  4.22278391  4.28156621
   6.33073860  2.11253775  4.28156621
   4.22049249  2.11253705 10.68203623
   6.34628164  4.23542359 10.64084111
   4.22049240  4.24220002  8.53684248
   6.32623466  2.11253754  8.51146535

--------------------------------------- Iteration      FINAL  ---------------------------------------

--------------------OUTCAR has been truncated-------------------------

[...]

--------------------OUTCAR has been truncated-------------------------

  FORCE on cell =-STRESS in cart. coord.  units (eV):
  Direction    XX          YY          ZZ          XY          YZ          ZX
  Alpha Z  1191.54525  1191.54525  1191.54525
  Ewald  111577.52009111600.82496************    -0.00000     0.00054    -0.00004
  Hartree128164.04018128181.52725************     0.00000     0.00019    -0.00001
  E(xc)   -3216.41334 -3216.40118 -3217.72539     0.00000     0.00001     0.00000
  Local  ************************249527.49412    -0.00001    -0.00052     0.00004
  n-local -5631.17693 -5631.05183 -5629.59051    -0.00000     0.00101    -0.00000
  augment   726.62931   726.64137   716.95630    -0.00000     0.00131    -0.00000
  Kinetic 12485.06493 12484.31289 12493.55674     0.00001    -0.00141     0.00000
  Fock        0.00000     0.00000     0.00000     0.00000     0.00000     0.00000
  Total     -25.18347   -25.59541    -0.36017    -0.00000     0.00113    -0.00001
  in kB     -33.31125   -33.85615    -0.47642    -0.00000     0.00150    -0.00002

 VOLUME and BASIS-vectors are now :
  energy-cutoff  :     1000.00
  volume of cell :     1211.25
      direct lattice vectors                 reciprocal lattice vectors
     8.440984654  0.000000000  0.000000000     0.118469591  0.000000000  0.000000000
     0.000000000  8.440984654  0.000000000     0.000000000  0.118469591  0.000000000
     0.000000000  0.000000000 17.000000000     0.000000000  0.000000000  0.058823529

  length of vectors
     8.440984654  8.440984654 17.000000000     0.118469591  0.118469591  0.058823529

 FORCES acting on ions
    electron-ion (+dipol)            ewald-force                    non-local-force                 convergence-correction
   0.897E-05 0.204E-03 0.245E+04   -.210E-04 -.315E-04 -.244E+04   0.218E-05 -.298E-02 -.877E+01   0.951E-05 -.456E-05 0.374E-01
   -.899E+00 -.366E+00 0.245E+04   0.914E+00 0.385E+00 -.244E+04   -.117E-01 -.169E-01 -.890E+01   -.424E-04 0.720E-04 0.374E-01
   0.945E-04 -.983E+00 0.812E+03   -.102E-03 0.102E+01 -.812E+03   0.365E-06 -.283E-01 0.449E+00   0.495E-05 0.233E-03 0.389E-02
   -.178E+01 -.576E-04 0.806E+03   0.177E+01 -.193E-03 -.807E+03   0.354E-02 -.115E-02 0.707E+00   -.134E-03 -.163E-04 0.380E-02
   0.635E-04 0.184E-03 -.786E+03   -.623E-04 -.108E-04 0.785E+03   0.286E-05 -.140E-02 0.756E+00   -.427E-05 -.454E-05 -.809E-02
   -.158E+02 0.512E+01 -.823E+03   0.172E+02 -.556E+01 0.824E+03   -.122E+01 0.264E+00 -.838E+00   -.228E-03 0.616E-03 -.831E-02
   0.284E-04 0.175E+01 -.242E+04   0.628E-05 -.964E+00 0.242E+04   -.646E-05 -.837E+00 0.806E+01   -.271E-04 0.608E-03 -.324E-01
   -.737E+02 -.112E-03 -.240E+04   0.743E+02 0.656E-04 0.240E+04   0.894E+00 -.582E-03 0.776E+01   -.250E-04 -.231E-04 -.316E-01
   0.279E-04 0.144E-03 0.245E+04   -.218E-04 0.324E-04 -.244E+04   -.136E-05 -.298E-02 -.878E+01   -.367E-05 -.518E-05 0.376E-01
   -.900E+00 0.366E+00 0.245E+04   0.914E+00 -.385E+00 -.244E+04   -.117E-01 0.134E-01 -.890E+01   -.183E-04 -.714E-04 0.374E-01
   0.101E-03 0.984E+00 0.812E+03   -.104E-03 -.102E+01 -.812E+03   0.187E-05 0.235E-01 0.449E+00   0.159E-06 -.228E-03 0.390E-02
   -.540E+01 -.448E-03 0.807E+03   0.561E+01 0.196E-03 -.808E+03   -.164E+00 -.117E-02 0.859E+00   -.166E-03 0.114E-04 0.416E-02
   0.723E-04 0.177E-03 -.802E+03   -.621E-04 0.901E-04 0.801E+03   -.213E-05 -.256E-02 0.465E+00   -.646E-05 0.215E-04 -.801E-02
   -.158E+02 -.512E+01 -.823E+03   0.172E+02 0.556E+01 0.824E+03   -.122E+01 -.267E+00 -.836E+00   -.226E-03 -.618E-03 -.831E-02
   0.305E-04 -.175E+01 -.242E+04   -.375E-05 0.964E+00 0.242E+04   -.665E-05 0.836E+00 0.806E+01   -.184E-04 -.611E-03 -.325E-01
   -.546E+01 -.403E-03 -.242E+04   0.360E+01 0.196E-04 0.241E+04   0.169E+01 0.112E-02 0.852E+01   0.336E-03 0.259E-04 -.316E-01
   -.133E-04 0.224E-03 0.245E+04   0.213E-04 -.388E-04 -.244E+04   -.376E-06 -.297E-02 -.877E+01   -.682E-05 -.182E-04 0.374E-01
   0.899E+00 -.366E+00 0.245E+04   -.914E+00 0.385E+00 -.244E+04   0.117E-01 -.169E-01 -.890E+01   0.400E-04 0.776E-04 0.374E-01
   -.106E-03 -.459E+01 0.799E+03   0.105E-03 0.485E+01 -.799E+03   -.439E-05 -.192E+00 0.641E+00   0.414E-05 0.190E-03 0.378E-02
   0.178E+01 -.604E-04 0.806E+03   -.177E+01 -.195E-03 -.807E+03   -.353E-02 -.115E-02 0.707E+00   0.126E-03 -.665E-05 0.381E-02
   -.833E-04 0.838E-03 -.848E+03   0.815E-04 -.632E-03 0.849E+03   -.360E-05 -.206E-02 0.179E+00   0.593E-05 -.100E-04 -.876E-02
   0.158E+02 0.512E+01 -.823E+03   -.172E+02 -.556E+01 0.824E+03   0.122E+01 0.264E+00 -.838E+00   0.231E-03 0.604E-03 -.828E-02
   -.754E-04 0.654E+02 -.248E+04   0.357E-04 -.674E+02 0.247E+04   0.951E-05 0.360E+00 0.922E+01   0.282E-04 0.932E-03 -.343E-01
   0.737E+02 -.125E-03 -.240E+04   -.743E+02 0.584E-04 0.240E+04   -.894E+00 -.581E-03 0.776E+01   0.253E-04 -.655E-05 -.316E-01
   -.255E-04 0.115E-03 0.244E+04   0.219E-04 0.386E-04 -.244E+04   0.123E-05 -.298E-02 -.891E+01   0.166E-05 0.204E-04 0.373E-01
   0.900E+00 0.366E+00 0.245E+04   -.914E+00 -.385E+00 -.244E+04   0.117E-01 0.134E-01 -.890E+01   0.208E-04 -.902E-04 0.374E-01
   -.103E-03 0.459E+01 0.799E+03   0.109E-03 -.485E+01 -.799E+03   -.437E-05 0.187E+00 0.641E+00   -.130E-05 -.200E-03 0.377E-02
   0.540E+01 -.456E-03 0.807E+03   -.561E+01 0.201E-03 -.808E+03   0.164E+00 -.118E-02 0.859E+00   0.173E-03 0.181E-04 0.415E-02
   -.759E-04 -.540E-03 -.829E+03   0.681E-04 0.714E-03 0.828E+03   0.457E-05 -.116E-02 0.797E+00   0.240E-05 0.201E-04 -.814E-02
   0.158E+02 -.512E+01 -.823E+03   -.172E+02 0.556E+01 0.824E+03   0.122E+01 -.267E+00 -.836E+00   0.224E-03 -.614E-03 -.829E-02
   -.570E-04 -.654E+02 -.248E+04   0.338E-04 0.674E+02 0.247E+04   0.812E-05 -.357E+00 0.922E+01   0.137E-04 -.939E-03 -.343E-01
   0.546E+01 -.422E-03 -.242E+04   -.360E+01 0.396E-04 0.241E+04   -.169E+01 0.112E-02 0.852E+01   -.333E-03 0.175E-04 -.316E-01
   0.426E-04 0.643E-05 0.489E+03   -.432E-04 -.482E-04 -.490E+03   0.250E-06 0.171E-02 0.254E+00   0.265E-05 -.548E-05 0.303E-02
   -.227E+01 -.400E+00 0.481E+03   0.223E+01 0.384E+00 -.481E+03   0.497E-01 0.190E-01 -.229E+00   -.585E-04 0.145E-03 0.304E-02
   0.441E-05 -.128E+00 0.148E+04   -.132E-04 0.139E+00 -.149E+04   0.440E-05 -.139E-01 0.272E+01   0.266E-05 0.717E-04 0.229E-01
   -.395E+00 0.115E-03 0.148E+04   0.401E+00 -.224E-04 -.149E+04   -.865E-02 0.193E-02 0.274E+01   -.110E-04 -.407E-05 0.228E-01
   -.430E-04 -.389E-04 -.148E+04   0.502E-04 0.914E-04 0.148E+04   0.572E-05 -.349E-02 -.381E+01   -.975E-05 -.562E-05 -.197E-01
   -.179E+02 0.845E+01 -.147E+04   0.190E+02 -.100E+02 0.147E+04   -.123E+01 0.206E+01 -.256E+01   0.258E-03 0.721E-03 -.190E-01
   0.457E-04 -.886E+00 -.476E+03   -.449E-04 0.707E+00 0.476E+03   0.445E-05 0.254E+00 0.724E+00   -.307E-05 0.255E-03 -.303E-02
   -.133E+02 0.258E-03 -.489E+03   0.143E+02 -.151E-03 0.489E+03   -.141E+01 0.164E-02 -.827E-01   -.380E-03 -.795E-05 -.341E-02
   0.562E-04 -.121E-03 0.487E+03   -.559E-04 0.687E-04 -.487E+03   0.527E-05 0.172E-02 0.200E+00   -.464E-05 0.731E-06 0.314E-02
   -.227E+01 0.400E+00 0.481E+03   0.223E+01 -.384E+00 -.481E+03   0.497E-01 -.152E-01 -.229E+00   -.531E-04 -.143E-03 0.304E-02
   0.136E-04 0.127E+00 0.148E+04   -.134E-04 -.139E+00 -.149E+04   0.601E-06 0.160E-01 0.272E+01   -.146E-05 -.646E-04 0.229E-01
   -.649E+00 0.649E-04 0.148E+04   0.678E+00 0.225E-04 -.148E+04   -.367E-01 0.192E-02 0.269E+01   -.301E-04 0.393E-05 0.229E-01
   0.258E-04 -.191E-03 -.148E+04   -.237E-04 -.438E-04 0.148E+04   0.135E-05 -.197E-02 -.371E+01   -.299E-05 0.525E-05 -.195E-01
   -.179E+02 -.845E+01 -.147E+04   0.190E+02 0.100E+02 0.147E+04   -.123E+01 -.206E+01 -.256E+01   0.260E-03 -.723E-03 -.190E-01
   0.511E-04 0.886E+00 -.476E+03   -.474E-04 -.707E+00 0.476E+03   -.488E-05 -.253E+00 0.724E+00   -.213E-05 -.262E-03 -.303E-02
   -.583E+01 -.165E-05 -.481E+03   0.578E+01 0.162E-03 0.480E+03   0.248E-01 0.111E-02 0.104E+01   -.370E-04 0.892E-05 -.292E-02
   -.466E-04 0.663E-04 0.489E+03   0.475E-04 -.106E-03 -.489E+03   -.476E-05 0.171E-02 0.162E+00   0.900E-06 -.889E-05 0.287E-02
   0.227E+01 -.400E+00 0.481E+03   -.223E+01 0.384E+00 -.481E+03   -.497E-01 0.190E-01 -.229E+00   0.554E-04 0.135E-03 0.304E-02
   -.107E-04 -.382E+00 0.148E+04   0.133E-04 0.415E+00 -.148E+04   -.540E-06 -.420E-01 0.269E+01   0.635E-06 0.283E-04 0.228E-01
   0.395E+00 0.113E-03 0.148E+04   -.401E+00 -.226E-04 -.149E+04   0.865E-02 0.193E-02 0.274E+01   0.702E-05 -.188E-05 0.228E-01
   -.771E-04 0.141E-02 -.147E+04   0.740E-04 -.132E-02 0.148E+04   -.355E-05 -.175E-02 -.199E+01   0.853E-05 -.267E-05 -.191E-01
   0.179E+02 0.845E+01 -.147E+04   -.190E+02 -.100E+02 0.147E+04   0.123E+01 0.206E+01 -.256E+01   -.260E-03 0.708E-03 -.190E-01
   -.479E-04 0.486E+01 -.527E+03   0.465E-04 -.592E+01 0.529E+03   0.173E-05 0.150E+01 -.215E+01   0.410E-05 0.600E-03 -.318E-02
   0.133E+02 0.261E-03 -.489E+03   -.143E+02 -.151E-03 0.489E+03   0.141E+01 0.164E-02 -.827E-01   0.382E-03 -.992E-05 -.340E-02
   -.508E-04 -.153E-03 0.477E+03   0.556E-04 0.954E-04 -.477E+03   -.167E-06 0.171E-02 -.172E+00   -.405E-05 0.129E-04 0.320E-02
   0.227E+01 0.400E+00 0.481E+03   -.223E+01 -.384E+00 -.481E+03   -.497E-01 -.153E-01 -.229E+00   0.566E-04 -.143E-03 0.305E-02
   -.869E-05 0.382E+00 0.148E+04   0.135E-04 -.415E+00 -.148E+04   -.276E-05 0.441E-01 0.269E+01   -.119E-05 -.288E-04 0.228E-01
   0.649E+00 0.664E-04 0.148E+04   -.678E+00 0.228E-04 -.148E+04   0.367E-01 0.192E-02 0.269E+01   0.325E-04 0.934E-05 0.229E-01
   -.198E-04 -.143E-02 -.146E+04   0.226E-04 0.148E-02 0.146E+04   -.395E-05 -.403E-02 -.104E+01   0.284E-06 0.762E-05 -.190E-01
   0.179E+02 -.845E+01 -.147E+04   -.190E+02 0.100E+02 0.147E+04   0.123E+01 -.206E+01 -.256E+01   -.258E-03 -.717E-03 -.190E-01
   -.502E-04 -.486E+01 -.527E+03   0.524E-04 0.592E+01 0.529E+03   -.397E-05 -.150E+01 -.215E+01   0.256E-05 -.606E-03 -.318E-02
   0.583E+01 -.212E-04 -.481E+03   -.578E+01 0.179E-03 0.480E+03   -.248E-01 0.111E-02 0.104E+01   0.394E-04 0.143E-04 -.291E-02
   -.321E-05 0.795E-03 -.788E-02   0.433E-12 -.124E-12 0.142E-11   -.180E-07 -.269E-01 -.110E-02   0.453E-05 -.672E-05 0.333E-01

 POSITION                                       TOTAL-FORCE (eV/Angst)
      0.00000      6.33303      4.28157        -0.000000     -0.002402      0.289699
      2.11025      0.00229      4.28157         0.003099      0.002939      0.308302
      0.00000      0.00229      6.39181        -0.000002      0.007755      0.031941
      2.11025      6.33303      6.39181        -0.008245     -0.001008      0.062121
      8.44098      6.33303      8.48926        -0.000000     -0.000820     -0.093206
      2.12746      0.00868      8.53030         0.132038     -0.169709     -0.078545
      0.00000      0.02180     10.61555         0.000001     -0.048698     -0.184973
      2.00198      6.33303     10.59030         1.505034     -0.000244      0.109917
      0.00000      2.11254      4.28157         0.000001     -0.002401      0.292958
      2.11025      4.22278      4.28157         0.003096     -0.005249      0.308289
      0.00000      4.22278      6.39181        -0.000001     -0.011153      0.031940
      2.11025      2.11254      6.39181         0.048262     -0.001005      0.018035
      0.00000      2.11254      8.50546         0.000002     -0.001863     -0.108220
      2.12747      4.21640      8.53030         0.130689      0.167857     -0.077148
      0.00000      4.20328     10.61555         0.000002      0.048461     -0.186884
      2.09055      2.11254     10.62376        -0.169754      0.001167     -0.301356
      4.22049      6.33303      4.28157         0.000001     -0.002399      0.291142
      6.33074      0.00229      4.28157        -0.003099      0.002937      0.308305
      4.22049      0.00229      6.39181        -0.000001      0.064023      0.129096
      6.33074      6.33303      6.39181         0.008246     -0.001007      0.062119
      4.22049      6.33303      8.46557         0.000000     -0.001456      1.178136
      6.31352      0.00868      8.53030        -0.132039     -0.169713     -0.078543
      4.22049      0.09690     10.81979        -0.000002     -1.610009     -1.118766
      6.43900      6.33303     10.59030        -1.505034     -0.000247      0.109915
      4.22049      2.11254      4.28157        -0.000001     -0.002401      0.314566
      6.33074      4.22278      4.28157        -0.003097     -0.005247      0.308289
      4.22049      4.22278      6.39181        -0.000000     -0.067462      0.129121
      6.33074      2.11254      6.39181        -0.048264     -0.001007      0.018038
      4.22049      2.11254      8.53780        -0.000001     -0.000561     -0.260037
      6.31352      4.21640      8.53030        -0.130692      0.167851     -0.077150
      4.22049      4.12818     10.81980        -0.000001      1.613773     -1.120175
      6.35044      2.11254     10.62376         0.169754      0.001165     -0.301350
      0.00000      6.33303      6.39181         0.000002      0.002073      0.036273
      2.11025      0.00229      6.39181         0.006580      0.004161      0.076930
      0.00000      0.00229      4.28157        -0.000002     -0.002144     -0.410873
      2.11025      6.33303      4.28157        -0.001923      0.002429     -0.408091
      0.00000      6.33303     10.63393         0.000003     -0.003032      0.132951
      2.09470      8.43064     10.64084        -0.081388      0.483925      0.411145
      0.00000      8.43869      8.49951         0.000002      0.075356      0.161574
      2.12978      6.33303      8.51918        -0.402367      0.002146     -0.208881
      0.00000      2.11254      6.39181         0.000001      0.002073      0.086600
      2.11025      4.22278      6.39181         0.006574      0.000372      0.076922
      0.00000      4.22278      4.28157        -0.000001      0.004668     -0.410878
      2.11025      2.11254      4.28157        -0.008435      0.002423     -0.418409
      0.00000      2.11254     10.64951         0.000000     -0.001788      0.136193
      2.09470      4.23542     10.64084        -0.079217     -0.484988      0.411097
      0.00000      4.22737      8.49951        -0.000003     -0.074361      0.161708
      2.11475      2.11254      8.51147        -0.019464      0.001691      0.181376
      4.22049      6.33303      6.39181        -0.000003      0.002073     -0.092451
      6.33074      0.00229      6.39181        -0.006577      0.004162      0.076932
      4.22049      0.00229      4.28157         0.000003     -0.008658     -0.417149
      6.33074      6.33303      4.28157         0.001922      0.002425     -0.408089
      4.22049      6.33304     10.75435         0.000002     -0.001248      0.057577
      6.34628      8.43064     10.64084         0.081391      0.483920      0.411140
      4.22049      8.42386      8.53684         0.000004      0.441843     -0.111521
      6.31120      6.33303      8.51918         0.402369      0.002145     -0.208888
      4.22049      2.11254      6.39181         0.000001      0.002071      0.117012
      6.33074      4.22278      6.39181        -0.006578      0.000371      0.076923
      4.22049      4.22278      4.28157         0.000001      0.011186     -0.417154
      6.33074      2.11254      4.28157         0.008435      0.002424     -0.418412
      4.22049      2.11254     10.68204        -0.000001     -0.003564      0.522954
      6.34628      4.23542     10.64084         0.079215     -0.484982      0.411090
      4.22049      4.24220      8.53684         0.000001     -0.442728     -0.112551
      6.32623      2.11254      8.51147         0.019461      0.001691      0.181377
    total drift:                                0.000001     -0.026114      0.024286

  FREE ENERGIE OF THE ION-ELECTRON SYSTEM (eV)
  free  energy   TOTEN  =      -253.84786884 eV

  energy  without entropy=     -253.84786884  energy(sigma->0) =     -253.84786884