 vasp.6.3.0 20Jan22 (build Apr  1 2022 16:44:48) complex
 executed on        HPECrayEX_GCC date 2023.02.26  11:40:04

 INCAR:
   SYSTEM = MgO-rocksalt
   ISMEAR = 0
   SIGMA = 0.05
   EDIFF = 1E-7
   ALGO = ALL
   ISTART = 0
   IBRION = 2
   NSW = 1000
   ISYM = 0
   ISIF = 2
   EDIFFG = -0.01
   DIPOL = 0.5 0.5 0.5
   IDIPOL = 3
   LDIPOL = .TRUE.
   GGA = RE
   IVDW = 13
   VDW_S8 = 1.7468
   VDW_A1 = 0.5363
   VDW_A2 = 3.0726
   ENCUT = 600
   PREC = Accurate
   LASPH = .TRUE.
   LREAL = .FALSE.
   ISPIN = 1
   NELM = 200
   NELMIN = 8
   NCORE = 8
   KPAR = 1
   LWAVE = .FALSE.
   LCHARG = .FALSE.

 POTCAR:    PAW_PBE N 08Apr2002
 POTCAR:    PAW_PBE O 08Apr2002
 POTCAR:    PAW_PBE Mg_pv 13Apr2007
 POTCAR:    PAW_PBE O 08Apr2002
 POTCAR:    PAW_PBE N 08Apr2002
   VRHFIN =N: s2p3

   TITEL  = PAW_PBE N 08Apr2002
   POMASS =   14.001; ZVAL   =    5.000    mass and valenz
   ENMAX  =  400.000; ENMIN  =  300.000 eV

[...]

   TITEL  = PAW_PBE Mg_pv 13Apr2007
   POMASS =   24.305; ZVAL   =    8.000    mass and valenz
   ENMAX  =  403.929; ENMIN  =  302.947 eV

   TITEL  = PAW_PBE O 08Apr2002
   POMASS =   16.000; ZVAL   =    6.000    mass and valenz
   ENMAX  =  400.000; ENMIN  =  300.000 eV

  PAW_PBE N 08Apr2002                   :
  PAW_PBE O 08Apr2002                   :
  PAW_PBE Mg_pv 13Apr2007               :
  PAW_PBE O 08Apr2002                   :

 POSCAR:  N  O Mg  O
  positions in direct lattice
|           W    W    AA    RRRRR   N    N  II  N    N   GGGG   !!!           |
|           W    W   A  A   R    R  NN   N  II  NN   N  G    G  !!!           |
|           W    W  A    A  R    R  N N  N  II  N N  N  G       !!!           |
|           W WW W  AAAAAA  RRRRR   N  N N  II  N  N N  G  GGG   !            |
|           WW  WW  A    A  R   R   N   NN  II  N   NN  G    G                |
|           W    W  A    A  R    R  N    N  II  N    N   GGGG   !!!           |
|     Specifying the vdW parameters                                           |
|     VDW_S8 = 1.747                                                          |
|     VDW_A1 = 0.536                                                          |
|     VDW_A2 = 3.073                                                          |
|     in the INCAR file will overwrite the defaults for revpbe. Please        |
|     make sure that is what you intended.                                    |

 ion  position               nearest neighbor table
   1  0.525  0.547  0.791-   2 1.14
   2  0.624  0.638  0.783-   1 1.14   3 1.20
   3  0.727  0.733  0.774-   2 1.20
   4  0.000  0.750  0.352-  36 2.11  38 2.11  39 2.11  46 2.11  55 2.11
   5  0.250  0.000  0.352-  37 2.11  38 2.11  39 2.11  47 2.11  54 2.11
   6  0.000  0.000  0.451-  38 2.11  37 2.11  36 2.11  44 2.11  53 2.11  42 2.12
   7  0.250  0.750  0.451-  39 2.11  37 2.11  36 2.11  45 2.11  52 2.11  43 2.12
   8  0.000  0.750  0.550-  42 2.11  43 2.11  50 2.11  59 2.11  36 2.13  40 2.15
   9  0.250  0.000  0.550-  42 2.11  43 2.11  51 2.11  58 2.11  37 2.13  41 2.15
  10  0.000  0.000  0.649-  40 2.11  41 2.11  48 2.11  57 2.11  42 2.11
  11  0.250  0.750  0.649-  40 2.11  41 2.11  49 2.11  56 2.11  43 2.11
  12  0.000  0.250  0.352-  44 2.11  38 2.11  46 2.11  47 2.11  63 2.11
  13  0.250  0.500  0.352-  45 2.11  39 2.11  46 2.11  47 2.11  62 2.11
  14  0.000  0.500  0.451-  46 2.11  44 2.11  45 2.11  36 2.11  61 2.11  50 2.12
  15  0.250  0.250  0.451-  47 2.11  44 2.11  45 2.11  37 2.11  60 2.11  51 2.12
  16  0.000  0.250  0.550-  42 2.11  50 2.11  51 2.11  67 2.11  44 2.13  48 2.15
  17  0.250  0.500  0.550-  43 2.11  50 2.11  51 2.11  66 2.11  45 2.13  49 2.15
  18  0.000  0.500  0.649-  40 2.11  48 2.11  49 2.11  65 2.11  50 2.11
  19  0.250  0.250  0.649-  41 2.11  48 2.11  49 2.11  64 2.11  51 2.11
  20  0.500  0.750  0.352-  52 2.11  39 2.11  54 2.11  55 2.11  62 2.11
  21  0.750  0.000  0.352-  53 2.11  38 2.11  54 2.11  55 2.11  63 2.11
  22  0.500  0.000  0.451-  54 2.11  52 2.11  53 2.11  37 2.11  60 2.11  58 2.12
  23  0.750  0.750  0.451-  55 2.11  52 2.11  53 2.11  36 2.11  61 2.11  59 2.12
  24  0.500  0.750  0.550-  43 2.11  58 2.11  59 2.11  66 2.11  52 2.13  56 2.15
  25  0.750  0.000  0.550-  42 2.11  58 2.11  59 2.11  67 2.11  53 2.13  57 2.15
  26  0.500  0.000  0.649-  41 2.11  56 2.11  57 2.11  64 2.11  58 2.11
  27  0.750  0.750  0.649-  40 2.11  56 2.11  57 2.11  65 2.11  59 2.11
  28  0.500  0.250  0.352-  60 2.11  54 2.11  47 2.11  62 2.11  63 2.11
  29  0.750  0.500  0.352-  61 2.11  55 2.11  46 2.11  62 2.11  63 2.11
  30  0.500  0.500  0.451-  62 2.11  52 2.11  60 2.11  61 2.11  45 2.11  66 2.12
  31  0.750  0.250  0.451-  63 2.11  53 2.11  60 2.11  61 2.11  44 2.11  67 2.12
  32  0.500  0.250  0.550-  51 2.11  58 2.11  66 2.11  67 2.11  60 2.13  64 2.15
  33  0.750  0.500  0.550-  50 2.11  59 2.11  66 2.11  67 2.11  61 2.13  65 2.15
  34  0.500  0.500  0.649-  49 2.11  56 2.11  64 2.11  65 2.11  66 2.11
  35  0.750  0.250  0.649-  48 2.11  57 2.11  64 2.11  65 2.11  67 2.11
  36  0.000  0.750  0.451-   4 2.11   6 2.11   7 2.11  14 2.11  23 2.11   8 2.13
  37  0.250  0.000  0.451-   5 2.11   6 2.11   7 2.11  15 2.11  22 2.11   9 2.13
  38  0.000  0.000  0.352-   6 2.11   5 2.11   4 2.11  12 2.11  21 2.11
  39  0.250  0.750  0.352-   7 2.11   5 2.11   4 2.11  13 2.11  20 2.11
  40  0.000  0.750  0.651-  10 2.11  11 2.11  18 2.11  27 2.11   8 2.15
  41  0.250  0.000  0.651-  10 2.11  11 2.11  19 2.11  26 2.11   9 2.15
  42  0.000  0.000  0.550-   8 2.11   9 2.11  16 2.11  25 2.11  10 2.11   6 2.12
  43  0.250  0.750  0.550-   8 2.11   9 2.11  17 2.11  24 2.11  11 2.11   7 2.12
  44  0.000  0.250  0.451-  12 2.11   6 2.11  14 2.11  15 2.11  31 2.11  16 2.13
  45  0.250  0.500  0.451-  13 2.11   7 2.11  14 2.11  15 2.11  30 2.11  17 2.13
  46  0.000  0.500  0.352-  14 2.11  12 2.11  13 2.11   4 2.11  29 2.11
  47  0.250  0.250  0.352-  15 2.11  12 2.11  13 2.11   5 2.11  28 2.11
  48  0.000  0.250  0.651-  10 2.11  18 2.11  19 2.11  35 2.11  16 2.15
  49  0.250  0.500  0.651-  11 2.11  18 2.11  19 2.11  34 2.11  17 2.15
  50  0.000  0.500  0.550-   8 2.11  16 2.11  17 2.11  33 2.11  18 2.11  14 2.12
  51  0.250  0.250  0.550-   9 2.11  16 2.11  17 2.11  32 2.11  19 2.11  15 2.12
  52  0.500  0.750  0.451-  20 2.11   7 2.11  22 2.11  23 2.11  30 2.11  24 2.13
  53  0.750  0.000  0.451-  21 2.11   6 2.11  22 2.11  23 2.11  31 2.11  25 2.13
  54  0.500  0.000  0.352-  22 2.11  20 2.11  21 2.11   5 2.11  28 2.11
  55  0.750  0.750  0.352-  23 2.11  20 2.11  21 2.11   4 2.11  29 2.11
  56  0.500  0.750  0.651-  11 2.11  26 2.11  27 2.11  34 2.11  24 2.15
  57  0.750  0.000  0.651-  10 2.11  26 2.11  27 2.11  35 2.11  25 2.15
  58  0.500  0.000  0.550-   9 2.11  24 2.11  25 2.11  32 2.11  26 2.11  22 2.12
  59  0.750  0.750  0.550-   8 2.11  24 2.11  25 2.11  33 2.11  27 2.11  23 2.12
  60  0.500  0.250  0.451-  28 2.11  22 2.11  15 2.11  30 2.11  31 2.11  32 2.13
  61  0.750  0.500  0.451-  29 2.11  23 2.11  14 2.11  30 2.11  31 2.11  33 2.13
  62  0.500  0.500  0.352-  30 2.11  20 2.11  28 2.11  29 2.11  13 2.11
  63  0.750  0.250  0.352-  31 2.11  21 2.11  28 2.11  29 2.11  12 2.11
  64  0.500  0.250  0.651-  19 2.11  26 2.11  34 2.11  35 2.11  32 2.15
  65  0.750  0.500  0.651-  18 2.11  27 2.11  34 2.11  35 2.11  33 2.15
  66  0.500  0.500  0.550-  17 2.11  24 2.11  32 2.11  33 2.11  34 2.11  30 2.12
  67  0.750  0.250  0.550-  16 2.11  25 2.11  32 2.11  33 2.11  35 2.11  31 2.12

IMPORTANT INFORMATION: All symmetrisations will be switched off!
NOSYMM: (Re-)initialisation of all symmetry stuff for point group C_1.

                                     Primitive cell

  volume of cell :    1519.8199

  direct lattice vectors                    reciprocal lattice vectors
     8.440984654  0.000000000  0.000000000     0.118469591  0.000000000  0.000000000
     0.000000000  8.440984654  0.000000000     0.000000000  0.118469591  0.000000000
     0.000000000  0.000000000 21.330738491     0.000000000  0.000000000  0.046880702

  length of vectors
     8.440984654  8.440984654 21.330738491     0.118469591  0.118469591  0.046880702

  position of ions in fractional coordinates (direct lattice)
     0.524542543  0.547413107  0.790919810
     0.623568837  0.637967557  0.783301736
     0.727414890  0.732972423  0.774459637
     0.000000000  0.750000000  0.351605267
     0.250000000  0.000000000  0.351605267
     0.000000000  0.000000000  0.450535089
     0.250000000  0.750000000  0.450535089
     0.000000000  0.750000000  0.550171424
     0.250000000  0.000000000  0.550171424
     0.000000000  0.000000000  0.648861363
     0.250000000  0.750000000  0.648861363
     0.000000000  0.250000000  0.351605267
     0.250000000  0.500000000  0.351605267
     0.000000000  0.500000000  0.450535089
     0.250000000  0.250000000  0.450535089
     0.000000000  0.250000000  0.550171424
     0.250000000  0.500000000  0.550171424
     0.000000000  0.500000000  0.648861363
     0.250000000  0.250000000  0.648861363
     0.500000000  0.750000000  0.351605267
     0.750000000  0.000000000  0.351605267
     0.500000000  0.000000000  0.450535089
     0.750000000  0.750000000  0.450535089
     0.500000000  0.750000000  0.550171424
     0.750000000  0.000000000  0.550171424
     0.500000000  0.000000000  0.648861363
     0.750000000  0.750000000  0.648861363
     0.500000000  0.250000000  0.351605267
     0.750000000  0.500000000  0.351605267
     0.500000000  0.500000000  0.450535089
     0.750000000  0.250000000  0.450535089
     0.500000000  0.250000000  0.550171424
     0.750000000  0.500000000  0.550171424
     0.500000000  0.500000000  0.648861363
     0.750000000  0.250000000  0.648861363
     0.000000000  0.750000000  0.450535089
     0.250000000  0.000000000  0.450535089
     0.000000000  0.000000000  0.351605267
     0.250000000  0.750000000  0.351605267
     0.000000000  0.750000000  0.651006323
     0.250000000  0.000000000  0.651006323
     0.000000000  0.000000000  0.549890244
     0.250000000  0.750000000  0.549890244
     0.000000000  0.250000000  0.450535089
     0.250000000  0.500000000  0.450535089
     0.000000000  0.500000000  0.351605267
     0.250000000  0.250000000  0.351605267
     0.000000000  0.250000000  0.651006323
     0.250000000  0.500000000  0.651006323
     0.000000000  0.500000000  0.549890244
     0.250000000  0.250000000  0.549890244
     0.500000000  0.750000000  0.450535089
     0.750000000  0.000000000  0.450535089
     0.500000000  0.000000000  0.351605267
     0.750000000  0.750000000  0.351605267
     0.500000000  0.750000000  0.651006323
     0.750000000  0.000000000  0.651006323
     0.500000000  0.000000000  0.549890244
     0.750000000  0.750000000  0.549890244
     0.500000000  0.250000000  0.450535089
     0.750000000  0.500000000  0.450535089
     0.500000000  0.500000000  0.351605267
     0.750000000  0.250000000  0.351605267
     0.500000000  0.250000000  0.651006323
     0.750000000  0.500000000  0.651006323
     0.500000000  0.500000000  0.549890244
     0.750000000  0.250000000  0.549890244

  ion indices of the primitive-cell ions
   primitive index   ion index
                 1           1
                 2           2
[...]
   4.22049233  2.11024616  7.50000000
   6.33073849  4.22049233  7.50000000
   4.22049233  4.22049233  9.61024616
   6.33073849  2.11024616  9.61024616
   4.22049233  2.11024616 11.73556278
   6.33073849  4.22049233 11.73556278
   4.22049233  4.22049233 13.84069205
   6.33073849  2.11024616 13.84069205
   0.00000000  6.33073849  9.61024616
   2.11024616  0.00000000  9.61024616
   0.00000000  0.00000000  7.50000000
   2.11024616  6.33073849  7.50000000
   0.00000000  6.33073849 13.88644563
   2.11024616  0.00000000 13.88644563
   0.00000000  0.00000000 11.72956500
   2.11024616  6.33073849 11.72956500
   0.00000000  2.11024616  9.61024616
   2.11024616  4.22049233  9.61024616
   0.00000000  4.22049233  7.50000000
   2.11024616  2.11024616  7.50000000
   0.00000000  2.11024616 13.88644563
   2.11024616  4.22049233 13.88644563
   0.00000000  4.22049233 11.72956500
   2.11024616  2.11024616 11.72956500
   4.22049233  6.33073849  9.61024616
   6.33073849  0.00000000  9.61024616
   4.22049233  0.00000000  7.50000000
   6.33073849  6.33073849  7.50000000
   4.22049233  6.33073849 13.88644563
   6.33073849  0.00000000 13.88644563
   4.22049233  0.00000000 11.72956500
   6.33073849  6.33073849 11.72956500
   4.22049233  2.11024616  9.61024616
   6.33073849  4.22049233  9.61024616
   4.22049233  4.22049233  7.50000000
   6.33073849  2.11024616  7.50000000
   4.22049233  2.11024616 13.88644563
   6.33073849  4.22049233 13.88644563
   4.22049233  4.22049233 11.72956500
   6.33073849  2.11024616 11.72956500

--------------------------------------- Iteration      FINAL  ---------------------------------------

--------------------OUTCAR has been truncated-------------------------

[...]

--------------------OUTCAR has been truncated-------------------------

  FORCE on cell =-STRESS in cart. coord.  units (eV):
  Direction    XX          YY          ZZ          XY          YZ          ZX
  Alpha Z   926.74691   926.74691   926.74691
  Ewald  157170.30703157097.13218************   401.80393   -85.17924   -93.68850
  Hartree167599.67289167564.25201************   179.75334   -39.28051   -42.73429
  E(xc)   -2537.30365 -2537.54954 -2546.70811     1.44461    -0.29518    -0.31794
  Local  ************************334047.13843  -539.97509   116.00880   127.01334
  n-local -2842.17010 -2841.71102 -2860.32260    -2.65976     0.53121     0.54309
  augment  1053.98643  1054.22898  1045.82515    -1.42920     0.30820     0.34630
  Kinetic  7617.63732  7624.23978  7696.21885   -38.73007     7.88772     8.88362
  Fock        0.00000     0.00000     0.00000     0.00000     0.00000     0.00000
  vdW       -21.74952   -21.74351   -17.04033    -0.01699     0.01133     0.00455
  Total     -26.33747   -26.30996    -1.89650     0.19077    -0.00767     0.05017
  in kB     -27.76467   -27.73567    -1.99927     0.20110    -0.00809     0.05289

 VOLUME and BASIS-vectors are now :
  energy-cutoff  :      600.00
  volume of cell :     1519.82
      direct lattice vectors                 reciprocal lattice vectors
     8.440984654  0.000000000  0.000000000     0.118469591  0.000000000  0.000000000
     0.000000000  8.440984654  0.000000000     0.000000000  0.118469591  0.000000000
     0.000000000  0.000000000 21.330738491     0.000000000  0.000000000  0.046880702

  length of vectors
     8.440984654  8.440984654 21.330738491     0.118469591  0.118469591  0.046880702

 FORCES acting on ions:
    Electron-Ion                     Ewald-Force                    Non-Local-Force
   0.213E+03 0.196E+03 -.124E+04   -.250E+03 -.230E+03 0.125E+04   0.367E+02 0.336E+02 -.720E+01
   0.168E+02 0.155E+02 -.124E+04   -.165E+02 -.153E+02 0.124E+04   -.187E+00 -.180E+00 -.117E+00
   -.219E+03 -.202E+03 -.149E+04   0.266E+03 0.244E+03 0.149E+04   -.464E+02 -.427E+02 0.863E+01
   -.209E+00 -.164E+00 0.209E+04   0.207E+00 0.164E+00 -.208E+04   0.104E-02 0.168E-03 -.715E+01
   0.185E+00 -.213E+00 0.209E+04   -.185E+00 0.213E+00 -.208E+04   -.263E-03 0.237E-03 -.716E+01
   -.837E+00 -.927E+00 0.736E+03   0.851E+00 0.940E+00 -.737E+03   -.107E-01 -.984E-02 0.520E+00
   0.870E+00 -.759E+00 0.738E+03   -.839E+00 0.774E+00 -.738E+03   -.220E-01 -.115E-01 0.506E+00
   -.629E+01 -.289E+01 -.601E+03   0.626E+01 0.290E+01 0.602E+03   0.328E-01 -.920E-02 -.374E+00
   0.313E+01 -.412E+01 -.612E+03   -.314E+01 0.412E+01 0.612E+03   0.127E-01 -.708E-03 -.167E+00
   -.197E+02 -.204E+02 -.196E+04   0.197E+02 0.204E+02 0.196E+04   0.491E-03 -.242E-02 0.613E+01
   0.224E+02 -.154E+02 -.195E+04   -.225E+02 0.154E+02 0.194E+04   0.115E+00 0.775E-02 0.612E+01
   -.189E+00 0.164E+00 0.209E+04   0.189E+00 -.163E+00 -.208E+04   0.205E-03 -.273E-03 -.716E+01
   0.208E+00 0.214E+00 0.209E+04   -.208E+00 -.214E+00 -.208E+04   0.286E-03 -.193E-03 -.715E+01
   -.869E+00 0.947E+00 0.737E+03   0.832E+00 -.957E+00 -.738E+03   0.262E-01 0.814E-02 0.537E+00
   0.825E+00 0.740E+00 0.736E+03   -.840E+00 -.757E+00 -.736E+03   0.110E-01 0.123E-01 0.529E+00
   -.365E+01 0.277E+01 -.613E+03   0.365E+01 -.277E+01 0.613E+03   -.133E-02 0.742E-02 -.175E+00
   0.509E+01 0.424E+01 -.603E+03   -.511E+01 -.424E+01 0.604E+03   0.283E-01 0.228E-02 -.287E+00
   -.250E+02 0.218E+02 -.195E+04   0.252E+02 -.218E+02 0.194E+04   -.141E+00 -.789E-03 0.614E+01
   0.141E+02 0.139E+02 -.197E+04   -.141E+02 -.139E+02 0.196E+04   0.564E-02 0.566E-04 0.612E+01
   0.211E+00 -.189E+00 0.209E+04   -.209E+00 0.189E+00 -.208E+04   -.152E-02 0.306E-03 -.717E+01
   -.186E+00 -.232E+00 0.209E+04   0.185E+00 0.231E+00 -.208E+04   0.153E-03 0.107E-02 -.715E+01
   0.857E+00 -.972E+00 0.738E+03   -.869E+00 0.938E+00 -.738E+03   0.897E-02 0.240E-01 0.532E+00
   -.894E+00 -.790E+00 0.739E+03   0.873E+00 0.769E+00 -.740E+03   0.155E-01 0.163E-01 0.577E+00
   0.649E+01 -.491E+01 -.595E+03   -.645E+01 0.493E+01 0.595E+03   -.386E-01 -.223E-01 -.119E+00
   -.326E+01 -.677E+01 -.601E+03   0.327E+01 0.674E+01 0.602E+03   -.136E-01 0.327E-01 -.384E+00
   0.212E+02 -.287E+02 -.194E+04   -.212E+02 0.288E+02 0.194E+04   -.284E-02 -.129E+00 0.614E+01
   -.309E+02 -.269E+02 -.185E+04   0.311E+02 0.271E+02 0.184E+04   -.248E+00 -.225E+00 0.582E+01
   0.190E+00 0.187E+00 0.209E+04   -.190E+00 -.187E+00 -.208E+04   -.164E-03 0.213E-03 -.715E+01
   -.211E+00 0.235E+00 0.209E+04   0.210E+00 -.233E+00 -.208E+04   0.362E-03 -.155E-02 -.717E+01
   0.887E+00 0.995E+00 0.739E+03   -.864E+00 -.972E+00 -.740E+03   -.172E-01 -.168E-01 0.538E+00
   -.845E+00 0.770E+00 0.737E+03   0.859E+00 -.738E+00 -.738E+03   -.102E-01 -.229E-01 0.508E+00
   0.374E+01 0.467E+01 -.604E+03   -.375E+01 -.470E+01 0.604E+03   0.379E-02 0.278E-01 -.255E+00
   -.530E+01 0.697E+01 -.596E+03   0.532E+01 -.694E+01 0.596E+03   -.227E-01 -.387E-01 -.102E+00
   0.311E+02 0.359E+02 -.188E+04   -.314E+02 -.362E+02 0.187E+04   0.210E+00 0.234E+00 0.613E+01
   -.152E+02 0.191E+02 -.195E+04   0.152E+02 -.192E+02 0.194E+04   0.144E-02 0.112E+00 0.611E+01
   -.722E+00 -.475E+00 0.553E+03   0.726E+00 0.473E+00 -.553E+03   -.598E-02 0.184E-02 -.911E-01
   0.536E+00 -.670E+00 0.552E+03   -.536E+00 0.665E+00 -.551E+03   0.385E-03 0.700E-02 -.113E+00
   -.149E+00 -.166E+00 0.157E+04   0.150E+00 0.167E+00 -.157E+04   -.151E-02 -.128E-02 0.341E+01
   0.148E+00 -.133E+00 0.157E+04   -.146E+00 0.135E+00 -.157E+04   -.326E-02 -.249E-02 0.341E+01
   -.285E+02 -.879E+01 -.147E+04   0.285E+02 0.879E+01 0.147E+04   0.946E-02 0.137E-02 -.498E+01
   0.880E+01 -.110E+02 -.150E+04   -.878E+01 0.110E+02 0.150E+04   -.130E-01 0.222E-01 -.494E+01
   -.345E+01 -.367E+01 -.452E+03   0.343E+01 0.365E+01 0.452E+03   0.133E-01 0.132E-01 0.248E+00
   0.332E+01 -.277E+01 -.447E+03   -.332E+01 0.277E+01 0.447E+03   -.598E-02 -.735E-03 0.283E+00
   -.592E+00 0.469E+00 0.551E+03   0.587E+00 -.470E+00 -.551E+03   0.684E-02 0.185E-02 -.111E+00
   0.672E+00 0.679E+00 0.553E+03   -.659E+00 -.673E+00 -.553E+03   -.169E-01 -.846E-02 -.754E-01
   -.148E+00 0.166E+00 0.157E+04   0.145E+00 -.167E+00 -.157E+04   0.420E-02 0.138E-02 0.341E+01
   0.147E+00 0.132E+00 0.157E+04   -.149E+00 -.134E+00 -.157E+04   0.223E-02 0.249E-02 0.341E+01
   -.956E+01 0.772E+01 -.150E+04   0.954E+01 -.771E+01 0.150E+04   0.203E-01 -.890E-02 -.493E+01
   0.212E+02 0.122E+02 -.148E+04   -.213E+02 -.122E+02 0.148E+04   0.590E-01 -.118E-01 -.501E+01
   -.369E+01 0.379E+01 -.448E+03   0.369E+01 -.378E+01 0.448E+03   0.211E-02 -.991E-03 0.280E+00
   0.280E+01 0.265E+01 -.454E+03   -.279E+01 -.264E+01 0.454E+03   -.121E-01 -.115E-01 0.206E+00
   0.762E+00 -.646E+00 0.554E+03   -.779E+00 0.650E+00 -.554E+03   0.238E-01 -.619E-02 -.141E+00
   -.543E+00 -.800E+00 0.553E+03   0.540E+00 0.804E+00 -.553E+03   0.348E-02 -.566E-02 -.902E-01
   0.150E+00 -.167E+00 0.157E+04   -.151E+00 0.164E+00 -.157E+04   0.161E-02 0.413E-02 0.341E+01
   -.150E+00 -.134E+00 0.157E+04   0.148E+00 0.131E+00 -.157E+04   0.405E-02 0.418E-02 0.340E+01
   0.347E+02 -.254E+02 -.143E+04   -.346E+02 0.254E+02 0.143E+04   -.118E+00 0.381E-01 -.472E+01
   -.100E+02 -.302E+02 -.147E+04   0.100E+02 0.302E+02 0.147E+04   0.673E-03 0.215E-01 -.499E+01
   0.357E+01 -.418E+01 -.447E+03   -.356E+01 0.417E+01 0.447E+03   -.207E-02 0.713E-02 0.294E+00
   -.353E+01 -.309E+01 -.440E+03   0.355E+01 0.311E+01 0.440E+03   -.100E-01 -.128E-01 0.935E-01
   0.601E+00 0.604E+00 0.553E+03   -.595E+00 -.594E+00 -.553E+03   -.820E-02 -.133E-01 -.761E-01
   -.717E+00 0.838E+00 0.554E+03   0.722E+00 -.856E+00 -.554E+03   -.715E-02 0.236E-01 -.142E+00
   0.151E+00 0.169E+00 0.157E+04   -.147E+00 -.165E+00 -.157E+04   -.523E-02 -.497E-02 0.341E+01
   -.148E+00 0.132E+00 0.157E+04   0.150E+00 -.129E+00 -.157E+04   -.222E-02 -.340E-02 0.341E+01
   0.104E+02 0.196E+02 -.148E+04   -.104E+02 -.197E+02 0.149E+04   -.148E-01 0.563E-01 -.500E+01
   -.261E+02 0.360E+02 -.143E+04   0.261E+02 -.359E+02 0.144E+04   0.167E-01 -.123E+00 -.476E+01
   0.388E+01 0.438E+01 -.439E+03   -.389E+01 -.439E+01 0.438E+03   0.106E-01 0.564E-02 0.392E+00
   -.292E+01 0.290E+01 -.448E+03   0.292E+01 -.290E+01 0.448E+03   -.379E-02 0.754E-03 0.286E+00
   0.100E+02 0.922E+01 0.157E+02   -.675E-13 0.238E-12 0.239E-11   -.100E+02 -.922E+01 -.157E+02

 POSITION                                       TOTAL-FORCE (eV/Angst)
      4.43093      4.61905     16.86903         0.005948     -0.006901     -0.003286
      5.26511      5.38498     16.70683         0.007764      0.003172     -0.004548
      6.13963      6.18827     16.51762        -0.002968      0.001461     -0.006885
      0.00000      6.33074      7.50000        -0.000308     -0.000095      0.337019
      2.11025      0.00000      7.50000         0.000075     -0.000126      0.339180
      0.00000      0.00000      9.61025         0.003399      0.003090      0.077685
      2.11025      6.33074      9.61025         0.008831      0.004190      0.083041
     -0.00040      6.33133     11.73580        -0.000423     -0.001118      0.003197
      2.10991     -0.00000     11.73529         0.004303     -0.002576     -0.000714
      0.00061      0.00069     13.83986         0.001113      0.001530      0.001692
      2.10939      6.32951     13.83826         0.001135      0.002576      0.000624
      0.00000      2.11025      7.50000        -0.000105      0.000058      0.339011
      2.11025      4.22049      7.50000        -0.000071      0.000120      0.336542
      0.00000      4.22049      9.61025        -0.010913     -0.002537      0.078814
      2.11025      2.11025      9.61025        -0.003897     -0.004318      0.077668
      0.00003      2.11008     11.73535        -0.003161      0.003876     -0.000281
      2.10812      4.22029     11.73396         0.004147     -0.000055     -0.000130
      0.00002      4.22192     13.83941        -0.002717     -0.001910      0.001391
      2.10972      2.10998     13.84251        -0.002605     -0.002037     -0.004513
      4.22049      6.33074      7.50000         0.000452     -0.000128      0.340324
      6.33074      0.00000      7.50000        -0.000092     -0.000325      0.336967
      4.22049      0.00000      9.61025        -0.002791     -0.010091      0.078585
      6.33074      6.33074      9.61025        -0.004679     -0.004928      0.086993
      4.22269      6.33059     11.73822        -0.001880     -0.002268      0.000497
      6.33150     -0.00041     11.73577        -0.001765      0.000187      0.002982
      4.22197      0.00054     13.83809        -0.002522     -0.002644      0.000509
      6.33951      6.33914     13.85651        -0.001761     -0.001215      0.003556
      4.22049      2.11025      7.50000         0.000113     -0.000062      0.336676
      6.33074      4.22049      7.50000        -0.000149      0.000463      0.340381
      4.22049      4.22049      9.61025         0.005400      0.005562      0.080370
      6.33074      2.11025      9.61025         0.003835      0.009049      0.083123
      4.22024      2.10842     11.73384        -0.000235      0.003763     -0.000304
      6.33046      4.22272     11.73823        -0.003090     -0.001653      0.000865
      4.21154      4.21193     13.83269         0.002212      0.002571      0.000564
      6.32964      2.10963     13.83826         0.002113      0.001591      0.001021
      0.00000      6.33074      9.61025        -0.001788      0.000176      0.087469
      2.11025      0.00000      9.61025         0.000421      0.001921      0.077232
      0.00000      0.00000      7.50000        -0.000444     -0.000382     -0.500445
      2.11025      6.33074      7.50000        -0.000958     -0.000727     -0.500588
      0.00422      6.33154     13.87979         0.001918     -0.000229      0.002137
      2.11117     -0.00018     13.88876         0.000037     -0.001568     -0.004235
      0.00116      0.00112     11.72909        -0.003444     -0.003181     -0.001693
      2.11224      6.33097     11.72881        -0.006319     -0.002454      0.001616
      0.00000      2.11025      9.61025         0.001843      0.000769      0.078074
      2.11025      4.22049      9.61025        -0.003845     -0.002350      0.082801
      0.00000      4.22049      7.50000         0.001206      0.000387     -0.500651
      2.11025      2.11025      7.50000         0.000634      0.000703     -0.500164
     -0.00023      2.11124     13.88849        -0.001910      0.000211     -0.003889
      2.10789      4.21954     13.88086         0.001491      0.001973     -0.001467
     -0.00188      4.21985     11.72985         0.002708      0.005176     -0.000935
      2.10990      2.10975     11.72982        -0.000650      0.000447     -0.004781
      4.22049      6.33074      9.61025         0.006135     -0.001880      0.083184
      6.33074      0.00000      9.61025         0.000588     -0.001673      0.087612
      4.22049      0.00000      7.50000         0.000459      0.001185     -0.500694
      6.33074      6.33074      7.50000         0.001186      0.001217     -0.501492
      4.21965      6.32823     13.89557        -0.003210     -0.000584      0.003328
      6.33152      0.00449     13.87921        -0.000823      0.002385      0.002239
      4.21982     -0.00142     11.72954         0.005068      0.002541     -0.000885
      6.33011      6.33006     11.73375         0.004944      0.004816     -0.001672
      4.22049      2.11025      9.61025        -0.002245     -0.002900      0.081886
      6.33074      4.22049      9.61025        -0.002106      0.006057      0.082797
      4.22049      4.22049      7.50000        -0.001539     -0.001467     -0.500818
      6.33074      2.11025      7.50000        -0.000645     -0.001000     -0.500566
      4.21933      2.10811     13.88220         0.001754      0.002024     -0.001770
      6.32670      4.21994     13.89684        -0.001202     -0.002716      0.003714
      4.22034      4.22036     11.72949        -0.001913     -0.001583      0.002203
      6.33079      2.11237     11.72890        -0.002056     -0.005569      0.001839
    total drift:                                0.000498      0.000811     -0.001124

  FREE ENERGIE OF THE ION-ELECTRON SYSTEM (eV)
  free  energy   TOTEN  =      -392.44657608 eV

  energy  without entropy=     -392.44657608  energy(sigma->0) =     -392.44657608

 d Force = 0.5036874E-05[ 0.339E-05, 0.668E-05]  d Energy = 0.5050065E-05-0.132E-07
 d Force =-0.5913989E-01[-0.591E-01,-0.591E-01]  d Ewald  =-0.5913989E-01-0.815E-10

 Conjugate gradient step on ions:
 trial-energy change:   -0.000005  1 .order   -0.000005   -0.000007   -0.000003
  (g-gl).g =-0.657E-05      g.g   = 0.680E-04  gl.gl    = 0.174E-03
 g(Force)  = 0.680E-04   g(Stress)= 0.000E+00 ortho     = 0.121E-04
 gamma     =  -0.03776
 trial     =   0.09894
 opt step  =   0.20076  (harmonic =   0.20076) maximal distance =0.00016819
 next E    =  -392.446578   (d E  =  -0.00001)

 reached required accuracy - stopping structural energy minimisation