 vasp.6.3.0 20Jan22 (build Aug 21 2024 11:13:42) complex
 executed on        HPECrayEX_GCC date 2024.11.26  23:16:36

 INCAR:
   SYSTEM = TiO2
   ISMEAR = 0
   SIGMA = 0.05
   EDIFF = 1E-4
   ALGO = ALL
   ISTART = 0
   IBRION = -1
   NSW = 0
   ISYM = 0
   ISIF = 2
   EDIFFG = -0.01
   DIPOL = 0.5 0.5 0.5
   IDIPOL = 3
   LDIPOL = .TRUE.
   GGA = RE
   IVDW = 13
   VDW_S8 = 1.7468
   VDW_A1 = 0.5363
   VDW_A2 = 3.0726
   ENCUT = 600
   PREC = Accurate
   LASPH = .TRUE.
   LREAL = .FALSE.
   ISPIN = 1
   NELM = 200
   NELMIN = 8
   NCORE = 16
   KPAR = 1
   LWAVE = .FALSE.
   LCHARG = .FALSE.

 POTCAR:    PAW_PBE N 08Apr2002
 POTCAR:    PAW_PBE H 15Jun2001
 POTCAR:    PAW_PBE Ti_pv 07Sep2000
 POTCAR:    PAW_PBE O 08Apr2002
 POTCAR:    PAW_PBE N 08Apr2002
   VRHFIN =N: s2p3

   TITEL  = PAW_PBE N 08Apr2002
   POMASS =   14.001; ZVAL   =    5.000    mass and valenz
   ENMAX  =  400.000; ENMIN  =  300.000 eV

   TITEL  = PAW_PBE H 15Jun2001
   POMASS =    1.000; ZVAL   =    1.000    mass and valenz
   ENMAX  =  250.000; ENMIN  =  200.000 eV

   TITEL  = PAW_PBE Ti_pv 07Sep2000
   POMASS =   47.880; ZVAL   =   10.000    mass and valenz
   ENMAX  =  222.335; ENMIN  =  166.751 eV

   TITEL  = PAW_PBE O 08Apr2002
   POMASS =   16.000; ZVAL   =    6.000    mass and valenz
   ENMAX  =  400.000; ENMIN  =  300.000 eV

  PAW_PBE N 08Apr2002                   :
  PAW_PBE H 15Jun2001                   :
  PAW_PBE Ti_pv 07Sep2000               :
  PAW_PBE O 08Apr2002                   :

 POSCAR:  N  H Ti  O
  positions in direct lattice
|           W    W    AA    RRRRR   N    N  II  N    N   GGGG   !!!           |
|           W    W   A  A   R    R  NN   N  II  NN   N  G    G  !!!           |
|           W    W  A    A  R    R  N N  N  II  N N  N  G       !!!           |
|           W WW W  AAAAAA  RRRRR   N  N N  II  N  N N  G  GGG   !            |
|           WW  WW  A    A  R   R   N   NN  II  N   NN  G    G                |
|           W    W  A    A  R    R  N    N  II  N    N   GGGG   !!!           |
|     Specifying the vdW parameters                                           |
|     VDW_S8 = 1.747                                                          |
|     VDW_A1 = 0.536                                                          |
|     VDW_A2 = 3.073                                                          |
|     in the INCAR file will overwrite the defaults for revpbe. Please        |
|     make sure that is what you intended.                                    |

 ion  position               nearest neighbor table
   1  0.612  0.500  0.778-   2 1.02   4 1.02   3 1.02  52 2.29
   2  0.549  0.500  0.806-   1 1.02
   3  0.671  0.428  0.781-   1 1.02
   4  0.671  0.572  0.781-   1 1.02
   5  0.808  0.833  0.295-  89 1.94  57 1.94  55 1.94  54 1.99  56 1.99  22 3.05   8 3.05   6 3.05

   6  0.592  0.667  0.327-  53 1.94 120 1.94  56 1.94  58 1.94  57 1.99  59 1.99  37 3.05   7 3.05
                             5 3.05  11 3.08
   7  0.308  0.667  0.295- 125 1.94  61 1.94  59 1.94  53 1.99  60 1.99  40 3.05   6 3.05   8 3.05

   8  0.092  0.833  0.327-  54 1.94  92 1.94  60 1.94  62 1.94  61 1.99  55 1.99  23 3.05   5 3.05
                             7 3.05   9 3.08
   9  0.945  0.833  0.423-  63 1.92  97 1.93  65 1.93  55 1.98  64 1.98  62 2.00  12 3.00  10 3.05
                            26 3.05   8 3.08
  10  0.726  0.666  0.451-  58 1.89 128 1.93  64 1.94  66 1.96  67 1.99  65 2.00  11 3.01   9 3.05
                            41 3.05  15 3.11
  11  0.444  0.666  0.423-  67 1.93 133 1.93  69 1.93  59 1.97  68 1.98  58 2.01  10 3.01  12 3.05
                            44 3.05   6 3.08
  12  0.225  0.833  0.451-  62 1.89 100 1.94  68 1.94  70 1.97  63 1.98  69 2.00   9 3.00  27 3.05
                            11 3.05  13 3.11
  13  0.085  0.833  0.550-  71 1.92 105 1.93  73 1.93  72 1.97  63 2.00  70 2.01  16 2.95  14 3.04
                            30 3.05  12 3.11
  14  0.865  0.666  0.575-  66 1.86 136 1.93  72 1.94  75 1.95  73 2.01  74 2.01  15 2.97  13 3.04
                            45 3.05  19 3.17
  15  0.584  0.666  0.549- 141 1.93  75 1.93  77 1.93  76 1.98  67 1.98  66 2.01  14 2.97  16 3.05
                            48 3.06  10 3.11
  16  0.364  0.833  0.576-  70 1.86 108 1.94  76 1.94  71 1.95  78 2.00  77 2.02  13 2.95  31 3.05
                            15 3.05
  17  0.231  0.833  0.680-  79 1.86  81 1.93 113 1.94  80 2.00  71 2.09  78 2.10  20 2.85  34 3.07
                            18 3.08
  18  0.001  0.666  0.700-  74 1.78  82 1.84 144 1.97  80 1.99  81 2.07  19 2.86  17 3.08  49 3.10

[...]

  21  0.808  0.167  0.295-  89 1.94 121 1.94  87 1.94  86 1.99  88 1.99  22 3.05  24 3.05  38 3.05

[...]

  37  0.808  0.500  0.295-  57 1.94 121 1.94 119 1.94 118 1.99 120 1.99  38 3.05   6 3.05  40 3.05

  38  0.592  0.333  0.327- 117 1.94 120 1.94  88 1.94 122 1.94 121 1.99 123 1.99  37 3.05  39 3.05
                            21 3.05  43 3.08
  39  0.308  0.333  0.295- 125 1.94  93 1.94 123 1.94 117 1.99 124 1.99  40 3.05  38 3.05  24 3.05

  40  0.092  0.500  0.327- 118 1.94  60 1.94 124 1.94 126 1.94 125 1.99 119 1.99   7 3.05  39 3.05
                            37 3.05  41 3.07
  41  0.946  0.500  0.422- 127 1.92 129 1.93  65 1.93 119 1.97 126 1.99 128 2.00  44 2.99  10 3.05
                            42 3.05  40 3.07
  42  0.726  0.334  0.451- 122 1.89 128 1.93  96 1.94 130 1.96 131 1.99 129 2.00  43 3.01  25 3.05
                            41 3.05  47 3.11
  43  0.444  0.334  0.423- 131 1.93 133 1.93 101 1.93 123 1.97 132 1.98 122 2.01  42 3.01  28 3.05
                            44 3.05  38 3.08
  44  0.226  0.500  0.453- 126 1.92 132 1.94  68 1.94 127 1.96 134 1.97 133 2.01  41 2.99  11 3.05
                            43 3.05  45 3.07
  45  0.089  0.500  0.550- 135 1.91 137 1.93  73 1.93 134 1.98 136 2.00 127 2.01  48 2.96  14 3.05
                            46 3.05  44 3.07
  46  0.865  0.334  0.575- 130 1.86 136 1.93 104 1.94 139 1.95 137 2.01 138 2.01  47 2.97  29 3.04
                            45 3.05  51 3.17
  47  0.584  0.334  0.549- 141 1.93 139 1.93 109 1.93 140 1.98 131 1.98 130 2.01  46 2.97  32 3.05
                            48 3.06  42 3.11
  48  0.366  0.500  0.579- 134 1.92 140 1.94  76 1.94 135 1.94 142 1.98 141 2.03  45 2.96  15 3.06
                            47 3.06  49 3.13
  49  0.235  0.500  0.681- 143 1.86 145 1.93  81 1.93 142 2.03 144 2.03 135 2.10  52 2.87  18 3.10
                            50 3.10  48 3.13
  50  0.001  0.334  0.700- 138 1.78 146 1.84 144 1.97 112 1.99 145 2.07  51 2.86  33 3.08  49 3.10

  51  0.730  0.333  0.678- 146 1.89 148 1.93 116 1.94 147 1.99 139 2.04 138 2.09  50 2.86  36 3.07
                            52 3.08  46 3.17
  52  0.506  0.500  0.706- 143 1.84 142 1.87  83 1.98 147 1.98 148 2.07   1 2.29  49 2.87  51 3.08
                            19 3.08
  53  0.488  0.667  0.269-   6 1.94   7 1.99
  54  0.988  0.833  0.269-   8 1.94   5 1.99
  55  0.911  0.833  0.353-   5 1.94   9 1.98   8 1.99
  56  0.627  0.833  0.321-  22 1.94   6 1.94   5 1.99
  57  0.772  0.667  0.300-  37 1.94   5 1.94   6 1.99
  58  0.624  0.667  0.395-  10 1.89   6 1.94  11 2.01
  59  0.411  0.667  0.353-   7 1.94  11 1.97   6 1.99
  60  0.127  0.667  0.321-  40 1.94   8 1.94   7 1.99
  61  0.272  0.833  0.300-  23 1.94   7 1.94   8 1.99
  62  0.124  0.833  0.395-  12 1.89   8 1.94   9 2.00
  63  0.049  0.834  0.480-   9 1.92  12 1.98  13 2.00
  64  0.764  0.833  0.447-  26 1.94  10 1.94   9 1.98
  65  0.909  0.667  0.427-   9 1.93  41 1.93  10 2.00
  66  0.764  0.666  0.520-  14 1.86  10 1.96  15 2.01
  67  0.549  0.666  0.480-  11 1.93  15 1.98  10 1.99
  68  0.264  0.667  0.448-  44 1.94  12 1.94  11 1.98
  69  0.409  0.833  0.427-  27 1.93  11 1.93  12 2.00
  70  0.264  0.833  0.521-  16 1.86  12 1.97  13 2.01
  71  0.193  0.833  0.607-  13 1.92  16 1.95  17 2.09
  72  0.904  0.833  0.573-  30 1.94  14 1.94  13 1.97
  73  0.051  0.667  0.553-  13 1.93  45 1.93  14 2.01
  74  0.914  0.667  0.645-  18 1.78  14 2.01  19 2.09
  75  0.694  0.668  0.606-  15 1.93  14 1.95  19 2.04
  76  0.404  0.667  0.575-  48 1.94  16 1.94  15 1.98
  77  0.550  0.833  0.553-  31 1.93  15 1.93  16 2.02
  78  0.412  0.836  0.646-  20 1.78  16 2.00  17 2.10
  79  0.347  0.833  0.732-  20 1.84  17 1.86
  80  0.053  0.833  0.708-  34 1.98  18 1.99  17 2.00
  81  0.195  0.666  0.681-  17 1.93  49 1.93  18 2.07
  82  0.843  0.664  0.731-  18 1.84  19 1.89
  83  0.553  0.669  0.707-  20 1.96  52 1.98  19 1.99
  84  0.696  0.834  0.679-  35 1.93  19 1.94  20 2.06
  85  0.488  0.000  0.269-  22 1.94  23 1.99
  86  0.988  0.167  0.269-  24 1.94  21 1.99
  87  0.911  0.167  0.353-  21 1.94  25 1.98  24 1.99
  88  0.627  0.167  0.321-  22 1.94  38 1.94  21 1.99
  89  0.772  0.000  0.300-   5 1.94  21 1.94  22 1.99
  90  0.624  0.000  0.395-  26 1.89  22 1.94  27 2.00
  91  0.411  0.000  0.353-  23 1.94  27 1.98  22 1.99
  92  0.127  0.000  0.321-   8 1.94  24 1.94  23 1.99
  93  0.272  0.167  0.300-  23 1.94  39 1.94  24 1.99
  94  0.124  0.167  0.395-  28 1.89  24 1.94  25 2.00
  95  0.049  0.166  0.480-  25 1.92  28 1.98  29 2.00
  96  0.764  0.167  0.447-  26 1.94  42 1.94  25 1.98
  97  0.909  1.000  0.427-   9 1.93  25 1.93  26 2.00
  98  0.764  1.000  0.520-  30 1.86  26 1.97  31 2.01
  99  0.549  1.000  0.480-  27 1.92  26 1.98  31 2.00
 100  0.264  1.000  0.448-  12 1.94  28 1.94  27 1.99
 101  0.409  0.167  0.427-  27 1.93  43 1.93  28 2.00
 102  0.264  0.167  0.521-  32 1.86  28 1.97  29 2.01
 103  0.193  0.167  0.607-  29 1.92  32 1.95  33 2.09
 104  0.904  0.167  0.573-  30 1.94  46 1.94  29 1.97
 105  0.051  1.000  0.553-  29 1.93  13 1.93  30 2.02
 106  0.914  1.000  0.646-  34 1.78  30 2.01  35 2.08
 107  0.693  1.000  0.606-  31 1.92  30 1.94  35 2.10
 108  0.403  1.000  0.573-  16 1.94  32 1.94  31 1.98
 109  0.550  0.167  0.553-  31 1.93  47 1.93  32 2.02
 110  0.412  0.164  0.646-  36 1.78  32 2.00  33 2.10
 111  0.347  0.167  0.732-  36 1.84  33 1.86
 112  0.053  0.167  0.708-  34 1.98  50 1.99  33 2.00
[...]
 134  0.265  0.500  0.522-  48 1.92  44 1.97  45 1.98
 135  0.192  0.500  0.607-  45 1.91  48 1.94  49 2.10
 136  0.904  0.500  0.573-  46 1.93  14 1.93  45 2.00
 137  0.051  0.333  0.553-  29 1.93  45 1.93  46 2.01
 138  0.914  0.333  0.645-  50 1.78  46 2.01  51 2.09
 139  0.694  0.332  0.606-  47 1.93  46 1.95  51 2.04
 140  0.404  0.333  0.575-  48 1.94  32 1.94  47 1.98
 141  0.550  0.500  0.554-  15 1.93  47 1.93  48 2.03
 142  0.412  0.500  0.648-  52 1.87  48 1.98  49 2.03
 143  0.345  0.500  0.734-  52 1.84  49 1.86
 144  0.052  0.500  0.709-  50 1.97  18 1.97  49 2.03
 145  0.195  0.334  0.681-  33 1.93  49 1.93  50 2.07
 146  0.843  0.336  0.731-  50 1.84  51 1.89
 147  0.553  0.331  0.707-  36 1.96  52 1.98  51 1.99
 148  0.693  0.500  0.678-  51 1.93  19 1.93  52 2.07

IMPORTANT INFORMATION: All symmetrisations will be switched off!
NOSYMM: (Re-)initialisation of all symmetry stuff for point group C_1.

                                     Primitive cell

  volume of cell :    3260.5577

  direct lattice vectors                    reciprocal lattice vectors
[...]
   9.36178814  9.47401237  9.85165358
   6.44412470  9.47401237  8.97107415
   7.93190783  7.57920989  8.38057942
   6.41223715  7.57920989 11.02231769
   4.22545764  7.57920989  9.85165358
   1.30779420  7.57920989  8.97107415
[...]
   2.72045276  5.68440730 14.56371684
   1.97384274  5.68440724 16.95538362
   9.28364298  5.68440727 16.00355643
   0.52164382  3.79144696 15.43692720
   9.38585118  3.78683063 18.01178182
   7.12590136  3.77849985 16.91209712
   4.15243349  3.79037212 16.03960269
   5.65228792  5.68440728 15.45840591
   4.23458545  5.68440733 18.09750728
   3.54373199  5.68440728 20.48892219
   0.53544917  5.68440727 19.78477037
   2.00650000  3.79385096 19.00144719
   8.65956223  3.82097050 20.40315499
   5.68357884  3.76100455 19.73814073
   7.12190334  5.68440725 18.92330708

--------------------------------------- Iteration      FINAL  ---------------------------------------

--------------------OUTCAR has been truncated-------------------------

[...]

--------------------OUTCAR has been truncated-------------------------

  FORCE on cell =-STRESS in cart. coord.  units (eV):
  Direction    XX          YY          ZZ          XY          YZ          ZX
  Alpha Z  2443.07120  2443.07120  2443.07120
  Ewald  486691.43584480150.22247************     0.00012    -0.00029 -1834.22074
  Hartree507995.19758503990.02150************    -0.00003    -0.00017 -1230.80426
  E(xc)   -5191.94035 -5197.61699 -5207.94397    -0.00000     0.00000    -1.83035
  Local  ************************************    -0.00014     0.00052  3064.61287
  n-local -3243.63375 -3213.14116 -3255.93643    -0.00002    -0.00002     1.42125
  augment  3131.82513  3127.23915  3118.34074     0.00006    -0.00009    -0.58249
  Kinetic 17164.56743 17221.17893 17283.01455     0.00010     0.00004    -7.08183
  Fock        0.00000     0.00000     0.00000     0.00000     0.00000     0.00000
  vdW       -69.32952   -72.35651   -62.06527    -0.00000     0.00000    -0.70222
  Total     -40.23573   -12.95115   -12.86707     0.00009    -0.00001    -9.18777
  in kB     -19.77109    -6.36395    -6.32264     0.00005    -0.00001    -4.51470

 VOLUME and BASIS-vectors are now :
  energy-cutoff  :      600.00
  volume of cell :     3260.56
      direct lattice vectors                 reciprocal lattice vectors
    10.272661001  0.000000000  0.000000000     0.097345761 -0.000000000  0.000000000
     0.000000000 11.368814841  0.000000000     0.000000000  0.087959916  0.000000000
     0.000000000  0.000000000 27.918606646     0.000000000  0.000000000  0.035818406

  length of vectors
    10.272661001 11.368814841 27.918606646     0.097345761  0.087959916  0.035818406

 FORCES acting on ions:
    Electron-Ion                     Ewald-Force                    Non-Local-Force
   -.153E+02 0.305E-04 -.176E+04   0.562E+01 -.580E-04 0.174E+04   0.964E+01 -.916E-05 0.183E+02
   0.428E+02 0.258E-04 -.372E+03   -.476E+02 -.278E-04 0.377E+03   0.477E+01 0.334E-05 -.557E+01
   -.419E+02 0.548E+02 -.355E+03   0.463E+02 -.607E+02 0.356E+03   -.438E+01 0.592E+01 -.377E+00
   -.419E+02 -.548E+02 -.355E+03   0.463E+02 0.607E+02 0.356E+03   -.438E+01 -.592E+01 -.377E+00
   0.655E+01 0.332E-02 0.337E+04   -.163E+01 -.349E-02 -.337E+04   -.113E+01 -.479E-04 -.348E+01
   0.476E+01 -.104E+00 0.277E+04   -.636E+01 0.105E+00 -.277E+04   -.681E-01 -.661E-03 -.237E-01
   0.651E+01 0.146E+00 0.337E+04   -.162E+01 -.152E+00 -.337E+04   -.112E+01 0.148E-02 -.347E+01
   0.350E+01 0.910E-01 0.277E+04   -.513E+01 -.991E-01 -.277E+04   -.609E-01 0.161E-02 -.278E-01
   -.556E+00 0.254E+00 0.126E+04   0.379E+00 -.253E+00 -.126E+04   0.179E+00 -.174E-02 0.178E-01
   0.503E+00 -.156E+01 0.801E+03   -.435E+00 0.155E+01 -.801E+03   -.444E-01 0.184E-01 -.151E+00
   0.985E+00 -.306E+00 0.126E+04   -.115E+01 0.299E+00 -.126E+04   0.172E+00 0.933E-02 -.134E-02
   -.503E+01 0.839E-01 0.794E+03   0.509E+01 -.874E-01 -.794E+03   -.223E-01 0.324E-02 -.156E+00
   -.530E+01 -.247E+01 -.781E+03   0.501E+01 0.246E+01 0.781E+03   0.307E+00 0.114E-01 0.130E+00
   -.112E+02 -.507E+01 -.117E+04   0.113E+02 0.509E+01 0.117E+04   -.101E+00 -.982E-03 -.247E+00
   0.107E+01 -.195E+01 -.756E+03   -.132E+01 0.196E+01 0.756E+03   0.271E+00 0.210E-02 0.954E-01
   -.185E+01 -.925E+00 -.119E+04   0.204E+01 0.936E+00 0.119E+04   -.109E+00 -.166E-01 -.296E+00
   0.276E+02 -.109E+02 -.279E+04   -.285E+02 0.109E+02 0.279E+04   0.921E+00 0.252E-02 -.175E+00
   -.871E+02 -.214E+02 -.318E+04   0.873E+02 0.213E+02 0.318E+04   0.413E-01 0.145E+00 0.774E+00
   -.104E+02 -.398E+02 -.270E+04   0.963E+01 0.399E+02 0.271E+04   0.842E+00 -.256E-01 -.446E-01
   -.606E+02 -.340E+02 -.317E+04   0.608E+02 0.340E+02 0.317E+04   0.866E-01 0.442E-01 0.789E+00
   0.655E+01 -.322E-02 0.337E+04   -.163E+01 0.350E-02 -.337E+04   -.113E+01 0.609E-04 -.348E+01
   0.479E+01 0.439E-04 0.277E+04   -.641E+01 0.407E-05 -.277E+04   -.623E-01 0.393E-05 -.288E-01
   0.641E+01 -.585E-05 0.337E+04   -.150E+01 0.221E-05 -.337E+04   -.113E+01 -.183E-04 -.347E+01
   0.350E+01 -.912E-01 0.277E+04   -.513E+01 0.991E-01 -.277E+04   -.609E-01 -.164E-02 -.278E-01
   -.556E+00 -.254E+00 0.126E+04   0.379E+00 0.253E+00 -.126E+04   0.179E+00 0.174E-02 0.178E-01
   -.189E+01 -.190E-04 0.798E+03   0.193E+01 0.659E-05 -.798E+03   -.940E-02 0.933E-05 -.157E+00
   0.129E+01 -.410E-04 0.126E+04   -.146E+01 0.102E-07 -.126E+04   0.170E+00 0.116E-04 0.241E-02
   -.503E+01 -.839E-01 0.794E+03   0.509E+01 0.874E-01 -.794E+03   -.223E-01 -.323E-02 -.156E+00
   -.530E+01 0.247E+01 -.781E+03   0.501E+01 -.246E+01 0.781E+03   0.307E+00 -.114E-01 0.130E+00
   -.108E+02 -.148E-04 -.119E+04   0.110E+02 0.502E-05 0.119E+04   -.797E-01 -.419E-05 -.250E+00
   -.313E+01 0.730E-04 -.772E+03   0.283E+01 -.575E-05 0.772E+03   0.317E+00 -.580E-05 0.170E+00
   -.185E+01 0.925E+00 -.119E+04   0.204E+01 -.936E+00 0.119E+04   -.109E+00 0.166E-01 -.296E+00
   0.276E+02 0.109E+02 -.279E+04   -.285E+02 -.109E+02 0.279E+04   0.921E+00 -.251E-02 -.175E+00
   -.750E+02 -.802E-04 -.319E+04   0.753E+02 0.853E-05 0.319E+04   0.756E-02 -.151E-04 0.786E+00
   0.117E+02 -.344E-04 -.278E+04   -.126E+02 0.137E-04 0.278E+04   0.861E+00 -.546E-05 -.136E+00
   -.606E+02 0.340E+02 -.317E+04   0.608E+02 -.340E+02 0.317E+04   0.866E-01 -.442E-01 0.789E+00
   0.657E+01 -.170E-04 0.337E+04   -.163E+01 -.402E-05 -.337E+04   -.113E+01 -.170E-04 -.347E+01
   0.476E+01 0.104E+00 0.277E+04   -.636E+01 -.105E+00 -.277E+04   -.680E-01 0.646E-03 -.237E-01
   0.651E+01 -.146E+00 0.337E+04   -.162E+01 0.152E+00 -.337E+04   -.112E+01 -.146E-02 -.347E+01
   0.261E+01 0.728E-04 0.277E+04   -.420E+01 -.148E-05 -.277E+04   -.773E-01 -.696E-05 -.267E-01
   0.206E+01 0.138E-04 0.126E+04   -.222E+01 -.602E-05 -.126E+04   0.153E+00 -.517E-06 0.500E-01
   0.503E+00 0.156E+01 0.801E+03   -.435E+00 -.155E+01 -.801E+03   -.444E-01 -.184E-01 -.151E+00
   0.985E+00 0.306E+00 0.126E+04   -.115E+01 -.299E+00 -.126E+04   0.172E+00 -.933E-02 -.135E-02
   -.874E+01 0.143E-05 0.777E+03   0.880E+01 0.463E-05 -.777E+03   -.211E-01 -.764E-05 -.625E-01
   -.937E+00 -.160E-04 -.783E+03   0.685E+00 -.302E-05 0.783E+03   0.228E+00 0.421E-05 0.155E+00
   -.112E+02 0.507E+01 -.117E+04   0.113E+02 -.509E+01 0.117E+04   -.101E+00 0.977E-03 -.247E+00
   0.107E+01 0.195E+01 -.756E+03   -.132E+01 -.196E+01 0.756E+03   0.271E+00 -.210E-02 0.954E-01
   -.231E+01 0.313E-05 -.123E+04   0.247E+01 0.495E-05 0.124E+04   -.914E-01 -.287E-05 -.178E+00
   0.481E+02 -.983E-05 -.279E+04   -.488E+02 -.416E-05 0.279E+04   0.645E+00 -.591E-05 -.390E-01
   -.871E+02 0.214E+02 -.318E+04   0.873E+02 -.213E+02 0.318E+04   0.413E-01 -.145E+00 0.774E+00
   -.104E+02 0.398E+02 -.270E+04   0.963E+01 -.399E+02 0.271E+04   0.842E+00 0.256E-01 -.446E-01
   0.116E+02 0.263E-04 -.312E+04   -.109E+02 -.653E-05 0.313E+04   -.532E+00 0.539E-05 -.333E+00
   -.322E+02 -.178E-01 0.228E+04   0.370E+02 0.176E-01 -.229E+04   -.657E+01 0.398E-03 0.171E+02
   -.325E+02 -.153E-01 0.228E+04   0.373E+02 0.133E-01 -.229E+04   -.656E+01 0.251E-02 0.171E+02
   0.813E+02 0.152E+00 0.138E+04   -.861E+02 -.151E+00 -.138E+04   0.387E+01 -.435E-02 -.446E+01
   0.748E+02 0.927E-02 0.169E+04   -.819E+02 -.836E-02 -.168E+04   0.742E+01 -.163E-02 -.270E+01
   -.862E+02 -.316E-01 0.194E+04   0.934E+02 0.297E-01 -.194E+04   -.699E+01 0.363E-02 -.158E+00
   -.690E+02 -.770E+00 0.106E+04   0.747E+02 0.822E+00 -.106E+04   -.570E+01 -.489E-01 0.434E+01
   0.819E+02 0.104E+00 0.138E+04   -.868E+02 -.869E-01 -.138E+04   0.385E+01 -.187E-01 -.434E+01
   0.740E+02 0.107E+00 0.169E+04   -.810E+02 -.116E+00 -.168E+04   0.743E+01 0.216E-01 -.272E+01
[...]
   0.870E+02 0.141E-05 -.108E+04   -.939E+02 -.150E-04 0.109E+04   0.689E+01 0.998E-05 -.772E+01
   0.703E+02 -.107E-04 -.715E+03   -.763E+02 0.145E-05 0.718E+03   0.601E+01 -.611E-05 -.305E+01
   -.813E+02 0.725E+00 -.458E+03   0.877E+02 -.741E+00 0.455E+03   -.640E+01 0.173E-01 0.282E+01
   -.664E+02 0.974E+01 -.128E+04   0.687E+02 -.100E+02 0.127E+04   -.238E+01 0.300E+00 0.988E+01
   0.805E+02 0.890E+01 -.105E+04   -.869E+02 -.918E+01 0.105E+04   0.639E+01 0.278E+00 -.592E+01
   0.799E+02 0.999E+00 -.731E+03   -.864E+02 -.103E+01 0.734E+03   0.648E+01 0.373E-01 -.331E+01
   -.727E+02 0.254E-04 -.462E+03   0.788E+02 -.679E-05 0.460E+03   -.608E+01 0.292E-05 0.245E+01
   -.611E+02 -.408E-04 -.131E+04   0.669E+02 0.178E-04 0.130E+04   -.572E+01 0.832E-05 0.631E+01
   0.107E+03 -.332E-04 -.227E+04   -.113E+03 0.965E-05 0.229E+04   0.574E+01 0.987E-05 -.204E+02
   0.452E+02 -.286E-04 -.201E+04   -.488E+02 0.377E-04 0.202E+04   0.363E+01 -.346E-05 -.750E+01
   -.491E+02 0.664E+01 -.165E+04   0.541E+02 -.649E+01 0.165E+04   -.495E+01 -.148E+00 0.318E+01
   0.119E+02 0.313E+02 -.226E+04   -.172E+02 -.312E+02 0.228E+04   0.536E+01 -.123E+00 -.196E+02
   0.784E+02 0.460E+02 -.195E+04   -.836E+02 -.456E+02 0.196E+04   0.513E+01 -.428E+00 -.646E+01
   -.687E+02 -.299E-04 -.156E+04   0.732E+02 0.193E-04 0.156E+04   -.449E+01 -.170E-05 0.437E+01
   -.162E+02 -.584E-03 0.555E+02   0.227E-12 0.107E-12 0.127E-10   0.162E+02 -.305E-04 -.556E+02

 POSITION                                       TOTAL-FORCE (eV/Angst)
      6.28960      5.68441     21.72356         0.000814     -0.000032     -0.002438
      5.64310      5.68441     22.51263        -0.002005      0.000006      0.005626
      6.89680      4.86564     21.80064         0.002807     -0.002541      0.001505
      6.89680      6.50317     21.80064         0.002831      0.002582      0.001509
      8.29735      9.47401      8.23554         3.835525     -0.000181      1.701441
      6.07868      7.57921      9.11612        -1.661050      0.000078     -1.863190
      3.16102      7.57921      8.23554         3.807798     -0.003844      1.687235
      0.94235      9.47401      9.11612        -1.690297     -0.006313     -1.868537
      9.70296      9.47444     11.79892        -0.001330      0.000441     -0.000423
      7.46107      7.57430     12.59646         0.000505     -0.000142     -0.001141
      4.56182      7.57663     11.79566         0.000503     -0.002356     -0.001105
      2.31613      9.47353     12.60523         0.000439      0.000370     -0.000031
      0.87814      9.47528     15.36023        -0.000238      0.001695      0.003396
      8.88480      7.57212     16.06407        -0.001178      0.000010      0.002125
      6.00350      7.57673     15.33938        -0.001462      0.002272      0.001009
      3.73655      9.47458     16.08823        -0.000696     -0.001094      0.002984
      2.37673      9.46617     18.99059         0.002119     -0.001020      0.003196
      0.01239      7.56663     19.54483         0.002881      0.000917      0.009427
      7.49738      7.57766     18.91859         0.001326     -0.001854      0.005174
      5.17082      9.48964     19.53826         0.000593      0.000519      0.006280
      8.29735      1.89480      8.23554         3.835428      0.000307      1.701415
      6.07868      0.00000      9.11612        -1.678396      0.000056     -1.867243
      3.16102      0.00000      8.23554         3.827907     -0.000018      1.696402
      0.94235      1.89480      9.11612        -1.690216      0.006062     -1.868446
      9.70296      1.89437     11.79892        -0.001367     -0.000484     -0.000355
      7.45680     11.36881     12.59828         0.000393      0.000001     -0.000386
      4.56387     11.36881     11.79879        -0.002446     -0.000025     -0.000110
      2.31613      1.89529     12.60523         0.000432     -0.000369     -0.000036
      0.87814      1.89353     15.36023        -0.000272     -0.001689      0.003329
      8.87219     11.36881     16.07703         0.001644     -0.000010      0.001259
      6.00954     11.36881     15.34943        -0.001147      0.000066      0.002225
      3.73655      1.89423     16.08823        -0.000635      0.001124      0.003024
      2.37673      1.90265     18.99059         0.002138      0.001065      0.003183
      0.03709     11.36881     19.54521         0.006281     -0.000083      0.011471
      7.53093     11.36881     18.97526        -0.002087     -0.000022      0.003351
      5.17082      1.87918     19.53826         0.000726     -0.000676      0.006679
      8.29735      5.68441      8.23554         3.849103     -0.000034      1.697868
      6.07868      3.78960      9.11612        -1.660938     -0.000139     -1.863024
      3.16102      3.78960      8.23554         3.807981      0.003912      1.687231
      0.94235      5.68441      9.11612        -1.660342      0.000069     -1.796056
      9.71904      5.68441     11.79391         0.003715      0.000011      0.000721
      7.46107      3.79452     12.59646         0.000490      0.000109     -0.001098
      4.56182      3.79219     11.79566         0.000522      0.002363     -0.001120
      2.31971      5.68441     12.63544        -0.003231      0.000002     -0.002249
      0.91004      5.68441     15.36701         0.000417     -0.000011      0.000722
      8.88480      3.79669     16.06407        -0.001130     -0.000032      0.002171
      6.00350      3.79208     15.33938        -0.001441     -0.002274      0.001035
      3.75503      5.68441     16.17598        -0.000517      0.000010      0.000945
      2.41699      5.68441     19.01030        -0.000210     -0.000016      0.007039
      0.01239      3.80218     19.54484         0.002855     -0.001022      0.009223
      7.49738      3.79116     18.91859         0.001315      0.001881      0.005208
      5.20291      5.68441     19.70272         0.002204      0.000030      0.008449
      5.01424      7.57921      7.50000        -1.751420      0.000186      0.956603
     10.15057      9.47401      7.50000        -1.747780      0.000591      0.952888
      9.36179      9.47401      9.85165        -1.000989     -0.003362     -0.174536
      6.44412      9.47401      8.97107         0.351200     -0.000709     -0.046997
      7.93191      7.57921      8.38058         0.267296      0.001764     -1.069724
      6.41224      7.57921     11.02232        -0.068055      0.003377      0.444778
      4.22546      7.57921      9.85165        -1.005575     -0.001463     -0.160540
      1.30779      7.57921      8.97107         0.361056      0.013118     -0.055277
[...]
      2.72045      5.68441     14.56372         0.001559      0.000008      0.002546
      1.97384      5.68441     16.95538         0.000457      0.000001     -0.002030
      9.28364      5.68441     16.00356        -0.001171     -0.000011      0.000399
      0.52164      3.79145     15.43693         0.001088      0.000057     -0.000653
      9.38585      3.78683     18.01178        -0.000915      0.001538     -0.004012
      7.12590      3.77850     16.91210         0.000341     -0.001181      0.000452
      4.15243      3.79037     16.03960        -0.000429      0.002064     -0.000004
      5.65229      5.68441     15.45841         0.000267      0.000026     -0.001141
      4.23459      5.68441     18.09751        -0.000191     -0.000011     -0.000805
      3.54373      5.68441     20.48892         0.001513     -0.000010      0.004198
      0.53545      5.68441     19.78477         0.002076      0.000010      0.000699
      2.00650      3.79385     19.00145         0.000433      0.001075      0.003350
      8.65956      3.82097     20.40315        -0.001957     -0.000040      0.003265
      5.68358      3.76100     19.73814         0.002772      0.002835      0.001652
      7.12190      5.68441     18.92331         0.001922     -0.000008      0.000906
    total drift:                                0.009328     -0.000614     -0.097900

  FREE ENERGIE OF THE ION-ELECTRON SYSTEM (eV)
  free  energy   TOTEN  =     -1295.07255936 eV

  energy  without entropy=    -1295.07255936  energy(sigma->0) =    -1295.07255936