 vasp.6.3.0 20Jan22 (build Aug 21 2024 11:13:42) complex
 executed on        HPECrayEX_GCC date 2024.11.26  11:20:30

 INCAR:
   SYSTEM = MgO-rocksalt
   ISMEAR = 0
   SIGMA = 0.05
   EDIFF = 1E-4
   ALGO = ALL
   ISTART = 0
   IBRION = -1
   NSW = 0
   ISYM = 0
   DIPOL = 0.5 0.5 0.5
   IDIPOL = 3
   LDIPOL = .TRUE.
   GGA = RE
   IVDW = 13
   VDW_S8 = 1.7468
   VDW_A1 = 0.5363
   VDW_A2 = 3.0726
   ENCUT = 520
   PREC = Accurate
   LASPH = .TRUE.
   LREAL = Auto
   ISPIN = 1
   NELM = 200
   NELMIN = 8
   NCORE = 8
   KPAR = 1
   LWAVE = .FALSE.
   LCHARG = .FALSE.

 POTCAR:    PAW_PBE C 08Apr2002
 POTCAR:    PAW_PBE H 15Jun2001
 POTCAR:    PAW_PBE O 08Apr2002
 POTCAR:    PAW_PBE Mg_pv 13Apr2007
 POTCAR:    PAW_PBE O 08Apr2002
 POTCAR:    PAW_PBE C 08Apr2002
   VRHFIN =C: s2p2

   TITEL  = PAW_PBE C 08Apr2002
   POMASS =   12.011; ZVAL   =    4.000    mass and valenz
   ENMAX  =  400.000; ENMIN  =  300.000 eV

   TITEL  = PAW_PBE H 15Jun2001
   POMASS =    1.000; ZVAL   =    1.000    mass and valenz
   ENMAX  =  250.000; ENMIN  =  200.000 eV

[...]

   TITEL  = PAW_PBE Mg_pv 13Apr2007
   POMASS =   24.305; ZVAL   =    8.000    mass and valenz
   ENMAX  =  403.929; ENMIN  =  302.947 eV

   TITEL  = PAW_PBE O 08Apr2002
   POMASS =   16.000; ZVAL   =    6.000    mass and valenz
   ENMAX  =  400.000; ENMIN  =  300.000 eV

 Optimization of the real space projectors (new method)

 maximal supplied QI-value         = 25.13
 optimisation between [QCUT,QGAM] = [ 11.56, 23.12] = [ 37.43,149.72] Ry
 Optimized for a Real-space Cutoff    1.04 Angstroem

   l    n(q)    QCUT    max X(q) W(low)/X(q) W(high)/X(q)  e(spline)
   0      7    11.561   115.676    0.20E-03    0.60E-03    0.21E-06
   0      7    11.561    87.132    0.20E-03    0.59E-03    0.21E-06
   1      7    11.561     4.429    0.23E-03    0.35E-03    0.15E-06
   1      7    11.561     2.733    0.18E-03    0.25E-03    0.12E-06
 Optimization of the real space projectors (new method)

[...]

   l    n(q)    QCUT    max X(q) W(low)/X(q) W(high)/X(q)  e(spline)
   1      8    11.527     2.974    0.44E-04    0.56E-04    0.12E-06
   1      8    11.527     4.279    0.12E-03    0.12E-03    0.26E-06
   0      9    11.527    16.381    0.46E-04    0.64E-04    0.78E-07
   0      9    11.527     5.611    0.26E-04    0.43E-04    0.55E-07
   2      8    11.527     4.652    0.22E-03    0.72E-04    0.47E-07
 Optimization of the real space projectors (new method)

 maximal supplied QI-value         = 24.76
 optimisation between [QCUT,QGAM] = [ 11.64, 23.27] = [ 37.91,151.63] Ry
 Optimized for a Real-space Cutoff    1.14 Angstroem

   l    n(q)    QCUT    max X(q) W(low)/X(q) W(high)/X(q)  e(spline)
   0      8    11.635    20.381    0.10E-03    0.33E-03    0.24E-06
   0      8    11.635    15.268    0.11E-03    0.35E-03    0.26E-06
   1      7    11.635     5.964    0.24E-03    0.31E-03    0.30E-06
   1      7    11.635     5.382    0.22E-03    0.25E-03    0.26E-06
|               ----> ADVICE to this user running VASP <----                  |
|     You enforced a specific xc type in the INCAR file but a different       |
|     type was found in the POTCAR file.                                      |
|     I HOPE YOU KNOW WHAT YOU ARE DOING!                                     |

  PAW_PBE C 08Apr2002                   :
  PAW_PBE H 15Jun2001                   :
  PAW_PBE O 08Apr2002                   :
  PAW_PBE Mg_pv 13Apr2007               :
  PAW_PBE O 08Apr2002                   :

 POSCAR:  C  H  O Mg  O
  positions in direct lattice
  velocities in cartesian coordinates
|           W    W    AA    RRRRR   N    N  II  N    N   GGGG   !!!           |
|           W    W   A  A   R    R  NN   N  II  NN   N  G    G  !!!           |
|           W    W  A    A  R    R  N N  N  II  N N  N  G       !!!           |
|           W WW W  AAAAAA  RRRRR   N  N N  II  N  N N  G  GGG   !            |
|           WW  WW  A    A  R   R   N   NN  II  N   NN  G    G                |
|           W    W  A    A  R    R  N    N  II  N    N   GGGG   !!!           |
|     Specifying the vdW parameters                                           |
|     VDW_S8 = 1.747                                                          |
|     VDW_A1 = 0.536                                                          |
|     VDW_A2 = 3.073                                                          |
|     in the INCAR file will overwrite the defaults for revpbe. Please        |
|     make sure that is what you intended.                                    |

 ion  position               nearest neighbor table
   1  0.495  0.539  0.801-   7 1.10   8 1.11   5 1.11  21 1.42
   2  0.333  0.392  0.800-  12 1.10   9 1.10  11 1.10  22 1.43
   3  0.448  0.189  0.788-  16 1.10  13 1.10  15 1.10  23 1.44
   4  0.683  0.419  0.790-  20 1.10  19 1.10  17 1.10  24 1.43
   5  0.497  0.515  0.849-   1 1.11
   6  0.571  0.420  0.759-  24 1.03
   7  0.544  0.582  0.796-   1 1.10
   8  0.439  0.573  0.797-   1 1.11
   9  0.355  0.387  0.848-   2 1.10
  10  0.442  0.427  0.758-  22 1.13  21 1.31
  11  0.307  0.452  0.793-   2 1.10
  12  0.286  0.348  0.792-   2 1.10
  13  0.452  0.198  0.839-   3 1.10
  14  0.456  0.301  0.761-  23 1.01
  15  0.385  0.187  0.774-   3 1.10
  16  0.476  0.133  0.775-   3 1.10
  17  0.688  0.483  0.779-   4 1.10
  18  0.619  0.257  0.710- 230 0.98
  19  0.672  0.413  0.841-   4 1.10
  20  0.738  0.390  0.777-   4 1.10
  21  0.500  0.479  0.755-  10 1.31   1 1.42 127 2.12
  22  0.395  0.378  0.756-  10 1.13   2 1.43  48 2.17
  23  0.489  0.252  0.755-  14 1.01   3 1.44 103 2.17
  24  0.620  0.384  0.755-   6 1.03   4 1.43  96 2.15
  25  0.000  0.375  0.352- 153 2.11 156 2.11 163 2.11 187 2.11 236 2.11
  26  0.125  0.000  0.352- 154 2.11 155 2.11 164 2.11 171 2.11 188 2.11
  27  0.000  0.000  0.451- 155 2.11 154 2.11 161 2.11 185 2.11 234 2.11 159 2.12
  28  0.125  0.375  0.451- 156 2.11 153 2.11 162 2.11 169 2.11 186 2.11 160 2.12
  29  0.000  0.375  0.550- 160 2.10 191 2.11 167 2.12 240 2.12 153 2.12 157 2.15
  30  0.125  1.000  0.550- 192 2.11 175 2.11 168 2.11 159 2.11 154 2.12 158 2.15
  31  0.000  1.000  0.649- 158 2.10 189 2.10 159 2.11 165 2.11 238 2.11
  32  0.125  0.375  0.649- 173 2.08 160 2.11 190 2.11 157 2.11 166 2.12
  33  0.000  0.125  0.352- 161 2.11 155 2.11 163 2.11 164 2.11 244 2.11
  34  0.125  0.250  0.352- 162 2.11 156 2.11 163 2.11 164 2.11 179 2.11
  35  0.000  0.250  0.451- 163 2.11 161 2.11 162 2.11 153 2.11 242 2.11 167 2.12
  36  0.125  0.125  0.451- 164 2.11 161 2.11 162 2.11 154 2.11 177 2.11 168 2.12
  37  0.000  0.125  0.550- 168 2.10 159 2.11 167 2.11 248 2.12 161 2.12 165 2.15
  38  0.125  0.250  0.550- 183 2.09 160 2.11 167 2.11 168 2.12 162 2.12 166 2.15
  39  0.001  0.250  0.649- 166 2.09 246 2.10 167 2.11 157 2.11 165 2.12
  40  0.125  0.125  0.649- 181 2.10 168 2.11 165 2.11 166 2.11 158 2.11
  41  0.250  0.375  0.352- 169 2.11 156 2.11 172 2.11 179 2.11 203 2.11
  42  0.375  0.000  0.352- 170 2.11 171 2.11 180 2.11 204 2.11 219 2.11
  43  0.250  0.000  0.451- 171 2.11 170 2.11 154 2.11 177 2.11 201 2.11 175 2.12
  44  0.375  0.375  0.451- 172 2.11 169 2.11 178 2.11 202 2.11 217 2.11 176 2.13
  45  0.251  0.375  0.551- 176 2.09 207 2.11 183 2.12 160 2.13 169 2.13 173 2.14
  46  0.375  1.000  0.550- 208 2.10 184 2.11 175 2.11 170 2.12 223 2.12 174 2.16
  47  0.250  1.000  0.649- 181 2.10 205 2.10 158 2.11 175 2.11 174 2.11
  48  0.374  0.376  0.655- 206 2.13 173 2.13 221 2.15  22 2.17 182 2.17 176 2.25
  49  0.250  0.125  0.352- 177 2.11 171 2.11 164 2.11 179 2.11 180 2.11
  50  0.375  0.250  0.352- 178 2.11 172 2.11 179 2.11 180 2.11 227 2.11
  51  0.250  0.250  0.451- 183 2.11 179 2.11 177 2.11 178 2.11 162 2.11 169 2.11
  52  0.375  0.125  0.451- 180 2.11 177 2.11 178 2.11 170 2.11 225 2.11 184 2.11
  53  0.250  0.125  0.550- 183 2.10 168 2.11 184 2.11 175 2.11 177 2.12 181 2.15
  54  0.375  0.251  0.551- 176 2.09 182 2.10 183 2.12 178 2.14 184 2.14 231 2.15
  55  0.249  0.250  0.648- 182 2.06 183 2.10 166 2.11 173 2.11 181 2.13
  56  0.373  0.124  0.648- 182 2.09 184 2.10 181 2.10 174 2.10 229 2.15
  57  0.000  0.875  0.352- 185 2.11 155 2.11 188 2.11 195 2.11 268 2.11
  58  0.125  0.500  0.352- 186 2.11 156 2.11 187 2.11 196 2.11 203 2.11
  59  0.000  0.500  0.451- 187 2.11 186 2.11 153 2.11 193 2.11 266 2.11 191 2.12
  60  0.125  0.875  0.451- 188 2.11 185 2.11 154 2.11 194 2.11 201 2.11 192 2.12
[...]
 266  0.875  0.500  0.451- 138 2.11 108 2.11  59 2.11 139 2.11 148 2.11 142 2.12
 267  0.750  0.500  0.352- 139 2.11 122 2.11 138 2.11 105 2.11 145 2.11
 268  0.875  0.875  0.352- 140 2.11 106 2.11 137 2.11  57 2.11 146 2.11
 269  0.750  0.875  0.651- 111 2.09 144 2.11 151 2.11 128 2.12 141 2.15
 270  0.875  0.500  0.651- 112 2.10 143 2.10  63 2.11 152 2.11 142 2.15
 271  0.751  0.500  0.550- 143 2.10 109 2.10 142 2.10 139 2.11 149 2.11 126 2.14
 272  0.875  0.875  0.550- 110 2.10 141 2.11 144 2.11  61 2.11 150 2.11 140 2.12
 273  0.750  0.625  0.451- 145 2.11 139 2.11 132 2.11 147 2.11 148 2.11 149 2.12
 274  0.875  0.750  0.451- 146 2.11 140 2.11  67 2.11 147 2.11 148 2.11 150 2.12
 275  0.750  0.750  0.352- 147 2.11 137 2.11 145 2.11 146 2.11 130 2.11
 276  0.875  0.625  0.352- 148 2.11 138 2.11 145 2.11 146 2.11  65 2.11
 277  0.751  0.626  0.651- 151 2.09 152 2.10 143 2.10 136 2.13 149 2.15
 278  0.875  0.750  0.651- 144 2.10  71 2.11 152 2.11 151 2.11 150 2.15
 279  0.750  0.750  0.550- 141 2.10 150 2.11 151 2.11 149 2.11 147 2.12 134 2.12
 280  0.875  0.625  0.550- 150 2.11 142 2.11 152 2.11  69 2.11 149 2.11 148 2.12

IMPORTANT INFORMATION: All symmetrisations will be switched off!
NOSYMM: (Re-)initialisation of all symmetry stuff for point group C_1.

                                     Primitive cell

  volume of cell :    6079.2794

  direct lattice vectors                    reciprocal lattice vectors
    16.881969308  0.000000000  0.000000000     0.059234796  0.000000000  0.000000000
     0.000000000 16.881969308  0.000000000     0.000000000  0.059234796  0.000000000
     0.000000000  0.000000000 21.330738491     0.000000000  0.000000000  0.046880702

  length of vectors
    16.881969308 16.881969308 21.330738491     0.059234796  0.059234796  0.046880702

  position of ions in fractional coordinates (direct lattice)
     0.494741545  0.539182070  0.801215795
     0.333236186  0.392243334  0.799604030
     0.448229860  0.189366262  0.787931134
     0.682716199  0.419263148  0.789829254
     0.497166009  0.514550325  0.849238886
     0.571002783  0.419976555  0.759115837
     0.544114108  0.581568107  0.796056678
     0.439018612  0.573160207  0.796742407
     0.354861461  0.387358676  0.848279834
     0.441581041  0.427193141  0.758326944
     0.307468089  0.451776984  0.793135907
     0.285906951  0.348447997  0.792309085
     0.452370826  0.197583293  0.839083781
     0.455769056  0.301229752  0.760710025
     0.385089841  0.187357266  0.774469186
     0.476218009  0.133167581  0.774776164
     0.688138344  0.482984513  0.778888956
     0.618621301  0.257367617  0.709885387
     0.672458705  0.412621021  0.840614496
     0.738320853  0.389771534  0.777025622
     0.499687436  0.478597566  0.755218860
[...]
   4.20979214  4.22268410 13.82313809
   6.30474684  2.09500861 13.82017595
   0.00000000 14.77172314  7.50000000
   2.11024616  8.44098465  7.50000000
   0.00000000  8.44098465  9.61024616
   2.11024616 14.77172314  9.61024616
[...]
  14.77172314  8.44098465  9.61024616
  12.66147698  8.44098465  7.50000000
  14.77172314 14.77172314  7.50000000
  12.66849653 14.77063513 13.88517724
  14.77658113  8.44421274 13.88376136
  12.67015879  8.44101692 11.72294058
  14.77202142 14.77456091 11.72779920
  12.66147698 10.55123082  9.61024616
  14.77172314 12.66147698  9.61024616
  12.66147698 12.66147698  7.50000000
  14.77172314 10.55123082  7.50000000
  12.67798027 10.56612262 13.88279690
  14.77860535 12.66624663 13.88391124
  12.66576920 12.66578419 11.72692325
  14.77483967 10.55317847 11.72694951

--------------------------------------- Iteration      FINAL  ---------------------------------------

--------------------OUTCAR has been truncated-------------------------

[...]

--------------------OUTCAR has been truncated-------------------------

  FORCE on cell =-STRESS in cart. coord.  units (eV):
  Direction    XX          YY          ZZ          XY          YZ          ZX
  Alpha Z  3675.42456  3675.42456  3675.42456
  Ewald  632089.73261632074.60531************   167.36830   195.48894  -152.42735
  Hartree673680.62873673667.91037************   149.40362   113.87286   -84.72474
  E(xc)  -10093.47176-10093.46324-10125.56060    -0.09258     0.42373    -0.34597
  Local  ************************************  -319.27609  -292.35552   223.34117
  n-local-11328.99727-11329.33269-11410.73702     2.00078     1.07294    -1.00258
  augment  4211.50884  4211.45343  4174.92707    -0.03152    -1.37158     1.11165
  Kinetic 30169.26646 30168.33453 30330.48681     1.02468   -16.93065    14.03653
  Fock        0.00000     0.00000     0.00000     0.00000     0.00000     0.00000
  vdW       -88.35281   -88.33426   -68.74296     0.02512    -0.05212     0.04712
  Total     -89.08614   -89.00783     4.34640     0.42231     0.14862     0.03582
  in kB     -23.47841   -23.45777     1.14548     0.11130     0.03917     0.00944

 VOLUME and BASIS-vectors are now :
  energy-cutoff  :      520.00
  volume of cell :     6079.28
      direct lattice vectors                 reciprocal lattice vectors
    16.881969308  0.000000000  0.000000000     0.059234796  0.000000000  0.000000000
     0.000000000 16.881969308  0.000000000     0.000000000  0.059234796  0.000000000
     0.000000000  0.000000000 21.330738491     0.000000000  0.000000000  0.046880702

  length of vectors
    16.881969308 16.881969308 21.330738491     0.059234796  0.059234796  0.046880702

 FORCES acting on ions:
    Electron-Ion                     Ewald-Force                    Non-Local-Force
   0.842E+01 -.199E+03 -.102E+04   -.867E+01 0.202E+03 0.102E+04   0.257E+00 -.352E+01 -.312E+01
   0.199E+03 -.244E+02 -.102E+04   -.203E+03 0.252E+02 0.102E+04   0.408E+01 -.818E+00 -.341E+01
   0.636E+02 0.190E+03 -.104E+04   -.662E+02 -.195E+03 0.104E+04   0.253E+01 0.449E+01 -.275E+01
   -.194E+03 -.513E+02 -.104E+04   0.198E+03 0.534E+02 0.104E+04   -.434E+01 -.214E+01 -.292E+01
   -.185E+01 -.806E+01 -.253E+03   0.206E+01 0.606E+01 0.258E+03   -.204E+00 0.202E+01 -.505E+01
   0.225E+02 -.272E+02 -.271E+03   -.276E+02 0.308E+02 0.271E+03   0.509E+01 -.359E+01 -.509E+00
   -.450E+02 -.704E+02 -.238E+03   0.491E+02 0.740E+02 0.238E+03   -.413E+01 -.359E+01 0.554E+00
   0.537E+02 -.636E+02 -.238E+03   -.584E+02 0.665E+02 0.238E+03   0.462E+01 -.285E+01 0.470E+00
   0.112E+02 0.226E+01 -.253E+03   -.938E+01 -.267E+01 0.259E+03   -.180E+01 0.408E+00 -.521E+01
   0.228E+01 -.241E+02 -.265E+03   -.634E+00 0.259E+02 0.265E+03   -.165E+01 -.174E+01 -.112E+00
   0.572E+02 -.601E+02 -.239E+03   -.594E+02 0.651E+02 0.238E+03   0.219E+01 -.502E+01 0.681E+00
   0.747E+02 0.382E+02 -.239E+03   -.788E+02 -.419E+02 0.238E+03   0.412E+01 0.374E+01 0.812E+00
   0.242E+01 0.225E+02 -.259E+03   -.205E+01 -.219E+02 0.265E+03   -.360E+00 -.673E+00 -.552E+01
   0.294E+02 -.297E+02 -.273E+03   -.332E+02 0.356E+02 0.273E+03   0.380E+01 -.598E+01 -.700E+00
   0.693E+02 0.349E+02 -.247E+03   -.746E+02 -.351E+02 0.245E+03   0.534E+01 0.146E+00 0.142E+01
   -.199E+02 0.790E+02 -.247E+03   0.224E+02 -.840E+02 0.246E+03   -.246E+01 0.497E+01 0.151E+01
   -.392E+02 -.680E+02 -.246E+03   0.397E+02 0.734E+02 0.245E+03   -.439E+00 -.538E+01 0.114E+01
   -.164E+02 0.157E+02 -.337E+03   0.150E+02 -.142E+02 0.345E+03   0.137E+01 -.157E+01 -.777E+01
   -.213E+02 0.198E+01 -.258E+03   0.204E+02 -.255E+01 0.264E+03   0.852E+00 0.572E+00 -.546E+01
   -.789E+02 0.228E+02 -.246E+03   0.838E+02 -.254E+02 0.244E+03   -.489E+01 0.257E+01 0.147E+01
   -.218E+02 -.106E+03 -.153E+04   0.285E+02 0.899E+02 0.151E+04   -.670E+01 0.162E+02 0.208E+02
   0.111E+03 0.437E+02 -.153E+04   -.100E+03 -.608E+02 0.151E+04   -.110E+02 0.171E+02 0.204E+02
   -.115E+03 0.116E+03 -.157E+04   0.149E+03 -.116E+03 0.156E+04   -.344E+02 -.250E+00 0.146E+02
   -.114E+03 0.117E+03 -.157E+04   0.110E+03 -.149E+03 0.155E+04   0.381E+01 0.320E+02 0.150E+02
   0.140E+01 0.830E+00 0.209E+04   -.129E+01 -.765E+00 -.208E+04   -.824E-01 -.496E-01 -.715E+01
   0.607E+01 0.503E+01 0.208E+04   -.603E+01 -.505E+01 -.208E+04   -.347E-01 0.147E-01 -.716E+01
   0.231E+01 0.642E+01 0.714E+03   -.221E+01 -.647E+01 -.714E+03   -.769E-01 0.400E-01 0.530E+00
   0.147E+02 0.100E+00 0.733E+03   -.144E+02 -.462E-01 -.733E+03   -.169E+00 -.402E-01 0.428E+00
   0.496E+01 0.225E+01 -.632E+03   -.457E+01 -.209E+01 0.632E+03   -.388E+00 -.161E+00 -.126E+00
   0.176E+02 0.149E+02 -.648E+03   -.175E+02 -.149E+02 0.648E+03   -.122E+00 0.325E-01 -.152E+00
   0.566E+01 0.163E+02 -.202E+04   -.530E+01 -.165E+02 0.202E+04   -.363E+00 0.171E+00 0.608E+01
   0.815E+02 0.175E+01 -.197E+04   -.807E+02 -.151E+01 0.197E+04   -.867E+00 -.238E+00 0.609E+01
   0.182E+01 0.685E+01 0.208E+04   -.172E+01 -.685E+01 -.208E+04   -.795E-01 0.208E-02 -.714E+01
   0.811E+01 0.564E+01 0.209E+04   -.802E+01 -.559E+01 -.208E+04   -.671E-01 -.434E-01 -.719E+01
   0.339E+01 0.848E+01 0.724E+03   -.310E+01 -.843E+01 -.724E+03   -.215E+00 -.342E-01 0.539E+00
   0.127E+02 0.124E+02 0.724E+03   -.126E+02 -.124E+02 -.724E+03   -.634E-01 -.279E-01 0.489E+00
   0.749E+01 0.178E+02 -.646E+03   -.708E+01 -.179E+02 0.646E+03   -.415E+00 0.287E-01 -.150E+00
   0.353E+02 0.176E+02 -.623E+03   -.349E+02 -.175E+02 0.623E+03   -.439E+00 -.194E+00 -.499E-01
   0.559E+01 0.236E+02 -.200E+04   -.521E+01 -.235E+02 0.200E+04   -.385E+00 -.899E-01 0.606E+01
   0.457E+02 0.377E+02 -.200E+04   -.453E+02 -.377E+02 0.200E+04   -.339E+00 -.254E-01 0.608E+01
   0.104E+02 0.325E+00 0.209E+04   -.103E+02 -.253E+00 -.209E+04   -.376E-01 -.550E-01 -.726E+01
   0.408E+01 0.652E+01 0.209E+04   -.414E+01 -.656E+01 -.208E+04   0.493E-01 0.296E-01 -.715E+01
   0.121E+02 0.109E+02 0.724E+03   -.121E+02 -.109E+02 -.725E+03   0.194E-01 0.105E-01 0.489E+00
   0.102E+02 0.765E+00 0.761E+03   -.102E+02 -.531E+00 -.761E+03   0.673E-02 -.171E+00 0.190E+00
   0.549E+02 -.173E+00 -.580E+03   -.542E+02 0.395E+00 0.580E+03   -.750E+00 -.223E+00 -.546E+00
   0.121E+02 0.303E+02 -.620E+03   -.123E+02 -.303E+02 0.620E+03   0.266E+00 -.458E-02 -.700E-02
   0.398E+02 0.431E+02 -.200E+04   -.400E+02 -.430E+02 0.200E+04   0.182E+00 -.514E-01 0.609E+01
   0.142E+03 0.563E+01 -.171E+04   -.142E+03 -.473E+01 0.171E+04   0.750E-01 -.901E+00 0.140E+01
   0.844E+01 0.889E+01 0.209E+04   -.845E+01 -.885E+01 -.208E+04   0.730E-02 -.308E-01 -.718E+01
   0.534E+01 0.757E+01 0.209E+04   -.543E+01 -.746E+01 -.209E+04   0.725E-01 -.873E-01 -.719E+01
   0.175E+02 0.107E+02 0.746E+03   -.175E+02 -.105E+02 -.746E+03   0.271E-01 -.127E+00 0.255E+00
   0.676E+01 0.174E+02 0.743E+03   -.690E+01 -.173E+02 -.743E+03   0.110E+00 -.620E-01 0.358E+00
   0.341E+02 0.357E+02 -.612E+03   -.342E+02 -.355E+02 0.612E+03   0.515E-01 -.197E+00 -.782E-01
   0.220E+02 0.377E+02 -.537E+03   -.227E+02 -.368E+02 0.538E+03   0.710E+00 -.916E+00 -.142E+01
   0.129E+03 0.647E+02 -.191E+04   -.128E+03 -.643E+02 0.191E+04   -.966E+00 -.396E+00 0.618E+01
   0.611E+02 0.127E+03 -.189E+04   -.622E+02 -.126E+03 0.188E+04   0.107E+01 -.411E+00 0.635E+01
   0.842E+00 -.764E+00 0.208E+04   -.793E+00 0.709E+00 -.207E+04   -.380E-01 0.421E-01 -.715E+01
   0.764E+01 -.507E+01 0.209E+04   -.754E+01 0.508E+01 -.208E+04   -.733E-01 -.103E-01 -.719E+01
   0.843E+00 -.682E+01 0.724E+03   -.734E+00 0.687E+01 -.725E+03   -.806E-01 -.367E-01 0.516E+00
   0.822E+01 -.271E+00 0.715E+03   -.817E+01 0.213E+00 -.715E+03   -.327E-01 0.434E-01 0.505E+00
[...]
   -.740E+01 -.342E+01 0.157E+04   0.737E+01 0.348E+01 -.157E+04   0.405E-01 -.783E-01 0.340E+01
   -.315E+01 -.954E+00 0.156E+04   0.317E+01 0.904E+00 -.157E+04   -.268E-01 0.727E-01 0.343E+01
   -.205E+02 -.196E+01 -.153E+04   0.204E+02 0.165E+01 0.154E+04   0.116E+00 0.302E+00 -.493E+01
   -.512E+02 -.242E+02 -.151E+04   0.514E+02 0.245E+02 0.151E+04   -.142E+00 -.236E+00 -.494E+01
   -.316E+02 -.150E+02 -.428E+03   0.311E+02 0.152E+02 0.428E+03   0.507E+00 -.117E+00 0.407E+00
   -.820E+01 -.183E+01 -.484E+03   0.824E+01 0.169E+01 0.484E+03   -.412E-01 0.133E+00 0.234E+00
   -.120E+02 -.110E+02 0.550E+03   0.119E+02 0.110E+02 -.550E+03   0.111E+00 0.434E-01 -.137E+00
   -.612E+01 -.726E+01 0.537E+03   0.611E+01 0.721E+01 -.537E+03   0.143E-01 0.645E-01 -.962E-01
   -.568E+01 -.531E+01 0.157E+04   0.566E+01 0.526E+01 -.157E+04   0.261E-01 0.643E-01 0.340E+01
   -.443E+01 -.547E+01 0.157E+04   0.443E+01 0.547E+01 -.157E+04   -.198E-02 -.469E-02 0.340E+01
   -.514E+02 -.575E+02 -.150E+04   0.509E+02 0.574E+02 0.150E+04   0.459E+00 0.847E-01 -.497E+01
   -.177E+02 -.195E+02 -.153E+04   0.176E+02 0.194E+02 0.154E+04   0.679E-01 0.137E+00 -.494E+01
   -.163E+02 -.175E+02 -.472E+03   0.162E+02 0.173E+02 0.472E+03   0.133E+00 0.171E+00 0.219E+00
   -.163E+02 -.168E+02 -.471E+03   0.162E+02 0.167E+02 0.471E+03   0.756E-01 0.269E-01 0.226E+00
   0.388E+02 -.522E+02 0.208E+02   -.628E-11 0.711E-12 -.100E-10   -.388E+02 0.522E+02 -.208E+02

 POSITION                                       TOTAL-FORCE (eV/Angst)
      8.35221      9.10246     17.09052         0.009578      0.004214      0.009567
      5.62568      6.62184     17.05614        -0.002790      0.005526     -0.003720
      7.56700      3.19688     16.80715        -0.008560     -0.001835      0.002909
     11.52559      7.07799     16.84764        -0.002973     -0.005529      0.008280
      8.39314      8.68662     18.11489         0.000543      0.000499      0.002530
      9.63965      7.09003     16.19250        -0.003977      0.001570      0.001422
      9.18572      9.81801     16.98048         0.001878      0.003319     -0.000161
      7.41150      9.67607     16.99510        -0.004283      0.006994      0.000316
      5.99076      6.53938     18.09444         0.002537      0.000245      0.009059
      7.45476      7.21186     16.17567        -0.001004      0.002950      0.004590
      5.19067      7.62689     16.91817        -0.003431      0.006133      0.001297
      4.82667      5.88249     16.90054        -0.004818     -0.005632      0.000100
      7.63691      3.33560     17.89828         0.002897      0.000969      0.008477
      7.69428      5.08535     16.22651        -0.000766      0.002861      0.004288
      6.50107      3.16296     16.52000         0.000178     -0.000714      0.000347
      8.03950      2.24813     16.52655         0.004411     -0.005169     -0.001885
     11.61713      8.15373     16.61428         0.003020      0.006162     -0.000740
     10.44355      4.34487     15.14238         0.000176      0.000416      0.007465
     11.35243      6.96586     17.93093        -0.000669      0.002459      0.004046
     12.46431      6.58011     16.57453         0.008306     -0.001465     -0.001482
      8.43571      8.07967     16.10938         0.006284     -0.002540     -0.005868
      6.67675      6.38875     16.11763        -0.000323     -0.008190     -0.007536
      8.25147      4.25168     16.11403         0.006879      0.003589     -0.002548
     10.46298      6.47765     16.09609         0.002424     -0.000591     -0.000081
      0.00000      6.33074      7.50000         0.023256      0.014859      0.327328
      2.11025      0.00000      7.50000         0.010048     -0.004263      0.328888
      0.00000      0.00000      9.61025         0.024860     -0.013204      0.058722
      2.11025      6.33074      9.61025         0.065581      0.013473      0.095056
      0.00685      6.33333     11.73261        -0.003284     -0.000299      0.001757
      2.11086     16.87941     11.73253         0.000528     -0.000544      0.000092
      0.00681     16.87474     13.83755        -0.001856      0.000717      0.008878
      2.11481      6.33584     13.83568        -0.000576      0.001837      0.010661
      0.00000      2.11025      7.50000         0.022640     -0.000884      0.322779
      2.11025      4.22049      7.50000         0.019221      0.012820      0.338269
      0.00000      4.22049      9.61025         0.065343      0.011129      0.052851
      2.11025      2.11025      9.61025         0.018634      0.008960      0.064511
      0.00587      2.10817     11.73329        -0.001676      0.001029      0.001012
      2.11283      4.22333     11.72992        -0.000088     -0.002062      0.000578
      0.01438      4.21988     13.83815        -0.003058      0.001428      0.008320
      2.11113      2.10459     13.83631        -0.000423      0.000108      0.008686
      4.22049      6.33074      7.50000         0.011029      0.016321      0.357894
      6.33074      0.00000      7.50000        -0.013638     -0.008572      0.327611
      4.22049      0.00000      9.61025        -0.007283     -0.005213      0.063002
      6.33074      6.33074      9.61025         0.020009      0.062128      0.198658
      4.23514      6.33489     11.74496        -0.002040     -0.000519      0.000904
      6.32681     16.87764     11.72834         0.001682      0.002285      0.002423
      4.21259     16.87435     13.83567         0.002180      0.001808      0.008375
      6.32002      6.34640     13.98072         0.000701      0.000155      0.006863
      4.22049      2.11025      7.50000        -0.001588      0.008548      0.335067
      6.33074      4.22049      7.50000        -0.018812      0.025307      0.339129
      4.22049      4.22049      9.61025         0.001684      0.046024      0.097455
      6.33074      2.11025      9.61025        -0.026230      0.027780      0.099159
      4.21693      2.11076     11.72968         0.001797     -0.000209      0.001588
      6.32419      4.23758     11.74584         0.000538     -0.002363      0.000113
      4.20979      4.22268     13.82314         0.001382     -0.000568      0.008293
      6.30475      2.09501     13.82018         0.001727     -0.000782      0.008521
      0.00000     14.77172      7.50000         0.010896     -0.012147      0.327224
      2.11025      8.44098      7.50000         0.020633      0.002766      0.339054
      0.00000      8.44098      9.61025         0.028187      0.011883      0.064003
      2.11025     14.77172      9.61025         0.010901     -0.015070      0.065690
[...]
     14.77172      8.44098      9.61025         0.010780     -0.022333      0.057729
     12.66148      8.44098      7.50000         0.011506     -0.021822     -0.505701
     14.77172     14.77172      7.50000        -0.005123      0.022749     -0.496072
     12.66850     14.77064     13.88518         0.000716      0.000336      0.004094
     14.77658      8.44421     13.88376        -0.002642      0.001324      0.003008
     12.67016      8.44102     11.72294        -0.000099      0.000657      0.000444
     14.77202     14.77456     11.72780        -0.002085     -0.002626     -0.002491
     12.66148     10.55123      9.61025         0.033976      0.009711      0.047474
     14.77172     12.66148      9.61025         0.005131      0.019597      0.068139
     12.66148     12.66148      7.50000         0.007328      0.018011     -0.505446
     14.77172     10.55123      7.50000         0.001886     -0.003647     -0.503015
     12.67798     10.56612     13.88280        -0.003097     -0.003528      0.006533
     14.77861     12.66625     13.88391        -0.001032      0.000575      0.004355
     12.66577     12.66578     11.72692        -0.000929     -0.000938     -0.000875
     14.77484     10.55318     11.72695        -0.002120     -0.000234     -0.003199
    total drift:                               -0.001796     -0.007822      0.014989

  FREE ENERGIE OF THE ION-ELECTRON SYSTEM (eV)
  free  energy   TOTEN  =     -1608.43406059 eV

  energy  without entropy=    -1608.43406059  energy(sigma->0) =    -1608.43406059