 vasp.6.3.0 20Jan22 (build Mar 11 2022 13:48:16) complex

 executed on             LinuxIFC date 2024.02.12  07:26:25

 INCAR:
   SYSTEM = Oxide-Surface
   ISMEAR = 0
   SIGMA = 0.05
   EDIFF = 1E-5
   ALGO = ALL
   ISTART = 0
   IBRION = -1
   NSW = 0
   ISYM = 2
   DIPOL = 0.5 0.5 0.5
   IDIPOL = 3
   LDIPOL = .TRUE.
   METAGGA = R2SCAN
   LUSE_VDW = .TRUE.
   BPARAM = 11.95
   CPARAM = 0.0093
   LASPH = .TRUE.
   ENCUT = 600
   PREC = Accurate
   LASPH = .TRUE.
   LREAL = .FALSE.
   ISPIN = 1
   NELM = 200
   NELMIN = 8
   NCORE = 19
   KPAR = 1
   LWAVE = .FALSE.
   LCHARG = .FALSE.

 POTCAR:    PAW_PBE C 08Apr2002
 POTCAR:    PAW_PBE O 08Apr2002
 POTCAR:    PAW_PBE Mg_pv 13Apr2007
 POTCAR:    PAW_PBE O 08Apr2002
|               ----> ADVICE to this user running VASP <----                  |
|     You have switched on vdW-DFT.                                           |
|     This routine was written and supplied by Jiri Klimes. We recommend      |
|     that you carefully read and cite the following publications:            |
|       J. Klimes, D.R. Bowler, A. Michelides                                 |
|          J. Phys.: Cond Matt. 22 022201 (2010)                              |
|       J. Klimes, D.R. Bowler, A. Michelides                                 |
|          Phys. Rev. B. 83, 195131 (2011)                                    |
|     and references therein.                                                 |

   TITEL  = PAW_PBE C 08Apr2002
   POMASS =   12.011; ZVAL   =    4.000    mass and valenz
   ENMAX  =  400.000; ENMIN  =  300.000 eV

[...]

   TITEL  = PAW_PBE Mg_pv 13Apr2007
   POMASS =   24.305; ZVAL   =    8.000    mass and valenz
   ENMAX  =  403.929; ENMIN  =  302.947 eV

   TITEL  = PAW_PBE O 08Apr2002
   POMASS =   16.000; ZVAL   =    6.000    mass and valenz
   ENMAX  =  400.000; ENMIN  =  300.000 eV

  PAW_PBE C 08Apr2002                   :
  PAW_PBE O 08Apr2002                   :
  PAW_PBE Mg_pv 13Apr2007               :
  PAW_PBE O 08Apr2002                   :

 POSCAR:  C  O Mg  O
  positions in direct lattice

 METAGGA = R2SCA    LMAXTAU =  6    LMIXTAU =  F

 ion  position               nearest neighbor table
   1  0.625  0.625  0.771-   3 1.18   2 1.18
   2  0.526  0.526  0.773-   1 1.18
   3  0.724  0.724  0.773-   1 1.18
   4  0.000  0.750  0.352-  36 2.11  38 2.11  39 2.11  46 2.11  55 2.11
   5  0.250  0.000  0.352-  37 2.11  38 2.11  39 2.11  47 2.11  54 2.11
   6  0.000  0.000  0.451-  38 2.11  37 2.11  36 2.11  44 2.11  53 2.11  42 2.12
   7  0.250  0.750  0.451-  39 2.11  37 2.11  36 2.11  45 2.11  52 2.11  43 2.12
   8  0.000  0.750  0.550-  50 2.11  42 2.11  59 2.11  43 2.11  36 2.12  40 2.14
   9  0.250  1.000  0.550-  51 2.11  42 2.11  58 2.11  43 2.11  37 2.12  41 2.15
  10  0.000  0.000  0.649-  48 2.11  41 2.11  40 2.11  57 2.11  42 2.11
  11  0.250  0.750  0.649-  40 2.10  43 2.11  49 2.11  41 2.11  56 2.12
  12  0.000  0.250  0.352-  44 2.11  38 2.11  46 2.11  47 2.11  63 2.11
  13  0.250  0.500  0.352-  45 2.11  39 2.11  46 2.11  47 2.11  62 2.11
  14  0.000  0.500  0.451-  46 2.11  44 2.11  45 2.11  36 2.11  61 2.11  50 2.12
  15  0.250  0.250  0.451-  47 2.11  44 2.11  45 2.11  37 2.11  60 2.11  51 2.12
  16  1.000  0.250  0.550-  51 2.11  42 2.11  67 2.11  50 2.11  44 2.12  48 2.15
  17  0.250  0.500  0.550-  43 2.11  51 2.11  66 2.11  50 2.11  45 2.12  49 2.14
  18  0.000  0.500  0.649-  49 2.10  50 2.11  40 2.11  48 2.11  65 2.12
  19  0.250  0.250  0.649-  41 2.11  48 2.11  64 2.11  49 2.11  51 2.11
  20  0.500  0.750  0.352-  52 2.11  39 2.11  54 2.11  55 2.11  62 2.11
  21  0.750  0.000  0.352-  53 2.11  38 2.11  54 2.11  55 2.11  63 2.11
  22  0.500  0.000  0.451-  54 2.11  52 2.11  53 2.11  37 2.11  60 2.11  58 2.12
  23  0.750  0.750  0.451-  55 2.11  52 2.11  53 2.11  36 2.11  61 2.11  59 2.12
  24  0.500  0.750  0.550-  66 2.11  59 2.11  43 2.11  58 2.11  52 2.13  56 2.16
  25  0.750  0.000  0.550-  58 2.11  42 2.11  59 2.11  67 2.11  53 2.12  57 2.14
  26  0.500  0.000  0.649-  64 2.10  58 2.11  57 2.11  41 2.11  56 2.12
  27  0.752  0.752  0.649-  57 2.10  40 2.10  59 2.11  56 2.12  65 2.12
  28  0.500  0.250  0.352-  60 2.11  54 2.11  47 2.11  62 2.11  63 2.11
  29  0.750  0.500  0.352-  61 2.11  55 2.11  46 2.11  62 2.11  63 2.11
  30  0.500  0.500  0.451-  62 2.11  52 2.11  60 2.11  61 2.11  45 2.11  66 2.12
  31  0.750  0.250  0.451-  63 2.11  53 2.11  60 2.11  61 2.11  44 2.11  67 2.12
  32  0.500  0.250  0.550-  67 2.11  51 2.11  66 2.11  58 2.11  60 2.12  64 2.14
  33  0.750  0.500  0.550-  66 2.11  59 2.11  67 2.11  50 2.11  61 2.13  65 2.16
  34  0.498  0.498  0.649-  64 2.10  49 2.10  66 2.11  56 2.12  65 2.12
  35  0.750  0.250  0.649-  57 2.10  67 2.11  64 2.11  48 2.11  65 2.12
  36  0.000  0.750  0.451-   4 2.11   6 2.11   7 2.11  14 2.11  23 2.11   8 2.12
  37  0.250  0.000  0.451-   5 2.11   6 2.11   7 2.11  15 2.11  22 2.11   9 2.12
  38  0.000  0.000  0.352-   6 2.11   5 2.11   4 2.11  12 2.11  21 2.11
  39  0.250  0.750  0.352-   7 2.11   5 2.11   4 2.11  13 2.11  20 2.11
  40  0.001  0.750  0.651-  27 2.10  11 2.10  18 2.11  10 2.11   8 2.14
  41  0.250  1.000  0.651-  10 2.11  19 2.11  11 2.11  26 2.11   9 2.15
  42  0.000  0.000  0.550-  16 2.11   9 2.11   8 2.11  25 2.11  10 2.11   6 2.12
  43  0.250  0.750  0.550-  24 2.11  11 2.11   9 2.11  17 2.11   8 2.11   7 2.12
  44  0.000  0.250  0.451-  12 2.11   6 2.11  14 2.11  15 2.11  31 2.11  16 2.12
  45  0.250  0.500  0.451-  13 2.11   7 2.11  14 2.11  15 2.11  30 2.11  17 2.12
  46  0.000  0.500  0.352-  14 2.11  12 2.11  13 2.11   4 2.11  29 2.11
  47  0.250  0.250  0.352-  15 2.11  12 2.11  13 2.11   5 2.11  28 2.11
  48  1.000  0.250  0.651-  10 2.11  19 2.11  35 2.11  18 2.11  16 2.15
  49  0.249  0.500  0.651-  34 2.10  18 2.10  11 2.11  19 2.11  17 2.14
  50  1.000  0.500  0.550-  33 2.11  18 2.11  16 2.11   8 2.11  17 2.11  14 2.12
  51  0.250  0.250  0.550-   9 2.11  16 2.11  17 2.11  32 2.11  19 2.11  15 2.12
  52  0.500  0.750  0.451-  20 2.11   7 2.11  22 2.11  23 2.11  30 2.11  24 2.13
  53  0.750  0.000  0.451-  21 2.11   6 2.11  22 2.11  23 2.11  31 2.11  25 2.12
  54  0.500  0.000  0.352-  22 2.11  20 2.11  21 2.11   5 2.11  28 2.11
  55  0.750  0.750  0.352-  23 2.11  20 2.11  21 2.11   4 2.11  29 2.11
  56  0.500  0.750  0.652-  11 2.12  26 2.12  34 2.12  27 2.12  24 2.16
  57  0.750  0.001  0.651-  27 2.10  35 2.10  26 2.11  10 2.11  25 2.14
  58  0.500  1.000  0.550-  24 2.11  26 2.11   9 2.11  25 2.11  32 2.11  22 2.12
  59  0.750  0.750  0.550-  33 2.11  24 2.11   8 2.11  25 2.11  27 2.11  23 2.12
  60  0.500  0.250  0.451-  28 2.11  22 2.11  15 2.11  30 2.11  31 2.11  32 2.12
  61  0.750  0.500  0.451-  29 2.11  23 2.11  14 2.11  30 2.11  31 2.11  33 2.13
  62  0.500  0.500  0.352-  30 2.11  20 2.11  28 2.11  29 2.11  13 2.11
  63  0.750  0.250  0.352-  31 2.11  21 2.11  28 2.11  29 2.11  12 2.11
  64  0.500  0.249  0.651-  34 2.10  26 2.10  35 2.11  19 2.11  32 2.14
  65  0.750  0.500  0.652-  35 2.12  18 2.12  34 2.12  27 2.12  33 2.16
  66  0.500  0.500  0.550-  33 2.11  24 2.11  17 2.11  32 2.11  34 2.11  30 2.12
  67  0.750  0.250  0.550-  33 2.11  35 2.11  16 2.11  32 2.11  25 2.11  31 2.12

  LATTYP: Found a simple tetragonal cell.
 ALAT       =     8.4409846542
 C/A-ratio  =     2.5270438657

  Lattice vectors:

 A1 = (   8.4409846542,   0.0000000000,   0.0000000000)
 A2 = (   0.0000000000,   8.4409846542,   0.0000000000)
 A3 = (   0.0000000000,   0.0000000000,  21.3307384906)

Analysis of symmetry for initial positions (statically):
 Subroutine PRICEL returns:
 Original cell was already a primitive cell.

 Routine SETGRP: Setting up the symmetry group for a
 simple tetragonal supercell.

 Subroutine GETGRP returns: Found  4 space group operations
 (whereof  2 operations were pure point group operations)
 out of a pool of 16 trial point group operations.

The static configuration has the point symmetry C_1h.
 The point group associated with its full space group is C_2v.

Analysis of symmetry for dynamics (positions and initial velocities):
 Subroutine PRICEL returns:
 Original cell was already a primitive cell.

[...]

The dynamic configuration has the point symmetry C_1h.
 The point group associated with its full space group is C_2v.

Analysis of constrained symmetry for selective dynamics:
 Subroutine PRICEL returns:
 Original cell was already a primitive cell.

 Routine SETGRP: Setting up the symmetry group for a
 simple tetragonal supercell.

 Subroutine GETGRP returns: Found  4 space group operations
 (whereof  2 operations were pure point group operations)
 out of a pool of 16 trial point group operations.

The constrained configuration has the point symmetry C_1h.
 The point group associated with its full space group is C_2v.

 Subroutine INISYM returns: Found  4 space group operations
 (whereof  2 operations are pure point group operations),
 and found     1 'primitive' translations

                                     Primitive cell

  volume of cell :    1519.8199

  direct lattice vectors                    reciprocal lattice vectors
     8.440984654  0.000000000  0.000000000     0.118469591  0.000000000  0.000000000
     0.000000000  8.440984654  0.000000000     0.000000000  0.118469591  0.000000000
     0.000000000  0.000000000 21.330738491     0.000000000  0.000000000  0.046880702

  length of vectors
     8.440984654  8.440984654 21.330738491     0.118469591  0.118469591  0.046880702

  position of ions in fractional coordinates (direct lattice)
     0.625002899  0.625002901  0.771290819
     0.526143413  0.526143399  0.772694230
     0.723854540  0.723854548  0.772693667
     0.000000000  0.750000000  0.351605267
     0.250000000  0.000000000  0.351605267
     0.000000000  0.000000000  0.450535089
     0.250000000  0.750000000  0.450535089
     0.000170472  0.750065529  0.550134920
     0.250061573  0.999938530  0.550145492
     0.000200186  0.000200186  0.648841524
     0.249828182  0.749789003  0.648754906
     0.000000000  0.250000000  0.351605267
     0.250000000  0.500000000  0.351605267
     0.000000000  0.500000000  0.450535089
     0.250000000  0.250000000  0.450535089
     0.999938525  0.250061567  0.550145489
     0.249829706  0.499934572  0.550134937
     0.000171958  0.500211139  0.648754903
     0.249799949  0.249799949  0.648841577
     0.500000000  0.750000000  0.351605267
     0.750000000  0.000000000  0.351605267
     0.500000000  0.000000000  0.450535089
     0.750000000  0.750000000  0.450535089
     0.500270350  0.749729670  0.550330173
     0.750065521  0.000170473  0.550134923
     0.500211148  0.000171955  0.648754900
     0.751918702  0.751918715  0.649114650
     0.500000000  0.250000000  0.351605267
     0.750000000  0.500000000  0.351605267
     0.500000000  0.500000000  0.450535089
     0.750000000  0.250000000  0.450535089
     0.499934575  0.249829699  0.550134936
     0.749729660  0.500270350  0.550330171
     0.498081444  0.498081442  0.649114742
     0.749788996  0.249828183  0.648754905
     0.000000000  0.750000000  0.450535089
     0.250000000  0.000000000  0.450535089
     0.000000000  0.000000000  0.351605267
     0.250000000  0.750000000  0.351605267
[...]
   2.11076590  8.44046579 11.73500962
   0.00168977  0.00168977 13.84026887
   2.10879585  6.32895746 13.83842125
   0.00000000  2.11024616  7.50000000
   2.11024616  4.22049233  7.50000000
   0.00000000  4.22049233  9.61024616
   2.11024616  2.11024616  9.61024616
   8.44046574  2.11076585 11.73500956
   2.10880871  4.21994005 11.73478448
   0.00145150  4.22227455 13.83842119
   2.10855754  2.10855753 13.84026999
   4.22049233  6.33073849  7.50000000
   6.33073849  0.00000000  7.50000000
   4.22049233  0.00000000  9.61024616
   6.33073849  6.33073849  9.61024616
   4.22277435  6.32845664 11.73894901
   6.33129155  0.00143896 11.73478418
   4.22227462  0.00145147 13.83842113
   6.34693422  6.34693433 13.84609485
   4.22049233  2.11024616  7.50000000
   6.33073849  4.22049233  7.50000000
   4.22049233  4.22049233  9.61024616
   6.33073849  2.11024616  9.61024616
   4.21994007  2.10880865 11.73478446
   6.32845656  4.22277435 11.73894895
   4.20429783  4.20429781 13.84609682
   6.32895741  2.10879586 13.83842122
   0.00000000  6.33073849  9.61024616
   2.11024616  0.00000000  9.61024616
   0.00000000  0.00000000  7.50000000
   2.11024616  6.33073849  7.50000000
   0.00557916  6.33223117 13.87627639
   2.11166983  8.43956205 13.88755206
   0.00096978  0.00096980 11.72833803
   2.11365751  6.33058189 11.72928503
   0.00000000  2.11024616  9.61024616
   2.11024616  4.22049233  9.61024616
   0.00000000  4.22049233  7.50000000
   2.11024616  2.11024616  7.50000000
   8.43956205  2.11166981 13.88755208
   2.10466864  4.21900103 13.87627789
   8.43757402  4.22064972 11.72928508
   2.10927714  2.10927713 11.72833831
   4.22049233  6.33073849  9.61024616
   6.33073849  0.00000000  9.61024616
   4.22049233  0.00000000  7.50000000
   6.33073849  6.33073849  7.50000000
   4.22319506  6.32803605 13.90360625
   6.33223109  0.00557916 13.87627635
   4.22064970  8.43757413 11.72928507
   6.33049082  6.33049080 11.73277286
   4.22049233  2.11024616  9.61024616
   6.33073849  4.22049233  9.61024616
   4.22049233  4.22049233  7.50000000
   6.33073849  2.11024616  7.50000000
   4.21900103  2.10466863 13.87627782
   6.32803612  4.22319504 13.90360637
   4.22074086  4.22074086 11.73277345
   6.33058189  2.11365754 11.72928507

--------------------------------------- Iteration      FINAL  ---------------------------------------

--------------------OUTCAR has been truncated-------------------------

[...]

--------------------OUTCAR has been truncated-------------------------

  FORCE on cell =-STRESS in cart. coord.  units (eV):
  Direction    XX          YY          ZZ          XY          YZ          ZX
  Alpha Z   926.92928   926.92928   926.92928
  Ewald  157974.00566157974.00577************   384.42009    -0.00181    -0.00180
  Hartree168464.08342168464.08343************   172.33570    -0.00055    -0.00054
  E(xc)   -2731.64973 -2731.58879 -2729.92197     0.02744    -0.00002    -0.00002
  Local  ************************335797.47340  -520.39927     0.00200     0.00199
  n-local -2835.06051 -2835.71288 -2853.73166    -2.93962    -0.00018    -0.00024
  augment  1190.06071  1190.06070  1182.24403    -1.46647    -0.00006    -0.00006
  Kinetic  7628.16238  7630.24473  7695.62660   -32.82603    -0.00026    -0.00020
  Fock        0.00000     0.00000     0.00000     0.00000     0.00000     0.00000
  Total     -46.36780   -46.36780   -15.08561    -0.84816     0.00000     0.00000
  in kB     -48.88043   -48.88043   -15.90308    -0.89412     0.00000     0.00000

 VOLUME and BASIS-vectors are now :
  energy-cutoff  :      600.00
  volume of cell :     1519.82
      direct lattice vectors                 reciprocal lattice vectors
     8.440984654  0.000000000  0.000000000     0.118469591  0.000000000  0.000000000
     0.000000000  8.440984654  0.000000000     0.000000000  0.118469591  0.000000000
     0.000000000  0.000000000 21.330738491     0.000000000  0.000000000  0.046880702

  length of vectors
     8.440984654  8.440984654 21.330738491     0.118469591  0.118469591  0.046880702

 FORCES acting on ions:
    Electron-Ion                     Ewald-Force                    Non-Local-Force
   0.289E-02 0.288E-02 -.103E+04   -.281E-01 -.281E-01 0.103E+04   0.532E-20 -.107E-19 0.350E+00
   0.187E+03 0.187E+03 -.156E+04   -.232E+03 -.232E+03 0.156E+04   0.457E+02 0.457E+02 -.298E+01
   -.187E+03 -.187E+03 -.156E+04   0.232E+03 0.232E+03 0.156E+04   -.457E+02 -.457E+02 -.298E+01
   -.212E+00 -.188E+00 0.209E+04   0.218E+00 0.194E+00 -.209E+04   0.152E-03 0.154E-03 -.715E+01
   0.199E+00 -.187E+00 0.209E+04   -.193E+00 0.193E+00 -.209E+04   -.375E-03 0.375E-03 -.716E+01
   -.918E+00 -.918E+00 0.739E+03   0.945E+00 0.945E+00 -.740E+03   -.152E-01 -.152E-01 0.371E+00
   0.940E+00 -.945E+00 0.741E+03   -.884E+00 0.967E+00 -.741E+03   -.340E-01 -.116E-01 0.391E+00
   -.652E+01 -.387E+01 -.598E+03   0.653E+01 0.388E+01 0.599E+03   -.169E-01 -.101E-01 -.341E+00
   0.376E+01 -.375E+01 -.610E+03   -.376E+01 0.376E+01 0.611E+03   -.447E-02 0.447E-02 -.918E-01
   -.194E+02 -.194E+02 -.197E+04   0.194E+02 0.194E+02 0.196E+04   -.424E-02 -.424E-02 0.615E+01
   0.253E+02 -.210E+02 -.195E+04   -.256E+02 0.210E+02 0.194E+04   0.264E+00 0.833E-02 0.612E+01
   -.187E+00 0.199E+00 0.209E+04   0.193E+00 -.193E+00 -.209E+04   0.375E-03 -.375E-03 -.716E+01
   0.224E+00 0.200E+00 0.209E+04   -.218E+00 -.194E+00 -.209E+04   -.152E-03 -.154E-03 -.715E+01
   -.926E+00 0.958E+00 0.741E+03   0.884E+00 -.967E+00 -.741E+03   0.340E-01 0.116E-01 0.391E+00
   0.931E+00 0.931E+00 0.739E+03   -.945E+00 -.945E+00 -.740E+03   0.152E-01 0.152E-01 0.371E+00
   -.375E+01 0.376E+01 -.610E+03   0.376E+01 -.376E+01 0.611E+03   0.447E-02 -.447E-02 -.918E-01
   0.653E+01 0.388E+01 -.598E+03   -.653E+01 -.388E+01 0.599E+03   0.169E-01 0.101E-01 -.341E+00
   -.253E+02 0.210E+02 -.195E+04   0.256E+02 -.210E+02 0.194E+04   -.264E+00 -.833E-02 0.612E+01
   0.194E+02 0.194E+02 -.197E+04   -.194E+02 -.194E+02 0.196E+04   0.424E-02 0.424E-02 0.615E+01
   0.228E+00 -.216E+00 0.209E+04   -.221E+00 0.221E+00 -.209E+04   -.107E-02 0.107E-02 -.717E+01
   -.188E+00 -.212E+00 0.209E+04   0.194E+00 0.218E+00 -.209E+04   0.154E-03 0.152E-03 -.715E+01
   0.958E+00 -.926E+00 0.741E+03   -.967E+00 0.884E+00 -.741E+03   0.116E-01 0.340E-01 0.391E+00
   -.945E+00 -.945E+00 0.743E+03   0.927E+00 0.927E+00 -.743E+03   0.190E-01 0.190E-01 0.453E+00
   0.671E+01 -.669E+01 -.593E+03   -.669E+01 0.669E+01 0.593E+03   -.514E-01 0.514E-01 0.116E+00
   -.387E+01 -.652E+01 -.598E+03   0.388E+01 0.653E+01 0.599E+03   -.101E-01 -.169E-01 -.341E+00
   0.210E+02 -.253E+02 -.195E+04   -.210E+02 0.256E+02 0.194E+04   -.833E-02 -.264E+00 0.612E+01
   -.348E+02 -.348E+02 -.185E+04   0.353E+02 0.353E+02 0.184E+04   -.555E+00 -.555E+00 0.569E+01
   0.200E+00 0.224E+00 0.209E+04   -.194E+00 -.218E+00 -.209E+04   -.154E-03 -.152E-03 -.715E+01
   -.216E+00 0.228E+00 0.209E+04   0.221E+00 -.221E+00 -.209E+04   0.107E-02 -.107E-02 -.717E+01
   0.958E+00 0.958E+00 0.743E+03   -.927E+00 -.927E+00 -.743E+03   -.190E-01 -.190E-01 0.453E+00
   -.945E+00 0.940E+00 0.741E+03   0.967E+00 -.884E+00 -.741E+03   -.116E-01 -.340E-01 0.391E+00
   0.388E+01 0.653E+01 -.598E+03   -.388E+01 -.653E+01 0.599E+03   0.101E-01 0.169E-01 -.341E+00
   -.669E+01 0.671E+01 -.593E+03   0.669E+01 -.669E+01 0.593E+03   0.514E-01 -.514E-01 0.116E+00
   0.348E+02 0.348E+02 -.185E+04   -.353E+02 -.353E+02 0.184E+04   0.555E+00 0.555E+00 0.569E+01
   -.210E+02 0.253E+02 -.195E+04   0.210E+02 -.256E+02 0.194E+04   0.833E-02 0.264E+00 0.612E+01
   -.722E+00 -.573E+00 0.555E+03   0.744E+00 0.599E+00 -.555E+03   0.854E-02 0.343E-02 -.704E-01
   0.631E+00 -.572E+00 0.554E+03   -.606E+00 0.606E+00 -.554E+03   0.593E-02 -.593E-02 -.109E+00
   -.127E+00 -.127E+00 0.157E+04   0.158E+00 0.158E+00 -.158E+04   -.272E-02 -.272E-02 0.342E+01
   0.182E+00 -.128E+00 0.157E+04   -.149E+00 0.159E+00 -.158E+04   -.434E-02 -.296E-02 0.341E+01
   -.290E+02 -.111E+02 -.147E+04   0.291E+02 0.111E+02 0.148E+04   -.554E-01 0.173E-01 -.517E+01
   0.991E+01 -.985E+01 -.150E+04   -.985E+01 0.985E+01 0.150E+04   -.405E-01 0.405E-01 -.507E+01
   -.369E+01 -.369E+01 -.451E+03   0.371E+01 0.371E+01 0.451E+03   0.134E-01 0.134E-01 0.235E+00
   0.367E+01 -.382E+01 -.446E+03   -.366E+01 0.383E+01 0.445E+03   0.109E-01 0.102E-01 0.299E+00
   -.572E+00 0.631E+00 0.554E+03   0.606E+00 -.606E+00 -.554E+03   -.593E-02 0.593E-02 -.109E+00
   0.780E+00 0.631E+00 0.555E+03   -.744E+00 -.599E+00 -.555E+03   -.854E-02 -.343E-02 -.704E-01
   -.123E+00 0.186E+00 0.157E+04   0.149E+00 -.159E+00 -.158E+04   0.434E-02 0.296E-02 0.341E+01
   0.186E+00 0.186E+00 0.157E+04   -.158E+00 -.158E+00 -.158E+04   0.272E-02 0.272E-02 0.342E+01
   -.985E+01 0.991E+01 -.150E+04   0.985E+01 -.985E+01 0.150E+04   0.405E-01 -.405E-01 -.507E+01
   0.290E+02 0.112E+02 -.147E+04   -.291E+02 -.111E+02 0.148E+04   0.554E-01 -.173E-01 -.517E+01
   -.362E+01 0.387E+01 -.446E+03   0.366E+01 -.383E+01 0.445E+03   -.109E-01 -.102E-01 0.299E+00
   0.375E+01 0.375E+01 -.451E+03   -.371E+01 -.371E+01 0.451E+03   -.134E-01 -.134E-01 0.235E+00
   0.843E+00 -.785E+00 0.556E+03   -.836E+00 0.836E+00 -.556E+03   0.306E-01 -.306E-01 -.143E+00
   -.573E+00 -.722E+00 0.555E+03   0.599E+00 0.744E+00 -.555E+03   0.343E-02 0.854E-02 -.704E-01
   0.186E+00 -.123E+00 0.157E+04   -.159E+00 0.149E+00 -.158E+04   0.296E-02 0.434E-02 0.341E+01
   -.127E+00 -.127E+00 0.157E+04   0.152E+00 0.152E+00 -.158E+04   0.592E-02 0.592E-02 0.341E+01
   0.361E+02 -.361E+02 -.143E+04   -.360E+02 0.360E+02 0.143E+04   -.109E+00 0.109E+00 -.470E+01
   -.111E+02 -.290E+02 -.147E+04   0.111E+02 0.291E+02 0.148E+04   0.173E-01 -.554E-01 -.517E+01
   0.387E+01 -.362E+01 -.446E+03   -.384E+01 0.366E+01 0.445E+03   -.102E-01 -.109E-01 0.299E+00
   -.383E+01 -.383E+01 -.436E+03   0.389E+01 0.389E+01 0.436E+03   -.405E-01 -.405E-01 0.263E+00
   0.631E+00 0.780E+00 0.555E+03   -.599E+00 -.744E+00 -.555E+03   -.343E-02 -.854E-02 -.704E-01
   -.785E+00 0.843E+00 0.556E+03   0.836E+00 -.836E+00 -.556E+03   -.306E-01 0.306E-01 -.143E+00
   0.185E+00 0.185E+00 0.157E+04   -.152E+00 -.152E+00 -.158E+04   -.592E-02 -.592E-02 0.341E+01
   -.128E+00 0.182E+00 0.157E+04   0.159E+00 -.149E+00 -.158E+04   -.296E-02 -.434E-02 0.341E+01
   0.112E+02 0.290E+02 -.147E+04   -.111E+02 -.291E+02 0.148E+04   -.173E-01 0.554E-01 -.517E+01
   -.361E+02 0.361E+02 -.143E+04   0.360E+02 -.360E+02 0.143E+04   0.109E+00 -.109E+00 -.470E+01
   0.389E+01 0.389E+01 -.436E+03   -.389E+01 -.389E+01 0.436E+03   0.405E-01 0.405E-01 0.263E+00
   -.382E+01 0.367E+01 -.446E+03   0.383E+01 -.366E+01 0.445E+03   0.102E-01 0.109E-01 0.299E+00
   0.120E+01 0.120E+01 0.244E+02   0.156E-12 0.117E-12 0.796E-12   -.114E-15 0.281E-15 -.243E+02

 POSITION                                       TOTAL-FORCE (eV/Angst)
      5.27564      5.27564     16.45220        -0.000000     -0.000000      0.043253
      4.44117      4.44117     16.48214         0.752501      0.752501     -0.118912
      6.11005      6.11005     16.48213        -0.752501     -0.752501     -0.118912
      0.00000      6.33074      7.50000         0.000028     -0.000009      0.535758
      2.11025      0.00000      7.50000         0.000088     -0.000088      0.538653
      0.00000      0.00000      9.61025         0.005753      0.005753     -0.037769
      2.11025      6.33074      9.61025         0.014373      0.003757     -0.035228
      0.00144      6.33129     11.73478        -0.019057     -0.005919      0.045454
      2.11077      8.44047     11.73501        -0.006917      0.006917      0.053014
      0.00169      0.00169     13.84027        -0.001130     -0.001130     -0.066073
      2.10880      6.32896     13.83842        -0.016006      0.007376     -0.082264
      0.00000      2.11025      7.50000        -0.000088      0.000088      0.538653
      2.11025      4.22049      7.50000        -0.000028      0.000009      0.535758
      0.00000      4.22049      9.61025        -0.014373     -0.003757     -0.035228
      2.11025      2.11025      9.61025        -0.005753     -0.005753     -0.037769
      8.44047      2.11077     11.73501         0.006917     -0.006917      0.053014
      2.10881      4.21994     11.73478         0.019057      0.005919      0.045454
      0.00145      4.22227     13.83842         0.016006     -0.007376     -0.082264
      2.10856      2.10856     13.84027         0.001130      0.001130     -0.066073
      4.22049      6.33074      7.50000         0.000369     -0.000369      0.541321
      6.33074      0.00000      7.50000        -0.000009      0.000028      0.535758
      4.22049      0.00000      9.61025        -0.003757     -0.014373     -0.035228
      6.33074      6.33074      9.61025        -0.005052     -0.005052     -0.032955
      4.22277      6.32846     11.73895        -0.038901      0.038901      0.037403
      6.33129      0.00144     11.73478        -0.005919     -0.019057      0.045454
      4.22227      0.00145     13.83842        -0.007376      0.016006     -0.082264
      6.34693      6.34693     13.84609        -0.066992     -0.066992     -0.092259
      4.22049      2.11025      7.50000         0.000009     -0.000028      0.535758
      6.33074      4.22049      7.50000        -0.000369      0.000369      0.541321
      4.22049      4.22049      9.61025         0.005052      0.005052     -0.032955
      6.33074      2.11025      9.61025         0.003757      0.014373     -0.035228
      4.21994      2.10881     11.73478         0.005919      0.019057      0.045454
      6.32846      4.22277     11.73895         0.038901     -0.038901      0.037403
      4.20430      4.20430     13.84610         0.066992      0.066992     -0.092259
      6.32896      2.10880     13.83842         0.007376     -0.016006     -0.082264
      0.00000      6.33074      9.61025         0.001745      0.000675      0.079434
      2.11025      0.00000      9.61025         0.001678     -0.001678      0.068015
      0.00000      0.00000      7.50000        -0.000728     -0.000728     -0.352990
      2.11025      6.33074      7.50000        -0.001284     -0.000910     -0.353129
      0.00558      6.33223     13.87628        -0.004922     -0.000337     -0.184117
      2.11167      8.43956     13.88755        -0.005565      0.005565     -0.191311
      0.00097      0.00097     11.72834        -0.000099     -0.000099      0.010730
      2.11366      6.33058     11.72929        -0.004457      0.001174      0.011993
      0.00000      2.11025      9.61025        -0.001678      0.001678      0.068015
      2.11025      4.22049      9.61025        -0.001745     -0.000675      0.079434
      0.00000      4.22049      7.50000         0.001284      0.000910     -0.353129
      2.11025      2.11025      7.50000         0.000728      0.000728     -0.352990
      8.43956      2.11167     13.88755         0.005565     -0.005565     -0.191311
      2.10467      4.21900     13.87628         0.004922      0.000337     -0.184117
      8.43757      4.22065     11.72929         0.004457     -0.001174      0.011993
      2.10928      2.10928     11.72834         0.000099      0.000099      0.010730
      4.22049      6.33074      9.61025         0.008188     -0.008188      0.074875
      6.33074      0.00000      9.61025         0.000675      0.001745      0.079434
      4.22049      0.00000      7.50000         0.000910      0.001284     -0.353129
      6.33074      6.33074      7.50000         0.001735      0.001735     -0.353648
      4.22320      6.32804     13.90361        -0.004529      0.004529     -0.148610
      6.33223      0.00558     13.87628        -0.000337     -0.004922     -0.184117
      4.22065      8.43757     11.72929        -0.001174      0.004457      0.011993
      6.33049      6.33049     11.73277        -0.002747     -0.002747      0.013085
      4.22049      2.11025      9.61025        -0.000675     -0.001745      0.079434
      6.33074      4.22049      9.61025        -0.008188      0.008188      0.074875
      4.22049      4.22049      7.50000        -0.001735     -0.001735     -0.353648
      6.33074      2.11025      7.50000        -0.000910     -0.001284     -0.353129
      4.21900      2.10467     13.87628         0.000337      0.004922     -0.184117
      6.32804      4.22320     13.90361         0.004529     -0.004529     -0.148610
      4.22074      4.22074     11.73277         0.002747      0.002747      0.013085
      6.33058      2.11366     11.72929         0.001174     -0.004457      0.011993
    total drift:                                1.204433      1.204918      0.158835

  FREE ENERGIE OF THE ION-ELECTRON SYSTEM (eV)
  free  energy   TOTEN  =      -516.51357806 eV

  energy  without entropy=     -516.51357806  energy(sigma->0) =     -516.51357806