 vasp.6.3.0 20Jan22 (build Mar 11 2022 13:48:16) complex

 executed on             LinuxIFC date 2024.02.25  05:42:53

 INCAR:
   SYSTEM = Oxide-Surface
   ISMEAR = 0
   SIGMA = 0.05
   EDIFF = 1E-5
   ALGO = ALL
   ISTART = 0
   IBRION = -1
   NSW = 0
   ISYM = 0
   DIPOL = 0.5 0.5 0.5
   IDIPOL = 3
   LDIPOL = .TRUE.
   METAGGA = R2SCAN
   LUSE_VDW = .TRUE.
   BPARAM = 11.95
   CPARAM = 0.0093
   LASPH = .TRUE.
   ENCUT = 600
   PREC = Accurate
   LASPH = .TRUE.
   LREAL = .FALSE.
   ISPIN = 1
   NELM = 200
   NELMIN = 8
   NCORE = 19
   KPAR = 1
   LWAVE = .FALSE.
   LCHARG = .FALSE.

 POTCAR:    PAW_PBE Ti_pv 07Sep2000
 POTCAR:    PAW_PBE O 08Apr2002
|               ----> ADVICE to this user running VASP <----                  |
|     You have switched on vdW-DFT.                                           |
|     This routine was written and supplied by Jiri Klimes. We recommend      |
|     that you carefully read and cite the following publications:            |
|       J. Klimes, D.R. Bowler, A. Michelides                                 |
|          J. Phys.: Cond Matt. 22 022201 (2010)                              |
|       J. Klimes, D.R. Bowler, A. Michelides                                 |
|          Phys. Rev. B. 83, 195131 (2011)                                    |
|     and references therein.                                                 |

   TITEL  = PAW_PBE Ti_pv 07Sep2000
   POMASS =   47.880; ZVAL   =   10.000    mass and valenz
   ENMAX  =  222.335; ENMIN  =  166.751 eV

   TITEL  = PAW_PBE O 08Apr2002
   POMASS =   16.000; ZVAL   =    6.000    mass and valenz
   ENMAX  =  400.000; ENMIN  =  300.000 eV

  PAW_PBE Ti_pv 07Sep2000               :
  PAW_PBE O 08Apr2002                   :

 POSCAR: Ti  O
  positions in direct lattice

 METAGGA = R2SCA    LMAXTAU =  6    LMIXTAU =  F

 ion  position               nearest neighbor table
   1  0.808  0.833  0.295-  85 1.94  51 1.94  53 1.94  50 1.99  52 1.99  18 3.05   4 3.05   2 3.05

   2  0.592  0.667  0.327-  49 1.94 116 1.94  52 1.94  54 1.94  53 1.99  55 1.99  33 3.05   3 3.05
                             1 3.05   7 3.08
   3  0.308  0.667  0.295- 121 1.94  55 1.94  57 1.94  49 1.99  56 1.99  36 3.05   2 3.05   4 3.05

   4  0.092  0.833  0.327-  50 1.94  88 1.94  56 1.94  58 1.94  57 1.99  51 1.99  19 3.05   1 3.05
                             3 3.05   5 3.08
   5  0.944  0.833  0.423-  59 1.92  93 1.93  61 1.93  51 1.98  60 1.98  58 2.00   8 3.00   6 3.05
                            22 3.05   4 3.08
   6  0.726  0.666  0.451-  54 1.89 124 1.93  60 1.94  62 1.96  63 1.99  61 2.00   7 3.01   5 3.05
                            37 3.05  11 3.11
   7  0.444  0.666  0.423-  63 1.93 129 1.93  65 1.94  55 1.97  64 1.98  54 2.01   6 3.01   8 3.05
                            40 3.05   2 3.08
   8  0.225  0.833  0.452-  58 1.89  96 1.94  64 1.94  66 1.97  59 1.98  65 2.01   5 3.00  23 3.05
                             7 3.05   9 3.11
   9  0.085  0.833  0.550-  67 1.92 101 1.93  69 1.93  68 1.97  59 2.00  66 2.01  12 2.95  10 3.04
                            26 3.05   8 3.11
  10  0.865  0.666  0.576-  62 1.86 132 1.93  68 1.95  71 1.95  69 2.01  70 2.01  11 2.97   9 3.04
                            41 3.06  15 3.17
  11  0.584  0.666  0.550- 137 1.93  73 1.93  71 1.93  72 1.98  63 1.98  62 2.01  10 2.97  12 3.05
                            44 3.06   6 3.11
  12  0.363  0.833  0.576-  66 1.86 104 1.94  72 1.94  67 1.95  74 2.00  73 2.02   9 2.95  11 3.05
                            27 3.05
  13  0.231  0.833  0.680-  75 1.86  77 1.93 109 1.94  76 2.00  67 2.09  74 2.10  16 2.85  30 3.07
                            14 3.08
  14  0.001  0.666  0.700-  70 1.78  78 1.84 140 1.97  76 1.99  77 2.07  15 2.86  13 3.08  45 3.10

[...]

  17  0.808  0.167  0.295-  85 1.94  83 1.94 117 1.94  82 1.99  84 1.99  18 3.05  20 3.05  34 3.05

[...]

  36  0.092  0.500  0.327- 114 1.94  56 1.94 120 1.94 122 1.94 121 1.99 115 1.99  35 3.05   3 3.05
                            33 3.05  37 3.07
  37  0.946  0.500  0.422- 123 1.92  61 1.94 125 1.94 115 1.97 122 1.99 124 2.00  40 2.99   6 3.05
                            38 3.05  36 3.07
  38  0.726  0.334  0.451- 118 1.89 124 1.93  92 1.94 126 1.96 127 1.99 125 2.00  39 3.01  21 3.05
                            37 3.05  43 3.11
  39  0.444  0.334  0.423- 127 1.93 129 1.93  97 1.94 119 1.97 128 1.98 118 2.01  38 3.01  24 3.05
                            40 3.05  34 3.08
  40  0.226  0.500  0.453- 122 1.92  64 1.94 128 1.94 123 1.96 130 1.97 129 2.01  37 2.99   7 3.05
                            39 3.05  41 3.08
  41  0.088  0.500  0.550- 131 1.91 133 1.93  69 1.93 130 1.98 132 2.00 123 2.01  44 2.96  10 3.06
                            42 3.06  40 3.08
  42  0.865  0.334  0.576- 126 1.86 132 1.93 100 1.95 135 1.95 133 2.01 134 2.01  43 2.97  25 3.04
                            41 3.06  47 3.17
  43  0.584  0.334  0.550- 137 1.93 105 1.93 135 1.93 136 1.98 127 1.98 126 2.01  42 2.97  28 3.05
                            44 3.06  38 3.11
  44  0.365  0.500  0.580- 130 1.92  72 1.94 136 1.94 131 1.94 138 1.98 137 2.03  41 2.96  11 3.06
                            43 3.06  45 3.13
  45  0.235  0.500  0.681- 139 1.86 141 1.93  77 1.93 138 2.03 140 2.03 131 2.10  48 2.87  14 3.10
                            46 3.10  44 3.13
  46  0.001  0.334  0.700- 134 1.78 142 1.84 140 1.97 108 1.99 141 2.07  47 2.86  29 3.08  45 3.10

  47  0.729  0.333  0.678- 142 1.89 144 1.93 112 1.94 143 1.99 135 2.04 134 2.10  46 2.86  32 3.08
                            48 3.08  42 3.17
  48  0.506  0.500  0.706- 139 1.84 138 1.88  79 1.98 143 1.98 144 2.07  45 2.87  15 3.08  47 3.08

  49  0.488  0.667  0.269-   2 1.94   3 1.99
  50  0.988  0.833  0.269-   4 1.94   1 1.99
  51  0.911  0.833  0.353-   1 1.94   5 1.98   4 1.99
  52  0.627  0.833  0.321-  18 1.94   2 1.94   1 1.99
  53  0.772  0.667  0.300-  33 1.94   1 1.94   2 1.99
  54  0.624  0.667  0.395-   6 1.89   2 1.94   7 2.01
  55  0.411  0.667  0.353-   3 1.94   7 1.97   2 1.99
  56  0.127  0.667  0.321-  36 1.94   4 1.94   3 1.99
  57  0.272  0.833  0.300-  19 1.94   3 1.94   4 1.99
  58  0.124  0.833  0.395-   8 1.89   4 1.94   5 2.00
  59  0.049  0.833  0.480-   5 1.92   8 1.98   9 2.00
  60  0.764  0.833  0.448-  22 1.94   6 1.94   5 1.98
  61  0.909  0.667  0.427-   5 1.93  37 1.94   6 2.00
  62  0.763  0.666  0.520-  10 1.86   6 1.96  11 2.01
  63  0.549  0.666  0.480-   7 1.93  11 1.98   6 1.99
  64  0.264  0.667  0.448-  40 1.94   8 1.94   7 1.98
  65  0.408  0.833  0.427-  23 1.93   7 1.94   8 2.01
  66  0.263  0.833  0.521-  12 1.86   8 1.97   9 2.01
  67  0.192  0.833  0.607-   9 1.92  12 1.95  13 2.09
  68  0.903  0.833  0.573-  26 1.94  10 1.95   9 1.97
  69  0.050  0.667  0.553-   9 1.93  41 1.93  10 2.01
  70  0.913  0.667  0.645-  14 1.78  10 2.01  15 2.10
  71  0.693  0.668  0.606-  11 1.93  10 1.95  15 2.04
  72  0.404  0.667  0.575-  44 1.94  12 1.94  11 1.98
  73  0.549  0.833  0.553-  11 1.93  27 1.93  12 2.02
  74  0.412  0.836  0.646-  16 1.78  12 2.00  13 2.10
  75  0.347  0.833  0.732-  16 1.84  13 1.86
  76  0.052  0.833  0.709-  30 1.98  14 1.99  13 2.00
  77  0.195  0.666  0.681-  13 1.93  45 1.93  14 2.07
  78  0.843  0.664  0.731-  14 1.84  15 1.89
  79  0.553  0.669  0.707-  16 1.96  48 1.98  15 1.99
  80  0.696  0.834  0.679-  31 1.93  15 1.94  16 2.06
  81  0.488  0.000  0.269-  18 1.94  19 1.99
  82  0.988  0.167  0.269-  20 1.94  17 1.99
  83  0.911  0.167  0.353-  17 1.94  21 1.98  20 1.99
  84  0.627  0.167  0.321-  18 1.94  34 1.94  17 1.99
  85  0.772  0.000  0.300-   1 1.94  17 1.94  18 1.99
  86  0.624  0.000  0.395-  22 1.89  18 1.94  23 2.01
  87  0.411  0.000  0.353-  19 1.94  23 1.98  18 1.99
  88  0.127  0.000  0.321-   4 1.94  20 1.94  19 1.99
  89  0.272  0.167  0.300-  19 1.94  35 1.94  20 1.99
  90  0.124  0.167  0.395-  24 1.89  20 1.94  21 2.00
  91  0.049  0.167  0.480-  21 1.92  24 1.98  25 2.00
  92  0.764  0.167  0.448-  22 1.94  38 1.94  21 1.98
  93  0.909  0.000  0.427-  21 1.93   5 1.93  22 2.00
  94  0.763  0.000  0.520-  26 1.86  22 1.97  27 2.01
  95  0.549  1.000  0.480-  23 1.92  22 1.98  27 2.00
  96  0.264  0.000  0.448-   8 1.94  24 1.94  23 1.99
  97  0.408  0.167  0.427-  23 1.93  39 1.94  24 2.01
  98  0.263  0.167  0.521-  28 1.86  24 1.97  25 2.01
  99  0.192  0.167  0.607-  25 1.92  28 1.95  29 2.09
 100  0.903  0.167  0.573-  26 1.94  42 1.95  25 1.97
 101  0.051  0.000  0.553-   9 1.93  25 1.93  26 2.03
 102  0.913  0.000  0.646-  30 1.78  26 2.01  31 2.08
 103  0.693  1.000  0.606-  27 1.92  26 1.94  31 2.10
 104  0.403  0.000  0.573-  28 1.94  12 1.94  27 1.98
 105  0.549  0.167  0.553-  43 1.93  27 1.93  28 2.02
 106  0.412  0.164  0.646-  32 1.78  28 2.00  29 2.10
 107  0.347  0.167  0.732-  32 1.84  29 1.86
 108  0.052  0.167  0.709-  30 1.98  46 1.99  29 2.00
[...]
 130  0.265  0.500  0.522-  44 1.92  40 1.97  41 1.98
 131  0.192  0.500  0.607-  41 1.91  44 1.94  45 2.10
 132  0.903  0.500  0.573-  42 1.93  10 1.93  41 2.00
 133  0.050  0.333  0.553-  25 1.93  41 1.93  42 2.01
 134  0.913  0.333  0.645-  46 1.78  42 2.01  47 2.10
 135  0.693  0.332  0.606-  43 1.93  42 1.95  47 2.04
 136  0.404  0.333  0.575-  44 1.94  28 1.94  43 1.98
 137  0.550  0.500  0.554-  43 1.93  11 1.93  44 2.03
 138  0.412  0.500  0.648-  48 1.88  44 1.98  45 2.03
 139  0.345  0.500  0.734-  48 1.84  45 1.86
 140  0.052  0.500  0.709-  14 1.97  46 1.97  45 2.03
 141  0.195  0.334  0.681-  29 1.93  45 1.93  46 2.07
 142  0.843  0.336  0.731-  46 1.84  47 1.89
 143  0.553  0.331  0.707-  32 1.96  48 1.98  47 1.99
 144  0.693  0.500  0.678-  15 1.93  47 1.93  48 2.07

IMPORTANT INFORMATION: All symmetrisations will be switched off!
NOSYMM: (Re-)initialisation of all symmetry stuff for point group C_1.

                                     Primitive cell

  volume of cell :    3260.9117

  direct lattice vectors                    reciprocal lattice vectors
    10.273755933  0.000000000  0.000000000     0.097335386 -0.000000000  0.000000000
     0.000000000 11.368810418  0.000000000     0.000000000  0.087959950  0.000000000
     0.000000000  0.000000000 27.918672987     0.000000000  0.000000000  0.035818321

  length of vectors
    10.273755933 11.368810418 27.918672987     0.097335386  0.087959950  0.035818321

  position of ions in fractional coordinates (direct lattice)
     0.807806441  0.833333333  0.294980927
     0.591821331  0.666666667  0.326522323
     0.307806441  0.666666667  0.294980927
     0.091821331  0.833333333  0.326522323
     0.944470222  0.833365553  0.422621320
     0.726188711  0.666242110  0.451236925
     0.444020646  0.666435021  0.422505552
     0.225345679  0.833291647  0.451558282
     0.085207893  0.833458157  0.550245170
     0.864537392  0.666049808  0.575513820
     0.584131337  0.666489594  0.549510775
     0.363379700  0.833396839  0.576398729
     0.231027096  0.832650555  0.680365362
     0.000839242  0.665563877  0.700225126
     0.729499001  0.666506279  0.677803001
     0.502980314  0.834688342  0.700005936
     0.807806441  0.166666667  0.294980927
     0.591821331  0.000000000  0.326522323
     0.307806441  0.000000000  0.294980927
[...]
   7.93352867  7.57920695  8.38059392
   6.41347169  7.57920695 11.02237567
   4.22692715  7.57920695  9.85154599
   1.30902750  7.57920695  8.97095207
   2.79665070  9.47400868  8.38059392
   1.27659372  9.47400868 11.02237567
   0.50283095  9.47575236 13.39262942
   7.84616264  9.47341526 12.49394790
[...]
   2.71792269  5.68440516 14.56626219
   1.97059349  5.68440527 16.95775644
   9.28176223  5.68440522 16.00703138
   0.51819028  3.79141861 15.43874365
   9.38324977  3.78625901 18.01613214
   7.12329316  3.77877098 16.91525472
   4.15002775  3.79018648 16.04302840
   5.64888932  5.68440516 15.46029830
   4.23094854  5.68440532 18.10182796
   3.53954459  5.68440518 20.49290616
   0.53179320  5.68440525 19.78818984
   2.00219822  3.79373587 19.00564382
   8.65666597  3.82129212 20.40772150
   5.68077008  3.76119158 19.74360085
   7.11905774  5.68440515 18.92853474

--------------------------------------- Iteration      FINAL  ---------------------------------------

--------------------OUTCAR has been truncated-------------------------

[...]

--------------------OUTCAR has been truncated-------------------------

  FORCE on cell =-STRESS in cart. coord.  units (eV):
  Direction    XX          YY          ZZ          XY          YZ          ZX
  Alpha Z  2415.09386  2415.09386  2415.09386
  Ewald  488765.71305482299.47875************     0.00020    -0.00012 -1893.53506
  Hartree509652.57910505756.98932************     0.00009    -0.00007 -1267.41087
  E(xc)   -5474.58139 -5473.87408 -5472.50431    -0.00000    -0.00000    -1.09228
  Local  ************************************    -0.00028     0.00016  3168.92625
  n-local -3117.61715 -3086.92806 -3134.15889     0.00001     0.00000     2.81884
  augment  3304.74648  3302.68930  3296.94844    -0.00000     0.00003    -1.88400
  Kinetic 17032.17775 17107.11818 17153.42722     0.00001     0.00002   -12.39187
  Fock        0.00000     0.00000     0.00000     0.00000     0.00000     0.00000
  Total     -69.07770   -31.58083   -31.41275     0.00003     0.00001    -4.56899
  in kB     -33.93981   -15.51655   -15.43396     0.00002     0.00001    -2.24487

 VOLUME and BASIS-vectors are now :
  energy-cutoff  :      600.00
  volume of cell :     3260.91
      direct lattice vectors                 reciprocal lattice vectors
    10.273755933  0.000000000  0.000000000     0.097335386 -0.000000000  0.000000000
     0.000000000 11.368810418  0.000000000     0.000000000  0.087959950  0.000000000
     0.000000000  0.000000000 27.918672987     0.000000000  0.000000000  0.035818321

  length of vectors
    10.273755933 11.368810418 27.918672987     0.097335386  0.087959950  0.035818321

 FORCES acting on ions:
    Electron-Ion                     Ewald-Force                    Non-Local-Force
   0.688E+01 0.573E-01 0.337E+04   -.165E+01 -.559E-01 -.337E+04   -.116E+01 -.325E-03 -.349E+01
   0.469E+01 0.103E-01 0.277E+04   -.639E+01 -.738E-02 -.277E+04   -.653E-01 -.112E-02 -.803E-01
   0.673E+01 0.235E+00 0.337E+04   -.154E+01 -.239E+00 -.336E+04   -.116E+01 0.112E-02 -.349E+01
   0.343E+01 0.167E+00 0.277E+04   -.517E+01 -.172E+00 -.277E+04   -.575E-01 0.108E-02 -.852E-01
   -.507E+00 0.457E+00 0.125E+04   0.320E+00 -.449E+00 -.125E+04   0.174E+00 -.267E-02 -.134E-01
   0.647E+00 -.686E+00 0.778E+03   -.579E+00 0.674E+00 -.778E+03   -.210E-01 0.201E-01 -.116E+00
   0.604E+00 0.872E-01 0.125E+04   -.775E+00 -.866E-01 -.125E+04   0.167E+00 0.976E-02 -.282E-01
   -.548E+01 0.765E+00 0.773E+03   0.553E+01 -.758E+00 -.773E+03   0.655E-02 0.105E-02 -.123E+00
   -.470E+01 -.804E-01 -.809E+03   0.438E+01 0.912E-01 0.809E+03   0.298E+00 0.394E-02 0.797E-01
   -.697E+01 -.434E+00 -.121E+04   0.715E+01 0.463E+00 0.121E+04   -.514E-01 0.431E-02 -.195E+00
   0.560E+00 0.205E+01 -.793E+03   -.761E+00 -.200E+01 0.793E+03   0.251E+00 -.720E-02 0.698E-01
   -.500E+01 0.334E+01 -.123E+04   0.514E+01 -.326E+01 0.123E+04   -.512E-01 -.301E-01 -.238E+00
   0.211E+02 0.218E+00 -.281E+04   -.221E+02 -.144E+00 0.281E+04   0.949E+00 -.178E-02 -.233E+00
   -.682E+02 -.530E+01 -.321E+04   0.680E+02 0.517E+01 0.321E+04   0.191E+00 0.138E+00 0.817E+00
   0.120E+02 -.162E+01 -.278E+04   -.124E+02 0.182E+01 0.278E+04   0.820E+00 -.445E-01 -.825E-01
   -.722E+02 -.302E+01 -.321E+04   0.721E+02 0.328E+01 0.321E+04   0.195E+00 -.262E-01 0.800E+00
   0.688E+01 -.573E-01 0.337E+04   -.165E+01 0.559E-01 -.337E+04   -.116E+01 0.328E-03 -.349E+01
   0.465E+01 -.379E-04 0.277E+04   -.637E+01 0.566E-05 -.277E+04   -.600E-01 0.110E-04 -.862E-01
   0.666E+01 -.109E-04 0.337E+04   -.144E+01 0.316E-05 -.336E+04   -.116E+01 -.202E-05 -.349E+01
   0.343E+01 -.167E+00 0.277E+04   -.517E+01 0.172E+00 -.277E+04   -.575E-01 -.107E-02 -.852E-01
   -.507E+00 -.457E+00 0.125E+04   0.320E+00 0.449E+00 -.125E+04   0.174E+00 0.266E-02 -.135E-01
   -.173E+01 -.419E-04 0.776E+03   0.176E+01 0.388E-04 -.776E+03   0.165E-01 0.803E-05 -.125E+00
   0.746E+00 -.546E-04 0.125E+04   -.915E+00 0.211E-04 -.125E+04   0.164E+00 -.212E-05 -.279E-01
   -.548E+01 -.765E+00 0.773E+03   0.553E+01 0.758E+00 -.773E+03   0.655E-02 -.105E-02 -.123E+00
   -.470E+01 0.804E-01 -.809E+03   0.438E+01 -.912E-01 0.809E+03   0.298E+00 -.394E-02 0.797E-01
   -.887E+01 -.196E-04 -.122E+04   0.902E+01 0.284E-04 0.122E+04   -.185E-01 0.759E-06 -.201E+00
   -.325E+01 -.813E-04 -.802E+03   0.296E+01 0.644E-04 0.802E+03   0.300E+00 0.199E-05 0.123E+00
   -.500E+01 -.334E+01 -.123E+04   0.514E+01 0.326E+01 0.123E+04   -.512E-01 0.301E-01 -.238E+00
   0.211E+02 -.218E+00 -.281E+04   -.221E+02 0.144E+00 0.281E+04   0.949E+00 0.180E-02 -.233E+00
   -.702E+02 -.496E-04 -.321E+04   0.702E+02 0.120E-04 0.321E+04   0.140E+00 -.604E-05 0.837E+00
   0.166E+02 -.267E-04 -.281E+04   -.173E+02 0.216E-04 0.281E+04   0.850E+00 -.375E-05 -.181E+00
   -.722E+02 0.302E+01 -.321E+04   0.721E+02 -.328E+01 0.321E+04   0.195E+00 0.262E-01 0.800E+00
   0.692E+01 0.369E-04 0.337E+04   -.168E+01 -.755E-05 -.337E+04   -.116E+01 -.808E-05 -.348E+01
   0.469E+01 -.102E-01 0.277E+04   -.639E+01 0.737E-02 -.277E+04   -.653E-01 0.111E-02 -.803E-01
   0.673E+01 -.235E+00 0.337E+04   -.154E+01 0.239E+00 -.336E+04   -.116E+01 -.112E-02 -.349E+01
   0.249E+01 0.485E-04 0.277E+04   -.418E+01 -.111E-04 -.277E+04   -.751E-01 0.274E-05 -.787E-01
   0.231E+01 0.442E-04 0.125E+04   -.250E+01 -.435E-04 -.125E+04   0.147E+00 -.187E-05 0.239E-01
   0.647E+00 0.686E+00 0.778E+03   -.579E+00 -.675E+00 -.778E+03   -.210E-01 -.201E-01 -.116E+00
   0.604E+00 -.871E-01 0.125E+04   -.775E+00 0.866E-01 -.125E+04   0.167E+00 -.976E-02 -.282E-01
   -.924E+01 0.500E-04 0.755E+03   0.929E+01 -.342E-04 -.755E+03   -.377E-02 -.294E-05 -.286E-01
   -.856E-01 0.991E-05 -.815E+03   -.290E+00 -.220E-04 0.814E+03   0.236E+00 -.218E-05 0.117E+00
   -.697E+01 0.434E+00 -.121E+04   0.715E+01 -.463E+00 0.121E+04   -.514E-01 -.431E-02 -.195E+00
   0.560E+00 -.205E+01 -.793E+03   -.761E+00 0.200E+01 0.793E+03   0.251E+00 0.721E-02 0.698E-01
   -.812E+01 0.491E-04 -.128E+04   0.818E+01 -.462E-04 0.128E+04   -.691E-01 -.222E-05 0.257E-01
   0.281E+02 -.196E-04 -.283E+04   -.295E+02 0.181E-04 0.283E+04   0.800E+00 -.453E-05 -.113E+00
   -.682E+02 0.530E+01 -.321E+04   0.680E+02 -.517E+01 0.321E+04   0.191E+00 -.138E+00 0.817E+00
   0.120E+02 0.162E+01 -.278E+04   -.124E+02 -.182E+01 0.278E+04   0.820E+00 0.445E-01 -.825E-01
   -.747E+02 0.181E-04 -.330E+04   0.733E+02 -.229E-04 0.330E+04   0.613E+00 -.482E-05 0.231E+01
   -.320E+02 0.391E-01 0.228E+04   0.370E+02 -.388E-01 -.229E+04   -.697E+01 -.228E-03 0.179E+02
   -.322E+02 0.278E-01 0.228E+04   0.372E+02 -.292E-01 -.229E+04   -.696E+01 0.188E-02 0.179E+02
   0.813E+02 0.120E+00 0.138E+04   -.861E+02 -.120E+00 -.137E+04   0.386E+01 -.141E-02 -.450E+01
   0.747E+02 0.624E-01 0.168E+04   -.819E+02 -.603E-01 -.168E+04   0.763E+01 -.423E-02 -.274E+01
   -.861E+02 0.184E-01 0.194E+04   0.934E+02 -.192E-01 -.194E+04   -.716E+01 0.728E-03 -.345E+00
   -.689E+02 -.562E+00 0.105E+04   0.745E+02 0.619E+00 -.105E+04   -.577E+01 -.559E-01 0.450E+01
   0.819E+02 0.187E+00 0.138E+04   -.866E+02 -.166E+00 -.137E+04   0.384E+01 -.226E-01 -.437E+01
   0.739E+02 0.157E+00 0.168E+04   -.810E+02 -.165E+00 -.168E+04   0.764E+01 0.181E-01 -.276E+01
   -.863E+02 0.938E-01 0.194E+04   0.936E+02 -.927E-01 -.194E+04   -.714E+01 -.403E-02 -.348E+00
   -.722E+02 0.266E+00 0.105E+04   0.779E+02 -.261E+00 -.106E+04   -.587E+01 -.748E-02 0.458E+01
   0.781E+02 -.261E+00 0.145E+03   -.845E+02 0.300E+00 -.139E+03   0.654E+01 -.412E-01 -.522E+01
   0.804E+02 0.710E+00 0.471E+03   -.870E+02 -.792E+00 -.467E+03   0.679E+01 0.776E-01 -.317E+01
[...]
   0.847E+02 0.152E-04 -.110E+04   -.917E+02 -.173E-04 0.111E+04   0.728E+01 -.404E-05 -.779E+01
   0.730E+02 -.491E-05 -.739E+03   -.790E+02 0.983E-05 0.742E+03   0.609E+01 0.238E-05 -.319E+01
   -.804E+02 -.800E+00 -.477E+03   0.867E+02 0.766E+00 0.474E+03   -.643E+01 0.647E-01 0.286E+01
   -.582E+02 0.281E+01 -.131E+04   0.604E+02 -.316E+01 0.130E+04   -.247E+01 0.366E+00 0.997E+01
   0.829E+02 0.269E+01 -.108E+04   -.892E+02 -.303E+01 0.108E+04   0.636E+01 0.362E+00 -.624E+01
   0.771E+02 -.190E+01 -.754E+03   -.836E+02 0.180E+01 0.757E+03   0.654E+01 0.178E+00 -.332E+01
   -.737E+02 -.232E-04 -.486E+03   0.798E+02 0.183E-04 0.483E+03   -.623E+01 -.249E-05 0.259E+01
   -.757E+02 -.219E-05 -.135E+04   0.805E+02 0.983E-05 0.134E+04   -.446E+01 -.113E-04 0.831E+01
   0.541E+02 -.125E-04 -.230E+04   -.605E+02 0.704E-05 0.232E+04   0.709E+01 0.498E-05 -.212E+02
   0.549E+02 0.160E-04 -.203E+04   -.587E+02 0.709E-05 0.204E+04   0.405E+01 -.608E-05 -.810E+01
   -.550E+02 -.449E+00 -.167E+04   0.596E+02 0.547E+00 0.167E+04   -.472E+01 0.201E-01 0.315E+01
   0.506E+02 -.162E+01 -.229E+04   -.567E+02 0.208E+01 0.231E+04   0.622E+01 -.524E+00 -.218E+02
   0.606E+02 -.197E+01 -.201E+04   -.657E+02 0.186E+01 0.202E+04   0.508E+01 0.757E+00 -.614E+01
   -.520E+02 -.436E-05 -.164E+04   0.567E+02 0.963E-06 0.164E+04   -.514E+01 -.378E-05 0.509E+01
   -.161E+02 -.160E-03 0.703E+02   0.988E-12 -.141E-11 -.109E-10   0.162E+02 0.905E-05 -.703E+02

 POSITION                                       TOTAL-FORCE (eV/Angst)
      8.29921      9.47401      8.23548         4.044310      0.001071      1.818728
      6.08023      7.57921      9.11607        -1.750811      0.001739     -2.034265
      3.16233      7.57921      8.23548         4.016643     -0.003047      1.802864
      0.94335      9.47401      9.11607        -1.781474     -0.004629     -2.036405
      9.70326      9.47437     11.79903        -0.011172      0.006000     -0.066000
      7.46069      7.57438     12.59794         0.038927      0.006932      0.058847
      4.56176      7.57657     11.79579        -0.002786      0.009040     -0.067100
      2.31515      9.47353     12.60691         0.042032      0.008284      0.054578
      0.87541      9.47543     15.36211        -0.019570      0.015398     -0.031390
      8.88205      7.57219     16.06758         0.111047      0.030045      0.201163
      6.00122      7.57719     15.34161         0.049854      0.043445     -0.052582
      3.73327      9.47473     16.09229         0.071643      0.051269      0.138455
      2.37352      9.46625     18.99490        -0.020895      0.069656      0.125465
      0.00862      7.56667     19.54936        -0.118286      0.009992      0.340856
      7.49469      7.57738     18.92336         0.454586      0.153339      0.344930
      5.16750      9.48941     19.54324         0.027254      0.224189      0.240316
      8.29921      1.89480      8.23548         4.044396     -0.001059      1.818764
      6.08023      0.00000      9.11607        -1.766883     -0.000020     -2.032669
      3.16233      0.00000      8.23548         4.036199     -0.000009      1.812461
      0.94335      1.89480      9.11607        -1.781566      0.004613     -2.036414
      9.70326      1.89444     11.79903        -0.011166     -0.006018     -0.065991
      7.45633     11.36881     12.60039         0.037594      0.000006      0.068965
      4.56361      0.00000     11.79852        -0.003160     -0.000035     -0.056708
      2.31515      1.89528     12.60691         0.042038     -0.008290      0.054622
      0.87541      1.89338     15.36211        -0.019603     -0.015411     -0.031411
      8.86996      0.00000     16.08148         0.103951      0.000011      0.183123
      6.00773     11.36881     15.35172         0.013320     -0.000014     -0.031498
      3.73327      1.89408     16.09229         0.071649     -0.051287      0.138437
      2.37352      1.90256     18.99490        -0.020908     -0.069664      0.125422
      0.03292     11.36881     19.55068         0.043187     -0.000043      0.233542
      7.52757     11.36881     18.97961         0.097516     -0.000008      0.145433
      5.16750      1.87940     19.54324         0.027258     -0.224234      0.240308
      8.29921      5.68441      8.23548         4.054771      0.000023      1.813636
      6.08023      3.78960      9.11607        -1.750826     -0.001699     -2.034289
      3.16233      3.78960      8.23548         4.016626      0.003055      1.802825
      0.94335      5.68441      9.11607        -1.751293      0.000041     -1.976354
      9.71960      5.68441     11.79385        -0.044726     -0.000000     -0.073772
      7.46069      3.79443     12.59794         0.038939     -0.006892      0.058892
      4.56176      3.79224     11.79579        -0.002797     -0.009018     -0.067091
      2.31866      5.68441     12.63667         0.032842      0.000014     -0.024537
      0.90718      5.68441     15.36884        -0.128107     -0.000013     -0.098761
      8.88205      3.79662     16.06758         0.111042     -0.030060      0.201194
      6.00122      3.79162     15.34161         0.049863     -0.043432     -0.052606
      3.75245      5.68441     16.17890        -0.025041      0.000002     -0.308431
      2.41334      5.68441     19.01311        -0.491228     -0.000005      0.009602
      0.00862      3.80214     19.54936        -0.118388     -0.009986      0.340764
      7.49469      3.79143     18.92336         0.454595     -0.153366      0.344953
      5.19886      5.68441     19.70820        -0.892170     -0.000009     -1.735691
      5.01563      7.57921      7.50000        -1.941494      0.000065      1.269212
     10.15251      9.47401      7.50000        -1.937421      0.000435      1.264448
      9.36381      9.47401      9.85155        -0.910421     -0.001435     -0.206468
      6.44591      9.47401      8.97095         0.497253     -0.002180     -0.106655
      7.93353      7.57921      8.38059         0.146160     -0.000057     -1.075119
      6.41347      7.57921     11.02238        -0.192025      0.001431      0.474107
      4.22693      7.57921      9.85155        -0.916704     -0.002257     -0.189560
      1.30903      7.57921      8.97095         0.507333      0.010398     -0.114157
      2.79665      9.47401      8.38059         0.155671     -0.002865     -1.077212
      1.27659      9.47401     11.02238        -0.129738     -0.003448      0.508536
      0.50283      9.47575     13.39263         0.108820     -0.002494     -0.018651
      7.84616      9.47342     12.49395         0.098374     -0.004424     -0.036818
[...]
      2.71792      5.68441     14.56626        -0.037552     -0.000003      0.122229
      1.97059      5.68441     16.95776         0.248663     -0.000005      0.095314
      9.28176      5.68441     16.00703         0.123219      0.000008     -0.054189
      0.51819      3.79142     15.43874        -0.097446      0.031029      0.027204
      9.38325      3.78626     18.01613        -0.240609      0.014396     -0.170829
      7.12329      3.77877     16.91525         0.040844      0.022523     -0.049088
      4.15003      3.79019     16.04303         0.075740      0.075093     -0.013005
      5.64889      5.68441     15.46030        -0.156646     -0.000006      0.066841
      4.23095      5.68441     18.10183         0.388862     -0.000003      0.896119
      3.53954      5.68441     20.49291         0.672184      0.000001     -0.135351
      0.53179      5.68441     19.78819         0.226808      0.000018     -0.188023
      2.00220      3.79374     19.00564        -0.023312      0.117829      0.032491
      8.65667      3.82129     20.40772         0.145805     -0.060770     -0.625150
      5.68077      3.76119     19.74360        -0.013966      0.644570      0.247121
      7.11906      5.68441     18.92853        -0.410402     -0.000006      0.361671
    total drift:                                0.016831     -0.000151     -0.053347

  FREE ENERGIE OF THE ION-ELECTRON SYSTEM (eV)
  free  energy   TOTEN  =     -1624.36722014 eV

  energy  without entropy=    -1624.36722014  energy(sigma->0) =    -1624.36722014