 vasp.6.3.0 20Jan22 (build Mar 11 2022 13:48:16) complex

 executed on             LinuxIFC date 2024.02.25  05:28:56

 INCAR:
   SYSTEM = Oxide-Surface
   ISMEAR = 0
   SIGMA = 0.05
   EDIFF = 1E-5
   ALGO = ALL
   ISTART = 0
   IBRION = -1
   NSW = 0
   ISYM = 0
   DIPOL = 0.5 0.5 0.5
   IDIPOL = 3
   LDIPOL = .TRUE.
   GGA = PE
   IVDW = 263
   ENCUT = 600
   PREC = Accurate
   LASPH = .TRUE.
   LREAL = .FALSE.
   ISPIN = 1
   NELM = 200
   NELMIN = 8
   NCORE = 19
   KPAR = 1
   LWAVE = .FALSE.
   LCHARG = .FALSE.

 POTCAR:    PAW_PBE N 08Apr2002
 POTCAR:    PAW_PBE H 15Jun2001
 POTCAR:    PAW_PBE Ti_pv 07Sep2000
 POTCAR:    PAW_PBE O 08Apr2002
 POTCAR:    PAW_PBE N 08Apr2002
   VRHFIN =N: s2p3

   TITEL  = PAW_PBE N 08Apr2002
   POMASS =   14.001; ZVAL   =    5.000    mass and valenz
   ENMAX  =  400.000; ENMIN  =  300.000 eV

   TITEL  = PAW_PBE H 15Jun2001
   POMASS =    1.000; ZVAL   =    1.000    mass and valenz
   ENMAX  =  250.000; ENMIN  =  200.000 eV

   TITEL  = PAW_PBE Ti_pv 07Sep2000
   POMASS =   47.880; ZVAL   =   10.000    mass and valenz
   ENMAX  =  222.335; ENMIN  =  166.751 eV

   TITEL  = PAW_PBE O 08Apr2002
   POMASS =   16.000; ZVAL   =    6.000    mass and valenz
   ENMAX  =  400.000; ENMIN  =  300.000 eV

  PAW_PBE N 08Apr2002                   :
  PAW_PBE H 15Jun2001                   :
  PAW_PBE Ti_pv 07Sep2000               :
  PAW_PBE O 08Apr2002                   :

 POSCAR:  N  H Ti  O
  positions in direct lattice
 exchange correlation table for  LEXCH =        8
   RHO(1)=    0.500       N(1)  =     2000
   RHO(2)=  100.500       N(2)  =     4000

 ion  position               nearest neighbor table
   1  0.612  0.500  0.778-   2 1.02   4 1.02   3 1.02  52 2.30
   2  0.549  0.500  0.807-   1 1.02
   3  0.671  0.428  0.781-   1 1.02
   4  0.671  0.572  0.781-   1 1.02
   5  0.808  0.833  0.295-  89 1.94  55 1.94  57 1.94  54 1.99  56 1.99  22 3.05   8 3.05   6 3.05

   6  0.592  0.667  0.327-  53 1.94 120 1.94  56 1.94  58 1.94  57 1.99  59 1.99  37 3.05   7 3.05
                             5 3.05  11 3.08
   7  0.308  0.667  0.295- 125 1.94  59 1.94  61 1.94  53 1.99  60 1.99  40 3.05   6 3.05   8 3.05

   8  0.092  0.833  0.327-  54 1.94  92 1.94  60 1.94  62 1.94  61 1.99  55 1.99  23 3.05   5 3.05
                             7 3.05   9 3.08
   9  0.944  0.833  0.423-  63 1.92  97 1.93  65 1.93  55 1.98  64 1.98  62 2.00  12 3.00  10 3.05
                            26 3.05   8 3.08
  10  0.726  0.666  0.451-  58 1.89 128 1.93  64 1.94  66 1.96  67 1.99  65 2.00  11 3.01   9 3.05
                            41 3.05  15 3.11
  11  0.444  0.666  0.423-  67 1.93 133 1.93  69 1.94  59 1.97  68 1.98  58 2.01  10 3.01  12 3.05
                            44 3.05   6 3.08
  12  0.225  0.833  0.452-  62 1.89 100 1.94  68 1.94  70 1.97  63 1.98  69 2.01   9 3.00  27 3.05
                            11 3.05  13 3.11
  13  0.085  0.833  0.550-  71 1.92 105 1.93  73 1.93  72 1.97  63 2.00  70 2.01  16 2.95  14 3.04
                            30 3.05  12 3.11
  14  0.865  0.666  0.576-  66 1.86 136 1.93  72 1.95  75 1.95  73 2.01  74 2.01  15 2.97  13 3.04
                            45 3.06  19 3.17
  15  0.584  0.666  0.550- 141 1.93  77 1.93  75 1.93  76 1.98  67 1.98  66 2.01  14 2.97  16 3.05
                            48 3.06  10 3.11
  16  0.363  0.833  0.576-  70 1.86 108 1.94  76 1.94  71 1.95  78 2.00  77 2.02  13 2.95  15 3.05
                            31 3.05
  17  0.231  0.833  0.680-  79 1.86  81 1.93 113 1.94  80 2.00  71 2.09  78 2.10  20 2.85  34 3.07
                            18 3.08
  18  0.001  0.666  0.700-  74 1.78  82 1.84 144 1.97  80 1.99  81 2.07  19 2.86  17 3.08  49 3.10

[...]

  21  0.808  0.167  0.295-  89 1.94  87 1.94 121 1.94  86 1.99  88 1.99  22 3.05  24 3.05  38 3.05

[...]

  37  0.808  0.500  0.295-  57 1.94 121 1.94 119 1.94 120 1.99 118 1.99   6 3.05  38 3.05  40 3.05

  38  0.592  0.333  0.327- 117 1.94 120 1.94  88 1.94 122 1.94 121 1.99 123 1.99  37 3.05  39 3.05
                            21 3.05  43 3.08
  39  0.308  0.333  0.295- 125 1.94 123 1.94  93 1.94 124 1.99 117 1.99  40 3.05  38 3.05  24 3.05

  40  0.092  0.500  0.327- 118 1.94  60 1.94 124 1.94 126 1.94 125 1.99 119 1.99  39 3.05   7 3.05
                            37 3.05  41 3.07
  41  0.946  0.500  0.422- 127 1.92  65 1.94 129 1.94 119 1.97 126 1.99 128 2.00  44 2.99  10 3.05
                            42 3.05  40 3.07
  42  0.726  0.334  0.451- 122 1.89 128 1.93  96 1.94 130 1.96 131 1.99 129 2.00  43 3.01  25 3.05
                            41 3.05  47 3.11
  43  0.444  0.334  0.423- 131 1.93 133 1.93 101 1.94 123 1.97 132 1.98 122 2.01  42 3.01  28 3.05
                            44 3.05  38 3.08
  44  0.226  0.500  0.453- 126 1.92  68 1.94 132 1.94 127 1.96 134 1.97 133 2.01  41 2.99  11 3.05
                            43 3.05  45 3.08
  45  0.088  0.500  0.550- 135 1.91 137 1.93  73 1.93 134 1.98 136 2.00 127 2.01  48 2.96  14 3.06
                            46 3.06  44 3.08
  46  0.865  0.334  0.576- 130 1.86 136 1.93 104 1.95 139 1.95 137 2.01 138 2.01  47 2.97  29 3.04
                            45 3.06  51 3.17
  47  0.584  0.334  0.550- 141 1.93 109 1.93 139 1.93 140 1.98 131 1.98 130 2.01  46 2.97  32 3.05
                            48 3.06  42 3.11
  48  0.365  0.500  0.580- 134 1.92  76 1.94 140 1.94 135 1.94 142 1.98 141 2.03  45 2.96  15 3.06
                            47 3.06  49 3.13
  49  0.235  0.500  0.681- 143 1.86 145 1.93  81 1.93 142 2.03 144 2.03 135 2.10  52 2.87  18 3.10
                            50 3.10  48 3.13
  50  0.001  0.334  0.700- 138 1.78 146 1.84 144 1.97 112 1.99 145 2.07  51 2.86  33 3.08  49 3.10

  51  0.729  0.333  0.678- 146 1.89 148 1.93 116 1.94 147 1.99 139 2.04 138 2.10  50 2.86  36 3.08
                            52 3.08  46 3.17
  52  0.506  0.500  0.706- 143 1.84 142 1.88  83 1.98 147 1.98 148 2.07   1 2.30  49 2.87  19 3.08
                            51 3.08
  53  0.488  0.667  0.269-   6 1.94   7 1.99
  54  0.988  0.833  0.269-   8 1.94   5 1.99
  55  0.911  0.833  0.353-   5 1.94   9 1.98   8 1.99
  56  0.627  0.833  0.321-  22 1.94   6 1.94   5 1.99
  57  0.772  0.667  0.300-  37 1.94   5 1.94   6 1.99
  58  0.624  0.667  0.395-  10 1.89   6 1.94  11 2.01
  59  0.411  0.667  0.353-   7 1.94  11 1.97   6 1.99
  60  0.127  0.667  0.321-  40 1.94   8 1.94   7 1.99
  61  0.272  0.833  0.300-  23 1.94   7 1.94   8 1.99
  62  0.124  0.833  0.395-  12 1.89   8 1.94   9 2.00
  63  0.049  0.833  0.480-   9 1.92  12 1.98  13 2.00
  64  0.764  0.833  0.448-  26 1.94  10 1.94   9 1.98
  65  0.909  0.667  0.427-   9 1.93  41 1.94  10 2.00
  66  0.763  0.666  0.520-  14 1.86  10 1.96  15 2.01
  67  0.549  0.666  0.480-  11 1.93  15 1.98  10 1.99
  68  0.264  0.667  0.448-  44 1.94  12 1.94  11 1.98
  69  0.408  0.833  0.427-  27 1.93  11 1.94  12 2.01
  70  0.263  0.833  0.521-  16 1.86  12 1.97  13 2.01
  71  0.192  0.833  0.607-  13 1.92  16 1.95  17 2.09
  72  0.903  0.833  0.573-  30 1.94  14 1.95  13 1.97
  73  0.050  0.667  0.553-  13 1.93  45 1.93  14 2.01
  74  0.913  0.667  0.645-  18 1.78  14 2.01  19 2.10
  75  0.693  0.668  0.606-  15 1.93  14 1.95  19 2.04
  76  0.404  0.667  0.575-  48 1.94  16 1.94  15 1.98
  77  0.549  0.833  0.553-  15 1.93  31 1.93  16 2.02
  78  0.412  0.836  0.646-  20 1.78  16 2.00  17 2.10
  79  0.347  0.833  0.732-  20 1.84  17 1.86
  80  0.052  0.833  0.709-  34 1.98  18 1.99  17 2.00
  81  0.195  0.666  0.681-  17 1.93  49 1.93  18 2.07
  82  0.843  0.664  0.731-  18 1.84  19 1.89
  83  0.553  0.669  0.707-  20 1.96  52 1.98  19 1.99
  84  0.696  0.834  0.679-  35 1.93  19 1.94  20 2.06
  85  0.488  0.000  0.269-  22 1.94  23 1.99
  86  0.988  0.167  0.269-  24 1.94  21 1.99
  87  0.911  0.167  0.353-  21 1.94  25 1.98  24 1.99
  88  0.627  0.167  0.321-  22 1.94  38 1.94  21 1.99
  89  0.772  0.000  0.300-   5 1.94  21 1.94  22 1.99
  90  0.624  0.000  0.395-  26 1.89  22 1.94  27 2.01
  91  0.411  0.000  0.353-  23 1.94  27 1.98  22 1.99
  92  0.127  0.000  0.321-   8 1.94  24 1.94  23 1.99
  93  0.272  0.167  0.300-  23 1.94  39 1.94  24 1.99
  94  0.124  0.167  0.395-  28 1.89  24 1.94  25 2.00
  95  0.049  0.167  0.480-  25 1.92  28 1.98  29 2.00
  96  0.764  0.167  0.448-  26 1.94  42 1.94  25 1.98
  97  0.909  0.000  0.427-  25 1.93   9 1.93  26 2.00
  98  0.763  0.000  0.520-  30 1.86  26 1.97  31 2.01
  99  0.549  1.000  0.480-  27 1.92  26 1.98  31 2.00
 100  0.264  0.000  0.448-  12 1.94  28 1.94  27 1.99
 101  0.408  0.167  0.427-  27 1.93  43 1.94  28 2.01
 102  0.263  0.167  0.521-  32 1.86  28 1.97  29 2.01
 103  0.192  0.167  0.607-  29 1.92  32 1.95  33 2.09
 104  0.903  0.167  0.573-  30 1.94  46 1.95  29 1.97
 105  0.051  0.000  0.553-  13 1.93  29 1.93  30 2.03
 106  0.913  0.000  0.646-  34 1.78  30 2.01  35 2.08
 107  0.693  1.000  0.606-  31 1.92  30 1.94  35 2.10
 108  0.403  0.000  0.573-  32 1.94  16 1.94  31 1.98
 109  0.549  0.167  0.553-  47 1.93  31 1.93  32 2.02
 110  0.412  0.164  0.646-  36 1.78  32 2.00  33 2.10
 111  0.347  0.167  0.732-  36 1.84  33 1.86
 112  0.052  0.167  0.709-  34 1.98  50 1.99  33 2.00
[...]
 134  0.265  0.500  0.522-  48 1.92  44 1.97  45 1.98
 135  0.192  0.500  0.607-  45 1.91  48 1.94  49 2.10
 136  0.903  0.500  0.573-  46 1.93  14 1.93  45 2.00
 137  0.050  0.333  0.553-  29 1.93  45 1.93  46 2.01
 138  0.913  0.333  0.645-  50 1.78  46 2.01  51 2.10
 139  0.693  0.332  0.606-  47 1.93  46 1.95  51 2.04
 140  0.404  0.333  0.575-  48 1.94  32 1.94  47 1.98
 141  0.550  0.500  0.554-  47 1.93  15 1.93  48 2.03
 142  0.412  0.500  0.648-  52 1.88  48 1.98  49 2.03
 143  0.345  0.500  0.734-  52 1.84  49 1.86
 144  0.052  0.500  0.709-  18 1.97  50 1.97  49 2.03
 145  0.195  0.334  0.681-  33 1.93  49 1.93  50 2.07
 146  0.843  0.336  0.731-  50 1.84  51 1.89
 147  0.553  0.331  0.707-  36 1.96  52 1.98  51 1.99
 148  0.693  0.500  0.678-  19 1.93  51 1.93  52 2.07

IMPORTANT INFORMATION: All symmetrisations will be switched off!
NOSYMM: (Re-)initialisation of all symmetry stuff for point group C_1.

                                     Primitive cell

  volume of cell :    3260.9117

  direct lattice vectors                    reciprocal lattice vectors
    10.273755933  0.000000000  0.000000000     0.097335386 -0.000000000  0.000000000
     0.000000000 11.368810418  0.000000000     0.000000000  0.087959950  0.000000000
     0.000000000  0.000000000 27.918672987     0.000000000  0.000000000  0.035818321

  length of vectors
    10.273755933 11.368810418 27.918672987     0.097335386  0.087959950  0.035818321

  position of ions in fractional coordinates (direct lattice)
     0.611832841  0.499999990  0.778332537
     0.548980662  0.499999990  0.806628086
     0.670929980  0.427964669  0.781076949
     0.670929976  0.572035311  0.781076948
     0.807806441  0.833333333  0.294980927
     0.591821331  0.666666667  0.326522323
     0.307806441  0.666666667  0.294980927
     0.091821331  0.833333333  0.326522323
     0.944470222  0.833365553  0.422621320
     0.726188711  0.666242110  0.451236925
     0.444020646  0.666435021  0.422505552
     0.225345679  0.833291647  0.451558282
[...]
   O          20.026          3.266          5.562          2.545          2.632          1.040
   O          20.030          3.266          5.564          2.577          2.732          1.040
   O          19.285          3.248          5.471          2.660          3.005          1.025
   O          20.013          3.265          5.559          2.705          3.161          1.039
   O          20.066          3.267          5.567          2.652          2.978          1.040
   O          19.177          3.245          5.454          2.715          3.196          1.022
   O          19.658          3.256          5.511          2.635          2.921          1.030
   O          19.938          3.264          5.551          2.591          2.778          1.038

  vdW correction parametrized for the method pbe

  IVDW = 263
  VDW_RADIUS =    50.000 A
  VDW_SR =     0.830
  VDW_D =     6.000
  SCSRAD =   120.000 A
  LVDWSCS = T
  LSCSGRAD = T
  LSCALER0 = T
  ITIM =  1
  Edisp (eV):  -35.04992

  FORCE on cell =-STRESS in cart. coord.  units (eV):
  Direction    XX          YY          ZZ          XY          YZ          ZX
  Alpha Z  2442.80598  2442.80598  2442.80598
  Ewald  486179.11009479644.41182************     0.00015    -0.00012 -1841.39413
  Hartree507458.75895503461.15670************     0.00009    -0.00007 -1232.80471
  E(xc)   -5179.59631 -5183.63332 -5190.31976     0.00000    -0.00000    -1.43897
  Local  ************************************    -0.00026     0.00021  3073.79944
  n-local -3281.32250 -3249.80576 -3292.77148    -0.00001    -0.00000     1.66733
  augment  3133.34034  3129.49088  3121.64831     0.00001    -0.00001    -0.57644
  Kinetic 17148.44193 17204.30664 17266.09971     0.00001    -0.00002    -7.14621
  Fock        0.00000     0.00000     0.00000     0.00000     0.00000     0.00000
  vdW       -45.05526   -57.58501   -45.04961    -0.00001     0.00000    -3.40111
  Total     -51.05361   -32.69336   -26.38903    -0.00001    -0.00002   -11.29479
  in kB     -25.08407   -16.06316   -12.96567    -0.00001    -0.00001    -5.54945

 VOLUME and BASIS-vectors are now :
  energy-cutoff  :      600.00
  volume of cell :     3260.91
      direct lattice vectors                 reciprocal lattice vectors
    10.273755933  0.000000000  0.000000000     0.097335386 -0.000000000  0.000000000
     0.000000000 11.368810418  0.000000000     0.000000000  0.087959950  0.000000000
     0.000000000  0.000000000 27.918672987     0.000000000  0.000000000  0.035818321

  length of vectors
    10.273755933 11.368810418 27.918672987     0.097335386  0.087959950  0.035818321

 FORCES acting on ions:
    Electron-Ion                     Ewald-Force                    Non-Local-Force
   -.151E+02 -.313E-05 -.175E+04   0.549E+01 0.133E-05 0.174E+04   0.955E+01 0.663E-06 0.181E+02
   0.427E+02 -.324E-06 -.372E+03   -.475E+02 0.264E-06 0.377E+03   0.476E+01 0.504E-07 -.557E+01
   -.419E+02 0.548E+02 -.355E+03   0.463E+02 -.607E+02 0.355E+03   -.437E+01 0.591E+01 -.379E+00
   -.419E+02 -.548E+02 -.355E+03   0.463E+02 0.607E+02 0.355E+03   -.437E+01 -.591E+01 -.379E+00
   0.651E+01 -.414E-01 0.337E+04   -.161E+01 0.412E-01 -.337E+04   -.109E+01 -.435E-05 -.332E+01
   0.483E+01 -.113E+00 0.277E+04   -.640E+01 0.114E+00 -.277E+04   -.831E-01 -.729E-03 -.435E-01
   0.646E+01 0.139E+00 0.337E+04   -.158E+01 -.144E+00 -.337E+04   -.109E+01 0.145E-02 -.332E+01
   0.354E+01 0.523E-01 0.277E+04   -.516E+01 -.599E-01 -.277E+04   -.757E-01 0.145E-02 -.483E-01
   -.716E+00 0.514E-01 0.126E+04   0.537E+00 -.517E-01 -.126E+04   0.182E+00 -.309E-03 0.227E-01
   0.364E+00 -.138E+01 0.800E+03   -.289E+00 0.137E+01 -.800E+03   -.471E-01 0.160E-01 -.153E+00
   0.865E+00 -.348E+00 0.126E+04   -.103E+01 0.344E+00 -.126E+04   0.174E+00 0.786E-02 0.222E-02
   -.522E+01 0.168E+00 0.793E+03   0.530E+01 -.172E+00 -.793E+03   -.296E-01 0.328E-02 -.157E+00
   -.509E+01 -.237E+01 -.779E+03   0.480E+01 0.235E+01 0.779E+03   0.306E+00 0.114E-01 0.127E+00
   -.113E+02 -.494E+01 -.117E+04   0.115E+02 0.495E+01 0.117E+04   -.116E+00 -.203E-02 -.252E+00
   0.116E+01 -.167E+01 -.755E+03   -.142E+01 0.167E+01 0.755E+03   0.270E+00 0.255E-03 0.950E-01
   -.213E+01 -.861E+00 -.119E+04   0.234E+01 0.872E+00 0.119E+04   -.123E+00 -.160E-01 -.301E+00
   0.278E+02 -.109E+02 -.279E+04   -.288E+02 0.109E+02 0.279E+04   0.932E+00 0.250E-02 -.135E+00
   -.869E+02 -.215E+02 -.318E+04   0.872E+02 0.213E+02 0.317E+04   -.364E-01 0.142E+00 0.692E+00
   -.102E+02 -.398E+02 -.270E+04   0.935E+01 0.399E+02 0.270E+04   0.850E+00 -.241E-01 -.166E-01
   -.606E+02 -.339E+02 -.317E+04   0.609E+02 0.339E+02 0.317E+04   0.103E-01 0.408E-01 0.709E+00
   0.651E+01 0.413E-01 0.337E+04   -.161E+01 -.412E-01 -.337E+04   -.109E+01 0.898E-05 -.332E+01
   0.479E+01 -.501E-05 0.277E+04   -.638E+01 0.565E-05 -.277E+04   -.780E-01 -.752E-06 -.485E-01
   0.638E+01 0.778E-06 0.337E+04   -.148E+01 0.315E-05 -.337E+04   -.109E+01 0.290E-05 -.332E+01
   0.354E+01 -.523E-01 0.277E+04   -.516E+01 0.599E-01 -.277E+04   -.757E-01 -.145E-02 -.483E-01
   -.716E+00 -.514E-01 0.126E+04   0.537E+00 0.517E-01 -.126E+04   0.182E+00 0.312E-03 0.227E-01
   -.192E+01 -.388E-04 0.797E+03   0.197E+01 0.388E-04 -.796E+03   -.159E-01 -.545E-06 -.159E+00
   0.942E+00 -.267E-04 0.126E+04   -.111E+01 0.210E-04 -.126E+04   0.173E+00 0.137E-05 0.764E-02
   -.522E+01 -.168E+00 0.793E+03   0.530E+01 0.172E+00 -.793E+03   -.296E-01 -.328E-02 -.157E+00
   -.509E+01 0.237E+01 -.779E+03   0.480E+01 -.235E+01 0.779E+03   0.306E+00 -.114E-01 0.127E+00
   -.110E+02 -.270E-04 -.119E+04   0.112E+02 0.277E-04 0.119E+04   -.958E-01 -.169E-06 -.256E+00
   -.292E+01 -.641E-04 -.771E+03   0.261E+01 0.642E-04 0.771E+03   0.317E+00 0.245E-06 0.165E+00
   -.213E+01 0.861E+00 -.119E+04   0.234E+01 -.872E+00 0.119E+04   -.123E+00 0.160E-01 -.301E+00
   0.278E+02 0.109E+02 -.279E+04   -.288E+02 -.109E+02 0.279E+04   0.932E+00 -.250E-02 -.135E+00
   -.751E+02 -.488E-05 -.319E+04   0.755E+02 0.121E-04 0.319E+04   -.622E-01 0.151E-05 0.709E+00
   0.118E+02 -.263E-04 -.278E+04   -.127E+02 0.212E-04 0.278E+04   0.873E+00 0.920E-06 -.957E-01
   -.606E+02 0.339E+02 -.317E+04   0.609E+02 -.339E+02 0.317E+04   0.103E-01 -.408E-01 0.709E+00
   0.655E+01 0.926E-05 0.337E+04   -.163E+01 -.755E-05 -.337E+04   -.110E+01 0.171E-05 -.332E+01
   0.483E+01 0.113E+00 0.277E+04   -.640E+01 -.114E+00 -.277E+04   -.831E-01 0.728E-03 -.434E-01
   0.646E+01 -.139E+00 0.337E+04   -.158E+01 0.144E+00 -.337E+04   -.109E+01 -.144E-02 -.332E+01
   0.260E+01 0.133E-04 0.277E+04   -.417E+01 -.111E-04 -.277E+04   -.927E-01 -.157E-05 -.450E-01
   0.205E+01 0.443E-04 0.126E+04   -.223E+01 -.434E-04 -.126E+04   0.162E+00 0.269E-06 0.515E-01
   0.364E+00 0.138E+01 0.800E+03   -.289E+00 -.137E+01 -.800E+03   -.471E-01 -.160E-01 -.153E+00
   0.865E+00 0.348E+00 0.126E+04   -.103E+01 -.344E+00 -.126E+04   0.175E+00 -.786E-02 0.222E-02
   -.890E+01 0.336E-04 0.776E+03   0.897E+01 -.342E-04 -.776E+03   -.315E-01 -.447E-06 -.665E-01
   -.604E+00 0.181E-04 -.781E+03   0.343E+00 -.217E-04 0.781E+03   0.234E+00 0.214E-07 0.150E+00
   -.113E+02 0.494E+01 -.117E+04   0.115E+02 -.495E+01 0.117E+04   -.116E+00 0.204E-02 -.252E+00
   0.116E+01 0.167E+01 -.755E+03   -.142E+01 -.167E+01 0.755E+03   0.270E+00 -.257E-03 0.950E-01
   -.246E+01 0.433E-04 -.123E+04   0.263E+01 -.453E-04 0.123E+04   -.106E+00 -.713E-07 -.182E+00
   0.480E+02 -.208E-04 -.278E+04   -.487E+02 0.189E-04 0.278E+04   0.665E+00 0.194E-05 -.727E-02
   -.869E+02 0.215E+02 -.318E+04   0.872E+02 -.213E+02 0.317E+04   -.364E-01 -.142E+00 0.692E+00
   -.102E+02 0.398E+02 -.270E+04   0.935E+01 -.399E+02 0.270E+04   0.850E+00 0.241E-01 -.166E-01
   0.115E+02 0.208E-04 -.312E+04   -.107E+02 -.164E-04 0.312E+04   -.577E+00 0.133E-05 -.388E+00
   -.322E+02 -.206E-01 0.228E+04   0.370E+02 0.204E-01 -.229E+04   -.655E+01 0.323E-03 0.171E+02
   -.325E+02 -.294E-01 0.228E+04   0.373E+02 0.274E-01 -.229E+04   -.655E+01 0.253E-02 0.171E+02
   0.812E+02 0.262E-01 0.138E+04   -.860E+02 -.284E-01 -.138E+04   0.383E+01 0.141E-02 -.445E+01
   0.749E+02 -.812E-02 0.169E+04   -.819E+02 0.902E-02 -.168E+04   0.739E+01 -.175E-02 -.269E+01
   -.862E+02 -.423E-01 0.194E+04   0.934E+02 0.405E-01 -.194E+04   -.698E+01 0.347E-02 -.119E+00
   -.689E+02 -.743E+00 0.106E+04   0.745E+02 0.796E+00 -.106E+04   -.570E+01 -.497E-01 0.432E+01
   0.819E+02 0.896E-01 0.138E+04   -.867E+02 -.721E-01 -.138E+04   0.381E+01 -.190E-01 -.433E+01
   0.740E+02 0.922E-01 0.169E+04   -.810E+02 -.100E+00 -.168E+04   0.741E+01 0.204E-01 -.271E+01
[...]
   0.871E+02 0.161E-04 -.108E+04   -.939E+02 -.169E-04 0.109E+04   0.687E+01 0.242E-05 -.767E+01
   0.702E+02 -.916E-05 -.715E+03   -.761E+02 0.100E-04 0.718E+03   0.598E+01 0.524E-06 -.304E+01
   -.811E+02 0.690E+00 -.457E+03   0.874E+02 -.710E+00 0.454E+03   -.636E+01 0.206E-01 0.282E+01
   -.663E+02 0.982E+01 -.128E+04   0.686E+02 -.101E+02 0.127E+04   -.239E+01 0.315E+00 0.987E+01
   0.807E+02 0.871E+01 -.105E+04   -.871E+02 -.898E+01 0.105E+04   0.639E+01 0.268E+00 -.591E+01
   0.797E+02 0.964E+00 -.730E+03   -.861E+02 -.992E+00 0.734E+03   0.645E+01 0.301E-01 -.331E+01
   -.728E+02 -.174E-04 -.461E+03   0.789E+02 0.184E-04 0.459E+03   -.606E+01 0.282E-05 0.246E+01
   -.615E+02 -.101E-04 -.131E+04   0.672E+02 0.114E-04 0.130E+04   -.575E+01 -.283E-05 0.627E+01
   0.108E+03 -.922E-05 -.227E+04   -.113E+03 0.866E-05 0.229E+04   0.577E+01 -.925E-07 -.204E+02
   0.452E+02 -.922E-05 -.201E+04   -.488E+02 0.806E-05 0.202E+04   0.361E+01 -.303E-06 -.750E+01
   -.492E+02 0.662E+01 -.165E+04   0.541E+02 -.647E+01 0.165E+04   -.494E+01 -.146E+00 0.315E+01
   0.118E+02 0.312E+02 -.226E+04   -.171E+02 -.311E+02 0.228E+04   0.531E+01 -.110E+00 -.196E+02
   0.783E+02 0.459E+02 -.195E+04   -.834E+02 -.455E+02 0.195E+04   0.510E+01 -.427E+00 -.646E+01
   -.684E+02 -.108E-05 -.156E+04   0.729E+02 0.217E-05 0.156E+04   -.447E+01 0.209E-05 0.432E+01
   -.153E+02 -.432E-04 0.550E+02   0.966E-12 -.505E-12 0.114E-10   0.153E+02 0.511E-04 -.551E+02

 POSITION                                       TOTAL-FORCE (eV/Angst)
      6.28582      5.68441     21.73001        -0.090584     -0.000001     -0.015756
      5.64009      5.68441     22.51999        -0.042416     -0.000000      0.025452
      6.89297      4.86545     21.80663         0.054150     -0.077026     -0.028892
      6.89297      6.50336     21.80663         0.054150      0.077026     -0.028892
      8.29921      9.47401      8.23548         3.834659     -0.000230      1.820746
      6.08023      7.57921      9.11607        -1.607906      0.000213     -1.856304
      3.16233      7.57921      8.23548         3.807558     -0.003775      1.806264
      0.94335      9.47401      9.11607        -1.636658     -0.006220     -1.859820
      9.70326      9.47437     11.79903        -0.011384      0.000723     -0.020317
      7.46069      7.57438     12.59794         0.013636     -0.001962      0.023931
      4.56176      7.57657     11.79579        -0.008878     -0.000107     -0.015270
      2.31515      9.47353     12.60691         0.017086     -0.001247      0.023428
      0.87541      9.47543     15.36211        -0.023198     -0.003407     -0.029329
      8.88205      7.57219     16.06758         0.039584      0.001928      0.055279
      6.00122      7.57719     15.34161        -0.016905      0.001263     -0.023196
      3.73327      9.47473     16.09229         0.037102     -0.000346      0.051591
      2.37352      9.46625     18.99490        -0.072065      0.001354     -0.045298
      0.00862      7.56667     19.54936         0.046764      0.006309     -0.062662
      7.49469      7.57738     18.92336        -0.069795      0.004468     -0.045944
      5.16750      9.48941     19.54324         0.030324      0.001437     -0.059920
      8.29921      1.89480      8.23548         3.834638      0.000213      1.820742
      6.08023      0.00000      9.11607        -1.622780      0.000001     -1.858194
      3.16233      0.00000      8.23548         3.825771      0.000006      1.814240
      0.94335      1.89480      9.11607        -1.636657      0.006216     -1.859812
      9.70326      1.89444     11.79903        -0.011385     -0.000724     -0.020316
      7.45633     11.36881     12.60039         0.011538     -0.000001      0.024315
      4.56361      0.00000     11.79852        -0.009608     -0.000004     -0.013005
      2.31515      1.89528     12.60691         0.017078      0.001242      0.023433
      0.87541      1.89338     15.36211        -0.023201      0.003414     -0.029324
      8.86996      0.00000     16.08148         0.042273      0.000001      0.052587
      6.00773     11.36881     15.35172        -0.027588      0.000000     -0.028677
      3.73327      1.89408     16.09229         0.037100      0.000346      0.051591
      2.37352      1.90256     18.99490        -0.072056     -0.001353     -0.045284
      0.03292     11.36881     19.55068         0.030654      0.000009     -0.057841
      7.52757     11.36881     18.97961        -0.073109     -0.000004     -0.048513
      5.16750      1.87940     19.54324         0.030334     -0.001405     -0.059915
      8.29921      5.68441      8.23548         3.847972      0.000004      1.818236
      6.08023      3.78960      9.11607        -1.607931     -0.000208     -1.856327
      3.16233      3.78960      8.23548         3.807577      0.003772      1.806279
      0.94335      5.68441      9.11607        -1.606548      0.000000     -1.793888
      9.71960      5.68441     11.79385        -0.020231      0.000001     -0.012607
      7.46069      3.79443     12.59794         0.013635      0.001967      0.023931
      4.56176      3.79224     11.79579        -0.008872      0.000106     -0.015270
      2.31866      5.68441     12.63667         0.018273     -0.000001      0.015637
      0.90718      5.68441     15.36884        -0.032827     -0.000004     -0.029328
      8.88205      3.79662     16.06758         0.039578     -0.001932      0.055281
      6.00122      3.79162     15.34161        -0.016907     -0.001263     -0.023200
      3.75245      5.68441     16.17890         0.028621     -0.000002      0.030225
      2.41334      5.68441     19.01311        -0.084480     -0.000000     -0.040294
      0.00862      3.80214     19.54936         0.046724     -0.006300     -0.062695
      7.49469      3.79143     18.92336        -0.069792     -0.004476     -0.045937
      5.19886      5.68441     19.70820         0.062863      0.000006      0.002032
      5.01563      7.57921      7.50000        -1.786357      0.000166      1.033344
     10.15251      9.47401      7.50000        -1.782792      0.000586      1.029330
      9.36381      9.47401      9.85155        -1.002658     -0.000763     -0.157687
      6.44591      9.47401      8.97095         0.354187     -0.000855     -0.051777
      7.93353      7.57921      8.38059         0.279793      0.001633     -1.070174
      6.41347      7.57921     11.02238        -0.059421      0.002202      0.431976
      4.22693      7.57921      9.85155        -1.007679     -0.001509     -0.142699
      1.30903      7.57921      8.97095         0.364645      0.012477     -0.059969
[...]
      2.71792      5.68441     14.56626         0.020570      0.000001     -0.031227
      1.97059      5.68441     16.95776        -0.000058      0.000001      0.031309
      9.28176      5.68441     16.00703        -0.026773      0.000001     -0.002225
      0.51819      3.79142     15.43874         0.024430      0.000709      0.001544
      9.38325      3.78626     18.01613        -0.027360      0.004356     -0.063905
      7.12329      3.77877     16.91525        -0.001350      0.003088      0.031678
      4.15003      3.79019     16.04303        -0.024190      0.000388     -0.002540
      5.64889      5.68441     15.46030         0.024054      0.000004     -0.009143
      4.23095      5.68441     18.10183        -0.013771     -0.000002     -0.060918
      3.53954      5.68441     20.49291         0.001218     -0.000001     -0.055470
      0.53179      5.68441     19.78819        -0.024920     -0.000002     -0.030223
      2.00220      3.79374     19.00564         0.010528      0.001252      0.033241
      8.65667      3.82129     20.40772         0.025452     -0.000353     -0.042498
      5.68077      3.76119     19.74360        -0.023703     -0.016738     -0.025911
      7.11906      5.68441     18.92853         0.017664      0.000003      0.002082
    total drift:                                0.004933      0.000008     -0.070690

  FREE ENERGIE OF THE ION-ELECTRON SYSTEM (eV)
  free  energy   TOTEN  =     -1331.16497014 eV

  energy  without entropy=    -1331.16497014  energy(sigma->0) =    -1331.16497014