 vasp.6.3.0 20Jan22 (build Apr  1 2022 16:44:48) gamma-only
 executed on        HPECrayEX_GCC date 2023.02.22  03:35:59

 INCAR:
   SYSTEM = MgO-rocksalt
   ISMEAR = 0
   SIGMA = 0.05
   EDIFF = 1E-6
   ALGO = ALL
   ISTART = 0
   IBRION = -1
   NSW = 0
   ISYM = 0
   DIPOL = 0.5 0.5 0.5
   IDIPOL = 3
   LDIPOL = .TRUE.
   GGA = PE
   IVDW = 1
   VDW_C6 = 0.63 0.70
   VDW_R0 = 1.243 1.342
   ENCUT = 520
   PREC = Accurate
   LASPH = .TRUE.
   LREAL = Auto
   ISPIN = 1
   NELM = 200
   NELMIN = 8
   NCORE = 8
   KPAR = 1
   LWAVE = .FALSE.
   LCHARG = .FALSE.

 POTCAR:    PAW_PBE Mg_pv 13Apr2007
 POTCAR:    PAW_PBE O 08Apr2002
 POTCAR:    PAW_PBE Mg_pv 13Apr2007
   VRHFIN =Mg: p6s2

   TITEL  = PAW_PBE Mg_pv 13Apr2007
   POMASS =   24.305; ZVAL   =    8.000    mass and valenz
   ENMAX  =  403.929; ENMIN  =  302.947 eV

   TITEL  = PAW_PBE O 08Apr2002
   POMASS =   16.000; ZVAL   =    6.000    mass and valenz
   ENMAX  =  400.000; ENMIN  =  300.000 eV

 Optimization of the real space projectors (new method)

 maximal supplied QI-value         = 18.90
 optimisation between [QCUT,QGAM] = [ 11.53, 23.24] = [ 37.21,151.29] Ry
 Optimized for a Real-space Cutoff    1.28 Angstroem

   l    n(q)    QCUT    max X(q) W(low)/X(q) W(high)/X(q)  e(spline)
   1      8    11.527     2.974    0.44E-04    0.56E-04    0.12E-06
   1      8    11.527     4.279    0.12E-03    0.12E-03    0.26E-06
   0      9    11.527    16.381    0.46E-04    0.64E-04    0.78E-07
   0      9    11.527     5.611    0.26E-04    0.43E-04    0.55E-07
   2      8    11.527     4.652    0.22E-03    0.72E-04    0.47E-07
 Optimization of the real space projectors (new method)

 maximal supplied QI-value         = 24.76
 optimisation between [QCUT,QGAM] = [ 11.64, 23.27] = [ 37.91,151.63] Ry
 Optimized for a Real-space Cutoff    1.14 Angstroem

   l    n(q)    QCUT    max X(q) W(low)/X(q) W(high)/X(q)  e(spline)
   0      8    11.635    20.381    0.10E-03    0.33E-03    0.24E-06
   0      8    11.635    15.268    0.11E-03    0.35E-03    0.26E-06
   1      7    11.635     5.964    0.24E-03    0.31E-03    0.30E-06
   1      7    11.635     5.382    0.22E-03    0.25E-03    0.26E-06
  PAW_PBE Mg_pv 13Apr2007               :
  PAW_PBE O 08Apr2002                   :

 POSCAR: Mg  O
  positions in direct lattice
 exchange correlation table for  LEXCH =        8
   RHO(1)=    0.500       N(1)  =     2000
   RHO(2)=  100.500       N(2)  =     4000

 ion  position               nearest neighbor table
   1  0.125  0.000  0.352- 129 2.11 131 2.11 132 2.11 148 2.11 171 2.11
   2  0.250  0.125  0.352- 130 2.11 131 2.11 132 2.11 140 2.11 147 2.11
   3  0.125  0.125  0.451- 135 2.11 131 2.11 129 2.11 130 2.11 137 2.11 146 2.11
   4  0.250  0.000  0.451- 136 2.11 132 2.11 129 2.11 130 2.11 145 2.11 170 2.11
   5  0.125  1.000  0.550- 152 2.11 175 2.11 135 2.11 136 2.11 129 2.11 133 2.14
   6  0.250  0.125  0.550- 144 2.11 151 2.11 135 2.11 136 2.11 130 2.11 134 2.14
   7  0.125  0.125  0.648- 135 2.10 134 2.10 150 2.11 141 2.11 133 2.11
   8  0.250  1.000  0.648- 136 2.10 134 2.10 174 2.11 149 2.11 133 2.11
   9  0.125  0.250  0.352- 137 2.11 131 2.11 139 2.11 140 2.11 156 2.11
  10  0.250  0.375  0.352- 138 2.11 139 2.11 140 2.11 155 2.11 164 2.11
  11  0.125  0.375  0.451- 139 2.11 138 2.11 137 2.11 154 2.11 161 2.11 143 2.11
  12  0.250  0.250  0.451- 144 2.11 140 2.11 138 2.11 130 2.11 137 2.11 153 2.11
  13  0.125  0.250  0.550- 144 2.10 160 2.11 143 2.11 135 2.11 137 2.11 141 2.14
  14  0.250  0.375  0.550- 159 2.09 144 2.11 168 2.11 143 2.12 138 2.12 142 2.15
  15  0.125  0.375  0.648- 143 2.09 142 2.10 158 2.11 141 2.11 165 2.11
  16  0.250  0.250  0.647- 144 2.09 157 2.09 141 2.11 134 2.11 142 2.12
  17  0.375  0.000  0.352- 145 2.11 132 2.11 147 2.11 187 2.11 212 2.11
  18  0.000  0.125  0.352- 146 2.11 131 2.11 148 2.11 156 2.11 211 2.11
  19  0.375  0.125  0.451- 151 2.11 147 2.11 130 2.11 145 2.11 153 2.11 210 2.11
  20  0.000  0.000  0.451- 148 2.11 146 2.11 129 2.11 186 2.11 209 2.11 152 2.11
  21  0.375  1.000  0.550- 151 2.10 191 2.11 216 2.11 136 2.11 145 2.11 149 2.14
  22  0.000  0.125  0.550- 135 2.11 215 2.11 152 2.11 160 2.11 146 2.11 150 2.14
  23  0.375  0.125  0.647- 151 2.08 157 2.09 149 2.11 134 2.11 214 2.12
  24  0.000  1.000  0.648- 152 2.10 133 2.11 213 2.11 190 2.11 150 2.11
  25  0.375  0.250  0.352- 153 2.11 147 2.11 140 2.11 155 2.11 220 2.11
  26  0.000  0.375  0.352- 154 2.11 139 2.11 156 2.11 180 2.11 219 2.11
  27  0.375  0.375  0.451- 155 2.11 153 2.11 138 2.11 177 2.11 218 2.11 159 2.12
  28  0.000  0.250  0.451- 156 2.11 146 2.11 154 2.11 137 2.11 217 2.11 160 2.11
  29  0.375  0.250  0.550- 159 2.10 224 2.10 157 2.11 151 2.12 144 2.12 153 2.13
  30  0.000  0.375  0.550- 143 2.11 223 2.11 184 2.11 160 2.11 154 2.12 158 2.14
  31  0.375  0.375  0.651- 222 2.11 157 2.13 142 2.13 181 2.14 159 2.15
  32  0.000  0.250  0.648- 160 2.10 141 2.11 221 2.11 150 2.11 158 2.11
  33  0.125  0.500  0.352- 161 2.11 139 2.11 163 2.11 164 2.11 180 2.11
  34  0.250  0.625  0.352- 162 2.11 163 2.11 164 2.11 172 2.11 179 2.11
  35  0.125  0.625  0.451- 167 2.11 163 2.11 161 2.11 162 2.11 169 2.11 178 2.11
  36  0.250  0.500  0.451- 168 2.11 164 2.11 162 2.11 138 2.11 161 2.11 177 2.11
  37  0.125  0.500  0.550- 168 2.10 184 2.11 143 2.11 167 2.11 161 2.11 165 2.14
  38  0.250  0.625  0.550- 183 2.11 168 2.11 176 2.11 162 2.11 167 2.11 166 2.14
  39  0.125  0.625  0.648- 167 2.10 166 2.10 182 2.11 165 2.11 173 2.11
  40  0.250  0.500  0.647- 168 2.08 181 2.09 165 2.11 166 2.11 142 2.12
  41  0.125  0.750  0.352- 169 2.11 163 2.11 171 2.11 172 2.11 188 2.11
  42  0.250  0.875  0.352- 170 2.11 132 2.11 171 2.11 172 2.11 187 2.11
  43  0.125  0.875  0.451- 175 2.11 171 2.11 170 2.11 129 2.11 169 2.11 186 2.11
  44  0.250  0.750  0.451- 176 2.11 172 2.11 170 2.11 162 2.11 169 2.11 185 2.11
  45  0.125  0.750  0.550- 175 2.11 192 2.11 167 2.11 176 2.11 169 2.11 173 2.14
  46  0.250  0.875  0.550- 176 2.11 136 2.11 175 2.11 191 2.11 170 2.11 174 2.14
  47  0.125  0.875  0.648- 175 2.10 133 2.11 173 2.11 190 2.11 174 2.11
  48  0.250  0.750  0.648- 176 2.10 166 2.10 174 2.11 189 2.11 173 2.11
  49  0.375  0.500  0.352- 177 2.11 164 2.11 155 2.11 179 2.11 244 2.11
  50  0.000  0.625  0.352- 178 2.11 163 2.11 180 2.11 188 2.11 243 2.11
  51  0.375  0.625  0.451- 183 2.11 179 2.11 162 2.11 177 2.11 185 2.11 242 2.11
  52  0.000  0.500  0.451- 180 2.11 161 2.11 178 2.11 154 2.11 241 2.11 184 2.11
  53  0.375  0.500  0.550- 159 2.10 248 2.10 181 2.11 168 2.12 183 2.12 177 2.13
  54  1.000  0.625  0.550- 247 2.11 167 2.11 192 2.11 184 2.11 178 2.11 182 2.14
  55  0.375  0.625  0.647- 183 2.09 181 2.09 189 2.11 166 2.11 246 2.12
  56  0.000  0.500  0.648- 184 2.10 245 2.11 165 2.11 182 2.11 158 2.11
  57  0.375  0.750  0.352- 185 2.11 179 2.11 172 2.11 187 2.11 252 2.11
  58  0.000  0.875  0.352- 186 2.11 171 2.11 148 2.11 188 2.11 251 2.11
  59  0.375  0.875  0.451- 187 2.11 170 2.11 185 2.11 145 2.11 250 2.11 191 2.11
  60  0.000  0.750  0.451- 188 2.11 178 2.11 186 2.11 169 2.11 249 2.11 192 2.11
[...]
 242  0.500  0.625  0.451- 114 2.11  99 2.11  51 2.11 116 2.11 124 2.11 118 2.12
 243  0.875  0.625  0.352- 115 2.11  98 2.11 113 2.11  50 2.11 121 2.11
 244  0.500  0.500  0.352- 116 2.11  90 2.11  97 2.11 114 2.11  49 2.11
 245  0.875  0.500  0.650-  56 2.11 119 2.11 104 2.11  95 2.11 117 2.14
 246  0.500  0.626  0.651- 128 2.10 103 2.12  55 2.12 120 2.14 118 2.16
 247  0.875  0.625  0.549- 119 2.10  54 2.11 115 2.11 125 2.11 102 2.11 117 2.11
 248  0.500  0.501  0.550- 118 2.09  53 2.10 101 2.10 116 2.12  94 2.12 120 2.14
 249  0.875  0.750  0.451- 121 2.11 108 2.11 115 2.11  60 2.11 123 2.11 125 2.11
 250  0.500  0.875  0.451- 122 2.11  84 2.11 107 2.11  59 2.11 124 2.11 126 2.12
 251  0.875  0.875  0.352- 123 2.11  81 2.11 106 2.11 121 2.11  58 2.11
 252  0.500  0.750  0.352- 124 2.11 105 2.11 114 2.11 122 2.11  57 2.11
 253  0.875  0.750  0.650-  64 2.11 127 2.11 112 2.11 119 2.11 125 2.14
 254  0.500  0.875  0.650- 128 2.11  88 2.11  63 2.11 111 2.11 126 2.14
 255  0.875  0.875  0.549- 127 2.10  85 2.11  62 2.11 125 2.11 123 2.11 110 2.11
 256  0.500  0.750  0.550- 128 2.09 126 2.11 109 2.11  61 2.11 124 2.11 118 2.12

IMPORTANT INFORMATION: All symmetrisations will be switched off!
NOSYMM: (Re-)initialisation of all symmetry stuff for point group C_1.

                                     Primitive cell

  volume of cell :    6078.6138

  direct lattice vectors                    reciprocal lattice vectors
    16.881164524  0.000000000  0.000000000     0.059237619  0.000000000  0.000000000
     0.000000000 16.881164524  0.000000000     0.000000000  0.059237619  0.000000000
     0.000000000  0.000000000 21.330436697     0.000000000  0.000000000  0.046881366

  length of vectors
    16.881164524 16.881164524 21.330436697     0.059237619  0.059237619  0.046881366

  position of ions in fractional coordinates (direct lattice)
     0.125000000  0.000000000  0.351610242
     0.250000000  0.125000000  0.351610242
     0.125000000  0.125000000  0.450536747
     0.250000000  0.000000000  0.450536747
     0.124943395  0.999932730  0.549682781
     0.249940047  0.124981930  0.549559326
     0.124909329  0.124819445  0.647725645
     0.249826340  0.999885417  0.647710752
     0.125000000  0.250000000  0.351610242
     0.250000000  0.375000000  0.351610242
     0.125000000  0.375000000  0.450536747
     0.250000000  0.250000000  0.450536747
     0.124975963  0.250008431  0.549645673
     0.250385847  0.374956210  0.549913777
     0.124839384  0.374999508  0.647738270
     0.249861640  0.249645525  0.647291492
     0.375000000  0.000000000  0.351610242
     0.000000000  0.125000000  0.351610242
     0.375000000  0.125000000  0.450536747
     0.000000000  0.000000000  0.450536747
     0.375023842  0.999948640  0.549611160
     0.000009066  0.124936412  0.549668638
     0.374642766  0.124841517  0.647004938
     0.000012448  0.999904702  0.647819373
     0.375000000  0.250000000  0.351610242
     0.000000000  0.375000000  0.351610242
     0.375000000  0.375000000  0.450536747
     0.000000000  0.250000000  0.450536747
     0.375462919  0.250385952  0.550264382
     0.000001359  0.375002872  0.549712399
     0.375274480  0.374521903  0.650677421
     0.000010574  0.249837399  0.647779731
     0.125000000  0.500000000  0.351610242
     0.250000000  0.625000000  0.351610242
     0.125000000  0.625000000  0.450536747
     0.250000000  0.500000000  0.450536747
     0.124927887  0.499996435  0.549596682
     0.249970862  0.625077583  0.549529587
     0.124888723  0.625206380  0.647704019
     0.249836322  0.500400071  0.646928357
     0.125000000  0.750000000  0.351610242
     0.250000000  0.875000000  0.351610242
     0.125000000  0.875000000  0.450536747
     0.250000000  0.750000000  0.450536747
     0.124937543  0.750070397  0.549684606
     0.249956260  0.874990525  0.549670698
     0.124909674  0.874998109  0.647800722
     0.249825067  0.750106841  0.647717456
     0.375000000  0.500000000  0.351610242
     0.000000000  0.625000000  0.351610242
     0.375000000  0.625000000  0.450536747
     0.000000000  0.500000000  0.450536747
[...]
  14.77330937 10.55259271 11.71943057
   8.43968798  8.44947287 11.72827126
  14.77101896 12.66087339  9.61014557
   8.44058226 14.77101896  9.61014557
  14.77101896 14.77101896  7.50000000
   8.44058226 12.66087339  7.50000000
  14.77398816 12.66396229 13.86210204
   8.44073771 14.77050308 13.86588169
  14.77208137 14.77127304 11.71999142
   8.44073067 12.66192073 11.72221622

--------------------------------------- Iteration      FINAL  ---------------------------------------

--------------------OUTCAR has been truncated-------------------------

[...]

--------------------OUTCAR has been truncated-------------------------

  DFT-D2 method for vdW energy calculation

  Parameters of vdW forcefield:
         C6(Jnm^6/mol)     R0(A)
   Mg       0.630          1.243
   O        0.700          1.342

  vdW correction parametrized for the method pbe

  IVDW =   1
  VDW_RADIUS =    50.000 A
  VDW_S6 =     0.750
  VDW_SR =     1.000
  VDW_D =    20.000
  LVDW_EWALD = F

  Number of pair interactions contributing to vdW energy: 2859915
  Edisp (eV):  -14.53850

  FORCE on cell =-STRESS in cart. coord.  units (eV):
  Direction    XX          YY          ZZ          XY          YZ          ZX
  Alpha Z  3501.42050  3501.42050  3501.42050
  Ewald  647164.15855647164.18150************    -0.01210     0.02833    -0.00517
  Hartree687425.90238687425.90617************    -0.00705     0.02187    -0.01471
  E(xc)   -9827.59380 -9827.59390 -9848.32534    -0.00002    -0.00015    -0.00011
  Local  ************************************     0.01917    -0.04471     0.02519
  n-local-11239.27553-11239.25254-11319.31598    -0.00068    -0.00747    -0.00254
  augment  4189.30328  4189.30067  4153.00445    -0.00036    -0.00115    -0.00130
  Kinetic 29210.00865 29210.00811 29377.52876     0.00003     0.01040     0.00427
  Fock        0.00000     0.00000     0.00000     0.00000     0.00000     0.00000
  vdW       -21.22315   -21.22311   -17.29008     0.00000    -0.00012    -0.00008
  Total     -82.89068   -82.86928    21.72490    -0.00101     0.00700     0.00554
  in kB     -21.84800   -21.84236     5.72617    -0.00027     0.00185     0.00146

 VOLUME and BASIS-vectors are now :
  energy-cutoff  :      520.00
  volume of cell :     6078.61
      direct lattice vectors                 reciprocal lattice vectors
    16.881164524  0.000000000  0.000000000     0.059237619  0.000000000  0.000000000
     0.000000000 16.881164524  0.000000000     0.000000000  0.059237619  0.000000000
     0.000000000  0.000000000 21.330436697     0.000000000  0.000000000  0.046881366

  length of vectors
    16.881164524 16.881164524 21.330436697     0.059237619  0.059237619  0.046881366

 FORCES acting on ions:
    Electron-Ion                     Ewald-Force                    Non-Local-Force
   -.317E+00 -.349E+00 0.207E+04   0.307E+00 0.338E+00 -.206E+04   0.774E-02 0.823E-02 -.705E+01
   -.784E+00 -.796E+00 0.207E+04   0.773E+00 0.785E+00 -.206E+04   0.881E-02 0.893E-02 -.703E+01
   -.692E+00 -.962E+00 0.688E+03   0.652E+00 0.932E+00 -.688E+03   0.293E-01 0.224E-01 0.373E+00
   -.898E+00 -.750E+00 0.688E+03   0.867E+00 0.709E+00 -.688E+03   0.232E-01 0.309E-01 0.374E+00
   -.706E+00 -.760E+00 -.690E+03   0.687E+00 0.737E+00 0.690E+03   0.164E-01 0.196E-01 -.288E+00
   -.174E+01 -.181E+01 -.687E+03   0.161E+01 0.170E+01 0.688E+03   0.911E-01 0.686E-01 -.238E+00
   0.990E-01 -.126E+01 -.206E+04   -.809E-01 0.126E+01 0.205E+04   -.397E-01 -.558E-02 0.615E+01
   -.131E+01 0.598E-01 -.206E+04   0.133E+01 -.416E-01 0.205E+04   -.840E-02 -.391E-01 0.615E+01
   -.598E+00 -.455E+00 0.207E+04   0.588E+00 0.448E+00 -.206E+04   0.730E-02 0.565E-02 -.704E+01
   -.116E+01 0.535E-01 0.207E+04   0.115E+01 -.536E-01 -.206E+04   0.838E-02 -.353E-04 -.704E+01
   -.152E+01 0.132E+00 0.686E+03   0.153E+01 -.133E+00 -.687E+03   -.173E-02 0.870E-03 0.419E+00
   -.294E+01 -.158E+01 0.686E+03   0.293E+01 0.159E+01 -.686E+03   0.121E-01 -.877E-02 0.415E+00
   -.485E+00 -.147E+01 -.689E+03   0.448E+00 0.146E+01 0.690E+03   -.294E-02 -.524E-02 -.286E+00
   -.244E+01 0.810E-01 -.696E+03   0.256E+01 -.108E+00 0.696E+03   -.209E+00 0.280E-01 0.170E-02
   0.190E+00 -.112E+00 -.206E+04   -.157E+00 0.127E+00 0.205E+04   -.777E-01 -.830E-02 0.605E+01
   0.110E+01 -.348E+01 -.205E+04   -.138E+01 0.330E+01 0.204E+04   0.860E-01 0.169E+00 0.612E+01
   -.483E+00 -.638E+00 0.207E+04   0.476E+00 0.628E+00 -.206E+04   0.556E-02 0.792E-02 -.704E+01
   0.131E-01 -.480E+00 0.207E+04   -.130E-01 0.468E+00 -.206E+04   -.448E-04 0.972E-02 -.705E+01
   -.168E+01 -.300E+01 0.686E+03   0.170E+01 0.299E+01 -.687E+03   -.922E-02 0.124E-01 0.400E+00
   0.167E-01 -.465E+00 0.688E+03   -.165E-01 0.447E+00 -.688E+03   -.137E-03 0.131E-01 0.397E+00
   -.143E+01 -.460E+00 -.689E+03   0.143E+01 0.408E+00 0.689E+03   -.370E-02 0.111E-01 -.273E+00
   0.670E-01 -.137E+01 -.690E+03   -.646E-01 0.134E+01 0.690E+03   -.360E-02 0.304E-01 -.296E+00
   -.343E+01 0.728E+00 -.205E+04   0.327E+01 -.988E+00 0.204E+04   0.147E+00 0.826E-01 0.608E+01
   0.144E-01 -.103E+01 -.206E+04   -.128E-01 0.101E+01 0.205E+04   -.244E-02 0.228E-01 0.617E+01
   -.894E+00 -.852E+00 0.207E+04   0.889E+00 0.846E+00 -.206E+04   0.405E-02 0.480E-02 -.703E+01
   0.343E-01 0.234E-01 0.207E+04   -.346E-01 -.226E-01 -.206E+04   0.237E-03 -.652E-03 -.704E+01
   -.339E+01 0.141E+00 0.682E+03   0.337E+01 -.151E+00 -.682E+03   0.258E-01 0.700E-02 0.587E+00
   0.873E-02 -.766E+00 0.687E+03   -.597E-02 0.748E+00 -.687E+03   -.171E-02 0.134E-01 0.397E+00
   -.324E+01 -.295E+01 -.694E+03   0.336E+01 0.308E+01 0.694E+03   -.184E+00 -.193E+00 -.409E+00
   0.110E+00 0.468E-01 -.691E+03   -.110E+00 -.491E-01 0.691E+03   -.407E-03 0.143E-02 -.294E+00
   0.121E+01 -.209E+01 -.208E+04   -.219E+01 0.197E+01 0.207E+04   0.593E+00 0.175E+00 0.700E+01
   0.122E+00 -.135E+01 -.206E+04   -.132E+00 0.131E+01 0.205E+04   0.543E-02 0.493E-01 0.615E+01
   -.571E+00 0.497E+00 0.207E+04   0.561E+00 -.489E+00 -.206E+04   0.807E-02 -.627E-02 -.704E+01
   -.785E+00 0.767E+00 0.207E+04   0.773E+00 -.754E+00 -.206E+04   0.899E-02 -.966E-02 -.703E+01
   -.616E+00 0.878E+00 0.688E+03   0.576E+00 -.844E+00 -.688E+03   0.298E-01 -.256E-01 0.367E+00
   -.290E+01 0.169E+01 0.686E+03   0.288E+01 -.171E+01 -.687E+03   0.163E-01 0.726E-02 0.382E+00
   -.371E+00 0.154E+01 -.689E+03   0.320E+00 -.153E+01 0.689E+03   0.142E-01 0.362E-02 -.273E+00
   -.182E+01 0.168E+01 -.687E+03   0.172E+01 -.155E+01 0.688E+03   0.710E-01 -.944E-01 -.238E+00
   0.607E-02 0.139E+01 -.206E+04   0.122E-01 -.141E+01 0.205E+04   -.374E-01 0.120E-01 0.615E+01
   0.706E+00 0.370E+01 -.205E+04   -.943E+00 -.355E+01 0.204E+04   0.659E-01 -.149E+00 0.607E+01
   -.311E+00 0.307E+00 0.207E+04   0.301E+00 -.297E+00 -.206E+04   0.758E-02 -.761E-02 -.705E+01
   -.467E+00 -.243E-01 0.207E+04   0.455E+00 0.232E-01 -.206E+04   0.942E-02 0.692E-03 -.705E+01
   -.410E+00 -.535E-01 0.688E+03   0.394E+00 0.508E-01 -.688E+03   0.119E-01 0.201E-02 0.378E+00
   -.943E+00 0.637E+00 0.688E+03   0.914E+00 -.595E+00 -.688E+03   0.217E-01 -.304E-01 0.374E+00
   -.692E+00 0.732E+00 -.690E+03   0.667E+00 -.708E+00 0.690E+03   0.210E-01 -.217E-01 -.294E+00
   -.127E+01 -.789E-01 -.690E+03   0.124E+01 0.758E-01 0.690E+03   0.256E-01 0.395E-02 -.301E+00
   -.994E+00 -.815E-02 -.206E+04   0.974E+00 0.687E-02 0.205E+04   0.213E-01 0.477E-03 0.616E+01
   -.132E+01 0.556E-01 -.206E+04   0.134E+01 -.699E-01 0.205E+04   -.105E-01 0.326E-01 0.616E+01
   -.906E+00 0.897E+00 0.207E+04   0.899E+00 -.890E+00 -.206E+04   0.474E-02 -.476E-02 -.703E+01
   0.278E-01 0.480E+00 0.207E+04   -.281E-01 -.467E+00 -.206E+04   0.235E-03 -.959E-02 -.705E+01
   -.169E+01 0.285E+01 0.686E+03   0.171E+01 -.284E+01 -.686E+03   -.871E-02 -.177E-01 0.402E+00
   0.129E+00 0.821E+00 0.687E+03   -.133E+00 -.802E+00 -.687E+03   0.238E-02 -.144E-01 0.411E+00
   -.318E+01 0.309E+01 -.693E+03   0.329E+01 -.320E+01 0.693E+03   -.172E+00 0.177E+00 -.438E+00
   0.424E-01 0.133E+01 -.690E+03   -.460E-01 -.129E+01 0.690E+03   0.399E-02 -.307E-01 -.300E+00
   -.395E+01 -.862E+00 -.205E+04   0.379E+01 0.113E+01 0.204E+04   0.153E+00 -.858E-01 0.611E+01
   -.417E-01 0.132E+01 -.206E+04   0.493E-01 -.127E+01 0.205E+04   -.454E-02 -.486E-01 0.616E+01
   -.482E+00 0.593E+00 0.207E+04   0.474E+00 -.583E+00 -.206E+04   0.597E-02 -.758E-02 -.704E+01
   0.900E-02 -.229E-01 0.207E+04   -.907E-02 0.222E-01 -.206E+04   0.533E-04 0.454E-03 -.705E+01
   -.774E+00 -.339E-03 0.687E+03   0.755E+00 -.482E-02 -.688E+03   0.143E-01 0.354E-02 0.394E+00
   0.225E-01 0.418E+00 0.688E+03   -.229E-01 -.401E+00 -.688E+03   0.359E-03 -.131E-01 0.382E+00
[...]
   0.338E+00 0.424E+00 0.156E+04   -.330E+00 -.416E+00 -.156E+04   -.796E-02 -.146E-01 0.349E+01
   -.238E-01 0.783E+00 0.155E+04   0.241E-01 -.775E+00 -.156E+04   -.364E-03 -.109E-01 0.349E+01
   0.119E+01 0.120E+01 -.156E+04   -.120E+01 -.125E+01 0.157E+04   -.230E-01 0.429E-01 -.514E+01
   -.336E+00 0.620E+01 -.157E+04   0.398E+00 -.605E+01 0.157E+04   -.863E-01 -.429E+00 -.517E+01
   0.710E+00 0.116E+01 -.512E+03   -.709E+00 -.117E+01 0.512E+03   -.177E-01 -.681E-02 0.187E+00
   -.397E+00 0.398E+01 -.521E+03   0.423E+00 -.402E+01 0.521E+03   -.251E-01 -.949E-01 0.152E+00
   0.352E+00 0.368E+00 0.516E+03   -.350E+00 -.367E+00 -.516E+03   -.187E-03 -.175E-02 -.948E-01
   -.967E-03 -.220E-01 0.515E+03   0.278E-04 0.187E-01 -.515E+03   0.124E-02 0.278E-02 -.625E-01
   0.214E+00 -.180E-01 0.156E+04   -.209E+00 0.174E-01 -.156E+04   -.436E-02 0.408E-02 0.348E+01
   -.278E-03 0.510E+00 0.155E+04   -.496E-04 -.505E+00 -.156E+04   0.452E-03 -.697E-02 0.349E+01
   0.708E+00 0.729E+00 -.156E+04   -.725E+00 -.750E+00 0.157E+04   0.907E-02 0.124E-01 -.504E+01
   -.220E-01 -.515E-01 -.156E+04   0.243E-01 0.533E-01 0.157E+04   -.250E-02 0.283E-02 -.511E+01
   0.582E+00 -.151E-01 -.512E+03   -.593E+00 0.129E-01 0.512E+03   0.626E-02 0.229E-02 0.197E+00
   0.380E-01 0.262E+01 -.513E+03   -.355E-01 -.268E+01 0.513E+03   -.326E-02 0.242E-01 0.267E+00
   -.671E-01 -.838E-01 0.601E+02   0.135E-11 0.115E-11 0.482E-10   0.658E-01 0.614E-01 -.601E+02

 POSITION                                       TOTAL-FORCE (eV/Angst)
      2.11015      0.00000      7.50000        -0.002185     -0.002343      0.351741
      4.22029      2.11015      7.50000        -0.002591     -0.002362      0.347293
      2.11015      2.11015      9.61015        -0.009854     -0.007072      0.005795
      4.22029      0.00000      9.61015        -0.007583     -0.010059      0.006876
      2.10919     16.88003     11.72497        -0.002373     -0.003504      0.039929
      4.21928      2.10984     11.72234        -0.037557     -0.039349      0.032399
      2.10861      2.10710     13.81627        -0.020735     -0.001706      0.042247
      4.21736     16.87923     13.81595         0.002366     -0.020063      0.046542
      2.11015      4.22029      7.50000        -0.001974     -0.001457      0.349528
      4.22029      6.33044      7.50000        -0.002425     -0.000059      0.349492
      2.11015      6.33044      9.61015         0.005451     -0.000554      0.014300
      4.22029      4.22029      9.61015         0.004109      0.004479      0.005196
      2.10974      4.22043     11.72418        -0.038084     -0.009755      0.047942
      4.22680      6.32970     11.72990        -0.084283      0.001261      0.019437
      2.10743      6.33043     13.81654        -0.043704      0.006399      0.087497
      4.21796      4.21431     13.80701        -0.182079     -0.016842      0.105076
      6.33044      0.00000      7.50000        -0.001599     -0.002238      0.349045
      0.00000      2.11015      7.50000         0.000011     -0.002642      0.351407
      6.33044      2.11015      9.61015         0.004825      0.003420      0.001338
      0.00000      0.00000      9.61015         0.000022     -0.004009      0.009547
      6.33084     16.88030     11.72345        -0.012886     -0.039424      0.051575
      0.00015      2.10907     11.72467        -0.001119     -0.001279      0.045265
      6.32441      2.10747     13.80090        -0.014475     -0.173137      0.147600
      0.00021     16.87956     13.81827        -0.000811      0.001541      0.035234
      6.33044      4.22029      7.50000        -0.001443     -0.001385      0.347309
      0.00000      6.33044      7.50000        -0.000068      0.000206      0.348695
      6.33044      6.33044      9.61015        -0.000291     -0.002903      0.007283
      0.00000      4.22029      9.61015         0.001017     -0.004343      0.008589
      6.33825      4.22681     11.73738        -0.059213     -0.057262     -0.113915
      0.00002      6.33049     11.72561        -0.000325     -0.000831      0.053934
      6.33507      6.32237     13.87923        -0.372601      0.051557     -0.502648
      0.00018      4.21755     13.81742        -0.004074      0.006735      0.046523
      2.11015      8.44058      7.50000        -0.002260      0.001816      0.349171
      4.22029     10.55073      7.50000        -0.002639      0.003106      0.347464
      2.11015     10.55073      9.61015        -0.009852      0.008755      0.006055
      4.22029      8.44058      9.61015         0.001275     -0.004103     -0.000972
      2.10893      8.44052     11.72314        -0.035586      0.011306      0.054275
      4.21980     10.55204     11.72171        -0.035792      0.037339      0.035736
      2.10827     10.55421     13.81581        -0.018409     -0.004297      0.045759
      4.21753      8.44734     13.79926        -0.166729      0.003028      0.156998
      2.11015     12.66087      7.50000        -0.002066      0.002334      0.352313
      4.22029     14.77102      7.50000        -0.002729     -0.000288      0.351947
      2.11015     14.77102      9.61015        -0.003562     -0.000668      0.009218
      4.22029     12.66087      9.61015        -0.007054      0.010763      0.006856
      2.10909     12.66206     11.72501        -0.004278      0.002353      0.037958
      4.21955     14.77086     11.72472        -0.003629      0.000879      0.043546
      2.10862     14.77099     13.81787         0.001993     -0.000699      0.034743
      4.21734     12.66268     13.81610         0.001962      0.017693      0.042543
      6.33044      8.44058      7.50000        -0.001538      0.001578      0.346656
      0.00000     10.55073      7.50000        -0.000061      0.002932      0.351529
      6.33044     10.55073      9.61015         0.004336     -0.001618      0.004872
      0.00000      8.44058      9.61015        -0.001367      0.004814      0.008113
      6.33656      8.43260     11.73581        -0.057881      0.063392     -0.107817
     16.88107     10.55172     11.72460         0.000339      0.005011      0.046609
      6.32383     10.55317     13.80597        -0.002802      0.176567      0.111688
      0.00007      8.44320     13.81765         0.002971     -0.004110      0.047539
      6.33044     12.66087      7.50000        -0.001816      0.002298      0.349884
      0.00000     14.77102      7.50000        -0.000009     -0.000133      0.352500
      6.33044     14.77102      9.61015        -0.004814     -0.001498      0.007814
      0.00000     12.66087      9.61015        -0.000075      0.004324      0.010065
[...]
      8.44058     10.55073      9.61015        -0.000887     -0.010469      0.043189
     14.77102     10.55073      7.50000         0.000146     -0.006279     -0.518605
      8.44058      8.44058      7.50000        -0.000092     -0.002960     -0.519960
     14.77453      8.44448     13.86359        -0.031099     -0.009413      0.048469
      8.44180     10.56844     13.88661        -0.023970     -0.283022     -0.010107
     14.77331     10.55259     11.71943        -0.016352     -0.013064     -0.031235
      8.43969      8.44947     11.72827         0.000935     -0.131894      0.133919
     14.77102     12.66087      9.61015         0.001260     -0.000761      0.015689
      8.44058     14.77102      9.61015         0.000310     -0.000462      0.027690
     14.77102     14.77102      7.50000         0.001156      0.003564     -0.520766
      8.44058     12.66087      7.50000         0.000130     -0.001802     -0.518264
     14.77399     12.66396     13.86210        -0.007621     -0.008553      0.076657
      8.44074     14.77050     13.86588        -0.000212      0.004645      0.051676
     14.77208     14.77127     11.71999        -0.003917      0.000139     -0.027295
      8.44073     12.66192     11.72222        -0.000799     -0.035481     -0.029660
    total drift:                               -0.001321     -0.022393      0.053185

  FREE ENERGIE OF THE ION-ELECTRON SYSTEM (eV)
  free  energy   TOTEN  =     -1502.55216690 eV

  energy  without entropy=    -1502.55216690  energy(sigma->0) =    -1502.55216690