 vasp.6.3.0 20Jan22 (build Dec 25 2023 18:06:01) complex
 executed on        HPECrayEX_GCC date 2024.11.22  13:20:44

 INCAR:
   SYSTEM = TiO2
   ISMEAR = 0
   SIGMA = 0.05
   EDIFF = 1E-7
   ALGO = ALL
   ISTART = 0
   IBRION = 2
   NSW = 1000
   ISYM = 0
   ISIF = 2
   EDIFFG = -0.01
   DIPOL = 0.5 0.5 0.5
   IDIPOL = 3
   LDIPOL = .TRUE.
   GGA = RE
   AGGAC = 0.0
   LUSE_VDW = .TRUE.
   LASPH = .TRUE.
   ENCUT = 600
   PREC = Accurate
   LASPH = .TRUE.
   LREAL = .FALSE.
   ISPIN = 1
   NELM = 200
   NELMIN = 8
   NCORE = 8
   KPAR = 1
   LWAVE = .FALSE.
   LCHARG = .FALSE.

 POTCAR:    PAW_PBE C 08Apr2002
 POTCAR:    PAW_PBE O 08Apr2002
 POTCAR:    PAW_PBE Ti_pv 07Sep2000
 POTCAR:    PAW_PBE O 08Apr2002
|               ----> ADVICE to this user running VASP <----                  |
|     You have switched on vdW-DFT.                                           |
|     This routine was written and supplied by Jiri Klimes. We recommend      |
|     that you carefully read and cite the following publications:            |
|       J. Klimes, D.R. Bowler, A. Michelides                                 |
|          J. Phys.: Cond Matt. 22 022201 (2010)                              |
|       J. Klimes, D.R. Bowler, A. Michelides                                 |
|          Phys. Rev. B. 83, 195131 (2011)                                    |
|     and references therein.                                                 |

   TITEL  = PAW_PBE C 08Apr2002
   POMASS =   12.011; ZVAL   =    4.000    mass and valenz
   ENMAX  =  400.000; ENMIN  =  300.000 eV

[...]

   TITEL  = PAW_PBE Ti_pv 07Sep2000
   POMASS =   47.880; ZVAL   =   10.000    mass and valenz
   ENMAX  =  222.335; ENMIN  =  166.751 eV

   TITEL  = PAW_PBE O 08Apr2002
   POMASS =   16.000; ZVAL   =    6.000    mass and valenz
   ENMAX  =  400.000; ENMIN  =  300.000 eV

  PAW_PBE C 08Apr2002                   :
  PAW_PBE O 08Apr2002                   :
  PAW_PBE Ti_pv 07Sep2000               :
  PAW_PBE O 08Apr2002                   :

 POSCAR:  C  O Ti  O
  positions in direct lattice
  velocities in cartesian coordinates
 exchange correlation table for  LEXCH =       40
   RHO(1)=    0.500       N(1)  =     2000
   RHO(2)=  100.500       N(2)  =     4000

 ion  position               nearest neighbor table
   1  0.500  0.605  0.812-   2 1.18   3 1.18
   2  0.500  0.701  0.821-   1 1.18
   3  0.500  0.510  0.802-   1 1.18
   4  0.750  0.625  0.285-  84 1.98 144 1.98  85 1.98 145 1.98 166 2.02  87 2.02  14 3.00  34 3.00

   5  0.000  0.750  0.285-  86 1.98  87 1.98 106 1.98 107 1.98  88 2.02  35 3.00  15 3.00
   6  0.000  0.625  0.393-  88 1.98 148 1.98  89 1.98 149 1.98  90 2.02  91 2.02  16 3.00  36 3.00

[...]

  83  0.501  0.500  0.711- 237 1.84 242 1.97 243 1.97 182 1.98 183 1.99  73 2.99  53 3.01
  84  0.750  0.750  0.243-   4 1.98  14 1.98
  85  0.750  0.750  0.327-   4 1.98  14 1.98   7 2.02
  86  0.098  0.625  0.285-   5 1.98  35 1.98  44 2.02
  87  0.902  0.625  0.285-   5 1.98  35 1.98   4 2.02
  88  0.000  0.750  0.351-   6 1.98  16 1.98   5 2.02
  89  0.000  0.750  0.434-   6 1.98  16 1.98   9 2.02
  90  0.848  0.625  0.393-   7 1.98  37 1.98   6 2.02
  91  0.152  0.625  0.393-  47 1.98  77 1.98   6 2.02
  92  0.750  0.750  0.458-   8 1.98  18 1.98   7 2.02
  93  0.750  0.750  0.542-   8 1.98  18 1.98  11 2.17
  94  0.098  0.625  0.500-   9 1.98  39 1.98  48 2.02
  95  0.902  0.625  0.500-   9 1.98  39 1.98   8 2.02
  96  0.000  0.750  0.566-  10 1.92  20 1.92   9 2.05
  97  0.000  0.750  0.651-  13 1.83  10 2.05  20 2.05
  98  0.850  0.625  0.608-  10 1.87  41 2.07  11 2.07
  99  0.151  0.625  0.608-  51 1.93  81 1.93  10 2.13
 100  0.750  0.750  0.673-  11 1.89  12 2.12  22 2.14
 101  0.750  0.750  0.758-  12 1.85  22 1.85
 102  0.095  0.625  0.721-  13 1.97  43 1.97  52 2.07
 103  0.907  0.625  0.721-  43 1.98  13 1.98  12 2.07
 104  0.750  0.000  0.243-  14 1.98  24 1.98
 105  0.750  0.000  0.327-  14 1.98  24 1.98  17 2.02
 106  0.098  0.875  0.285-   5 1.98  15 1.98  54 2.02
 107  0.902  0.875  0.285-   5 1.98  15 1.98  14 2.02
 108  0.000  0.000  0.351-  16 1.98  26 1.98  15 2.02
 109  0.000  0.000  0.434-  16 1.98  26 1.98  19 2.02
 110  0.848  0.875  0.393-   7 1.98  17 1.98  16 2.02
 111  0.152  0.875  0.393-  47 1.98  57 1.98  16 2.02
 112  0.750  0.000  0.458-  18 1.98  28 1.98  17 2.02
 113  0.750  0.000  0.542-  18 1.98  28 1.98  21 2.17
 114  0.098  0.875  0.500-   9 1.98  19 1.98  58 2.02
 115  0.902  0.875  0.500-   9 1.98  19 1.98  18 2.02
 116  0.000  0.000  0.566-  20 1.92  30 1.92  19 2.05
 117  0.000  0.000  0.651-  23 1.83  30 2.05  20 2.05
 118  0.850  0.875  0.608-  20 1.87  11 2.07  21 2.07
 119  0.151  0.875  0.608-  51 1.93  61 1.93  20 2.13
 120  0.751  0.000  0.673-  21 1.88  22 2.13  32 2.14
 121  0.751  0.000  0.758-  22 1.85  32 1.85
 122  0.095  0.875  0.721-  23 1.97  13 1.97  62 2.08
 123  0.907  0.875  0.721-  23 1.97  13 1.97  22 2.07
 124  0.750  0.250  0.243-  24 1.98  34 1.98
 125  0.750  0.250  0.327-  24 1.98  34 1.98  27 2.02
 126  0.098  0.125  0.285-  15 1.98  25 1.98  64 2.02
 127  0.902  0.125  0.285-  15 1.98  25 1.98  24 2.02
 128  0.000  0.250  0.351-  26 1.98  36 1.98  25 2.02
 129  0.000  0.250  0.434-  26 1.98  36 1.98  29 2.02
 130  0.848  0.125  0.393-  17 1.98  27 1.98  26 2.02
 131  0.152  0.125  0.393-  57 1.98  67 1.98  26 2.02
 132  0.750  0.250  0.458-  28 1.98  38 1.98  27 2.02
 133  0.750  0.250  0.542-  28 1.98  38 1.98  31 2.17
 134  0.098  0.125  0.500-  19 1.98  29 1.98  68 2.02
 135  0.902  0.125  0.500-  19 1.98  29 1.98  28 2.02
 136  0.000  0.250  0.566-  40 1.92  30 1.92  29 2.05
 137  0.000  0.250  0.651-  33 1.83  40 2.05  30 2.05
 138  0.850  0.125  0.608-  30 1.87  31 2.07  21 2.07
 139  0.151  0.125  0.608-  61 1.93  71 1.93  30 2.12
 140  0.751  0.250  0.673-  31 1.88  32 2.13  42 2.14
 141  0.751  0.250  0.758-  32 1.85  42 1.85
 142  0.094  0.125  0.721-  33 1.97  23 1.97  72 2.08
[...]
 229  0.500  0.500  0.434-  46 1.98  76 1.98  79 2.02
 230  0.348  0.375  0.393-  67 1.98  77 1.98  76 2.02
 231  0.652  0.375  0.393-  27 1.98  37 1.98  76 2.02
 232  0.250  0.500  0.458-  48 1.98  78 1.98  77 2.02
 233  0.250  0.500  0.542-  48 1.98  78 1.98  81 2.17
 234  0.598  0.375  0.500-  69 1.98  79 1.98  38 2.02
 235  0.402  0.375  0.500-  69 1.98  79 1.98  78 2.02
 236  0.500  0.500  0.567-  80 1.92  50 1.92  79 2.05
 237  0.500  0.500  0.651-  83 1.84  50 2.05  80 2.05
 238  0.350  0.375  0.608-  80 1.87  81 2.06  71 2.07
 239  0.651  0.375  0.609-  41 1.93  31 1.93  80 2.12
 240  0.250  0.500  0.673-  81 1.88  82 2.13  52 2.13
 241  0.252  0.501  0.758-  82 1.85  52 1.85
 242  0.595  0.375  0.720-  83 1.97  73 1.97  42 2.07
 243  0.407  0.375  0.720-  83 1.97  73 1.97  82 2.07

IMPORTANT INFORMATION: All symmetrisations will be switched off!
NOSYMM: (Re-)initialisation of all symmetry stuff for point group C_1.

                                     Primitive cell

  volume of cell :    4896.0359

  direct lattice vectors                    reciprocal lattice vectors
    13.251808214  0.000000000  0.000000000     0.075461400  0.000000000  0.000000000
     0.000000000 11.981455428  0.000000000     0.000000000  0.083462314  0.000000000
     0.000000000  0.000000000 30.836130416     0.000000000  0.000000000  0.032429491

  length of vectors
    13.251808214 11.981455428 30.836130416     0.075461400  0.083462314  0.032429491

  position of ions in fractional coordinates (direct lattice)
     0.500117996  0.605158333  0.811607706
     0.500011586  0.700604574  0.820553347
     0.500251759  0.509801413  0.801594852
     0.750000000  0.625000000  0.285125305
     0.000000000  0.750000000  0.285125305
     0.000000000  0.625000000  0.392562653
     0.750000000  0.750000000  0.392562653
     0.750000000  0.625000000  0.500000000
     0.000000000  0.750000000  0.500000000
     0.990989465  0.625101461  0.605272340
     0.743110614  0.750144209  0.612110224
     0.751167488  0.625695163  0.722221555
     0.000998134  0.750268809  0.710079172
     0.750000000  0.875000000  0.285125305
     0.000000000  0.000000000  0.285125305
     0.000000000  0.875000000  0.392562653
     0.750000000  0.000000000  0.392562653
     0.750000000  0.875000000  0.500000000
     0.000000000  0.000000000  0.500000000
     0.990988898  0.875079906  0.605266990
     0.743218427  0.000131132  0.612154670
     0.750997570  0.875559869  0.722437653
     0.000983995  0.000191178  0.710097582
     0.750000000  0.125000000  0.285125305
     0.000000000  0.250000000  0.285125305
     0.000000000  0.125000000  0.392562653
     0.750000000  0.250000000  0.392562653
     0.750000000  0.125000000  0.500000000
     0.000000000  0.250000000  0.500000000
     0.991189276  0.125079019  0.605280188
     0.743355854  0.250098843  0.612166873
     0.751030055  0.125562870  0.722396950
     0.000939829  0.250224865  0.710099058
     0.750000000  0.375000000  0.285125305
     0.000000000  0.500000000  0.285125305
     0.000000000  0.375000000  0.392562653
     0.750000000  0.500000000  0.392562653
     0.750000000  0.375000000  0.500000000
     0.000000000  0.500000000  0.500000000
     0.991225279  0.375084932  0.605262356
     0.743290217  0.500074975  0.612143496
     0.751072006  0.375637620  0.722423421
     0.000967451  0.500270779  0.710073156
     0.250000000  0.625000000  0.285125305
     0.500000000  0.750000000  0.285125305
     0.500000000  0.625000000  0.392562653
     0.250000000  0.750000000  0.392562653
     0.250000000  0.625000000  0.500000000
     0.500000000  0.750000000  0.500000000
     0.491020777  0.624789642  0.605467358
     0.243085220  0.750121769  0.612114086
     0.251037929  0.625714235  0.722222849
     0.501031829  0.750764264  0.709726639
     0.250000000  0.875000000  0.285125305
     0.500000000  0.000000000  0.285125305
     0.500000000  0.875000000  0.392562653
     0.250000000  0.000000000  0.392562653
     0.250000000  0.875000000  0.500000000
     0.500000000  0.000000000  0.500000000
     0.490886628  0.874934682  0.605071302
[...]
     0.500000000  0.500000000  0.434466779
     0.347508286  0.375000000  0.392562653
     0.652491714  0.375000000  0.392562653
     0.250000000  0.500000000  0.458095874
     0.250000000  0.500000000  0.541904126
     0.597508286  0.375000000  0.500000000
     0.402491714  0.375000000  0.500000000
     0.500087755  0.500021900  0.566510488
     0.500211982  0.500252207  0.650958843
     0.350141868  0.375142550  0.608205988
     0.651367877  0.375120518  0.608567641
     0.250006029  0.500190268  0.673200855
     0.251628716  0.500597405  0.757564133
     0.594792164  0.374684257  0.720116462
     0.406785593  0.374621664  0.720153858

  ion indices of the primitive-cell ions
   primitive index   ion index
                 1           1
                 2           2
                 3           3
                 4           4
                 5           5
                 6           6
                 7           7
                 8           8
                 9           9
                10          10
                11          11
                12          12
                13          13
[...]
   4.64001289  4.49475375 18.75471917
   8.63180219  4.49448976 18.76587114
   3.31303194  5.99300740 20.75890935
   3.33453548  5.99788549 23.36034641
   7.88207168  4.48926273 22.20560515
   5.39064466  4.48851277 22.20675829

--------------------------------------- Iteration      FINAL  ---------------------------------------

--------------------OUTCAR has been truncated-------------------------

[...]

--------------------OUTCAR has been truncated-------------------------

  FORCE on cell =-STRESS in cart. coord.  units (eV):
  Direction    XX          YY          ZZ          XY          YZ          ZX
  Alpha Z  4533.00211  4533.00211  4533.00211
  Ewald  927302.33150945950.85718************     2.89836   215.14784    -0.14909
  Hartree968814.62976978959.85300************     1.38008   100.55426     1.11389
  E(xc)   -8869.61628 -8839.42370 -8868.94827     0.01344     0.99373     0.00436
  Local  ************************************    -4.00055  -296.04921    -1.19760
  n-local -5489.31009 -5413.97724 -5526.54372    -0.02594    -1.75381     0.13590
  augment  5316.54615  5295.82316  5320.97472    -0.01382    -0.73791     0.01594
  Kinetic 28940.51995 28405.44669 28965.99354    -0.25713   -18.24399     0.04947
  Fock        0.00000     0.00000     0.00000     0.00000     0.00000     0.00000
  Total      11.64193   -31.86248   -33.83701    -0.00556    -0.08909    -0.02712
  in kB       3.80970   -10.42667   -11.07281    -0.00182    -0.02915    -0.00888

 VOLUME and BASIS-vectors are now :
  energy-cutoff  :      600.00
  volume of cell :     4896.04
      direct lattice vectors                 reciprocal lattice vectors
    13.251808214  0.000000000  0.000000000     0.075461400  0.000000000  0.000000000
     0.000000000 11.981455428  0.000000000     0.000000000  0.083462314  0.000000000
     0.000000000  0.000000000 30.836130416     0.000000000  0.000000000  0.032429491

  length of vectors
    13.251808214 11.981455428 30.836130416     0.075461400  0.083462314  0.032429491

 FORCES acting on ions:
    Electron-Ion                     Ewald-Force                    Non-Local-Force
   0.124E+00 0.548E+01 -.149E+04   -.122E+00 -.546E+01 0.149E+04   -.275E-02 -.240E-01 -.218E-01
   -.707E+00 -.263E+03 -.219E+04   0.973E+00 0.325E+03 0.221E+04   -.266E+00 -.618E+02 -.187E+02
   0.126E+01 0.260E+03 -.227E+04   -.152E+01 -.320E+03 0.225E+04   0.258E+00 0.600E+02 0.160E+02
   -.264E+00 -.539E-02 0.363E+04   0.264E+00 0.551E-02 -.364E+04   0.881E-04 -.953E-05 0.357E+00
   -.343E-02 -.723E-01 0.381E+04   0.345E-02 0.725E-01 -.380E+04   -.912E-05 -.210E-04 -.366E+01
   -.102E+00 -.167E-01 0.186E+04   0.102E+00 0.167E-01 -.186E+04   -.804E-04 0.282E-04 -.470E-01
   -.343E+00 -.128E+00 0.185E+04   0.342E+00 0.129E+00 -.186E+04   -.196E-03 -.403E-05 0.202E+00
   -.229E+00 -.517E-01 0.156E+02   0.209E+00 0.493E-01 -.148E+02   0.332E-03 0.161E-03 -.123E+00
   -.325E+01 -.656E+00 0.234E+02   0.329E+01 0.661E+00 -.244E+02   -.121E-01 -.172E-02 0.377E+00
   -.324E+02 -.765E+00 -.177E+04   0.323E+02 0.765E+00 0.177E+04   0.159E+00 0.134E-02 0.213E+00
   -.221E+02 -.551E+01 -.182E+04   0.220E+02 0.551E+01 0.182E+04   0.187E+00 0.746E-03 -.280E+00
   -.756E+02 -.597E+01 -.355E+04   0.756E+02 0.596E+01 0.355E+04   -.544E-02 0.658E-02 -.294E+00
   -.596E+00 -.750E+01 -.361E+04   0.604E+00 0.750E+01 0.361E+04   -.792E-02 0.641E-03 0.997E+00
   -.258E+00 -.103E+00 0.363E+04   0.258E+00 0.104E+00 -.364E+04   0.133E-03 -.375E-04 0.357E+00
   -.330E-02 -.627E-01 0.381E+04   0.332E-02 0.628E-01 -.380E+04   -.869E-05 -.778E-05 -.366E+01
   -.100E+00 -.172E+00 0.186E+04   0.101E+00 0.173E+00 -.186E+04   -.831E-04 0.197E-04 -.471E-01
   -.339E+00 -.126E+00 0.185E+04   0.337E+00 0.126E+00 -.186E+04   -.146E-03 0.446E-04 0.201E+00
   -.298E+00 -.102E+01 0.144E+02   0.278E+00 0.103E+01 -.136E+02   0.177E-03 -.114E-02 -.124E+00
   -.325E+01 -.458E+00 0.222E+02   0.329E+01 0.461E+00 -.233E+02   -.121E-01 -.908E-03 0.378E+00
   -.322E+02 -.341E+01 -.177E+04   0.321E+02 0.341E+01 0.177E+04   0.159E+00 0.232E-02 0.213E+00
   -.186E+02 -.312E+01 -.183E+04   0.185E+02 0.312E+01 0.183E+04   0.193E+00 0.165E-02 -.277E+00
   -.393E+02 -.260E+02 -.358E+04   0.393E+02 0.260E+02 0.358E+04   0.129E-01 0.310E-02 -.328E+00
   -.619E+00 -.527E+01 -.362E+04   0.628E+00 0.527E+01 0.362E+04   -.830E-02 0.276E-02 0.100E+01
   -.249E+00 0.539E-02 0.363E+04   0.249E+00 -.553E-02 -.364E+04   0.130E-03 -.232E-05 0.357E+00
   -.337E-02 0.723E-01 0.381E+04   0.339E-02 -.725E-01 -.380E+04   -.873E-05 0.195E-04 -.366E+01
   -.100E+00 0.170E-01 0.186E+04   0.101E+00 -.171E-01 -.186E+04   -.829E-04 0.166E-04 -.472E-01
   -.314E+00 0.128E+00 0.185E+04   0.313E+00 -.129E+00 -.186E+04   -.223E-03 0.120E-04 0.201E+00
   -.853E-01 0.638E-01 0.135E+02   0.657E-01 -.656E-01 -.127E+02   0.315E-03 -.680E-04 -.126E+00
   -.325E+01 0.696E+00 0.224E+02   0.328E+01 -.699E+00 -.235E+02   -.120E-01 0.123E-03 0.378E+00
   -.320E+02 0.457E+00 -.177E+04   0.319E+02 -.461E+00 0.177E+04   0.158E+00 0.393E-02 0.215E+00
   -.193E+02 0.495E+01 -.183E+04   0.191E+02 -.495E+01 0.183E+04   0.190E+00 0.391E-02 -.279E+00
   -.235E+02 0.682E+01 -.359E+04   0.235E+02 -.683E+01 0.360E+04   0.413E-02 0.442E-02 -.321E+00
   -.597E+00 0.615E+01 -.362E+04   0.605E+00 -.615E+01 0.361E+04   -.786E-02 0.885E-02 0.996E+00
   -.255E+00 0.103E+00 0.363E+04   0.255E+00 -.104E+00 -.364E+04   0.860E-04 0.249E-04 0.357E+00
   -.350E-02 0.628E-01 0.381E+04   0.352E-02 -.628E-01 -.380E+04   -.923E-05 0.462E-05 -.366E+01
   -.101E+00 0.172E+00 0.186E+04   0.102E+00 -.172E+00 -.186E+04   -.809E-04 0.194E-04 -.471E-01
   -.319E+00 0.126E+00 0.185E+04   0.318E+00 -.126E+00 -.186E+04   -.319E-03 -.437E-04 0.202E+00
   -.234E-01 0.100E+01 0.146E+02   0.363E-02 -.101E+01 -.138E+02   0.189E-03 0.880E-03 -.124E+00
   -.326E+01 0.522E+00 0.236E+02   0.330E+01 -.524E+00 -.247E+02   -.119E-01 -.239E-03 0.377E+00
   -.322E+02 0.316E+01 -.177E+04   0.321E+02 -.316E+01 0.177E+04   0.159E+00 0.246E-02 0.215E+00
   -.229E+02 0.346E+01 -.182E+04   0.227E+02 -.347E+01 0.182E+04   0.189E+00 0.257E-02 -.284E+00
   -.534E+02 0.317E+02 -.357E+04   0.534E+02 -.318E+02 0.357E+04   0.200E-03 0.117E-01 -.320E+00
   -.552E+00 0.521E+01 -.361E+04   0.559E+00 -.521E+01 0.361E+04   -.800E-02 0.522E-02 0.989E+00
   0.273E+00 -.526E-02 0.363E+04   -.273E+00 0.537E-02 -.364E+04   -.174E-03 -.904E-05 0.357E+00
   -.595E-02 -.815E-01 0.381E+04   0.585E-02 0.818E-01 -.380E+04   0.134E-04 -.429E-04 -.366E+01
   -.115E+00 0.271E-01 0.186E+04   0.116E+00 -.231E-01 -.186E+04   0.356E-04 -.818E-03 -.473E-01
   0.555E+00 -.126E+00 0.185E+04   -.554E+00 0.127E+00 -.186E+04   -.845E-03 0.547E-05 0.202E+00
   0.369E+01 -.389E-01 0.156E+02   -.369E+01 0.371E-01 -.148E+02   -.270E-02 0.713E-04 -.123E+00
   -.338E+01 -.552E+00 0.278E+02   0.342E+01 0.541E+00 -.288E+02   -.110E-01 0.721E-02 0.361E+00
   -.312E+02 -.179E+01 -.175E+04   0.312E+02 0.182E+01 0.175E+04   0.163E+00 -.202E-01 0.202E+00
   0.298E+00 -.519E+01 -.182E+04   -.431E+00 0.520E+01 0.182E+04   0.191E+00 -.589E-03 -.278E+00
   0.747E+02 -.603E+01 -.355E+04   -.746E+02 0.602E+01 0.355E+04   -.231E-01 0.549E-02 -.296E+00
   -.321E+00 -.630E+02 -.349E+04   0.327E+00 0.630E+02 0.349E+04   -.692E-02 0.830E-02 0.104E+01
   0.267E+00 -.103E+00 0.363E+04   -.267E+00 0.104E+00 -.364E+04   -.217E-03 -.383E-04 0.357E+00
   -.611E-02 -.762E-01 0.381E+04   0.599E-02 0.763E-01 -.380E+04   0.153E-04 -.461E-05 -.366E+01
   -.118E+00 -.177E+00 0.186E+04   0.118E+00 0.179E+00 -.186E+04   0.649E-05 -.402E-03 -.475E-01
   0.551E+00 -.126E+00 0.185E+04   -.550E+00 0.126E+00 -.186E+04   -.907E-03 0.448E-04 0.201E+00
   0.380E+01 -.101E+01 0.145E+02   -.381E+01 0.103E+01 -.137E+02   -.214E-02 -.120E-02 -.125E+00
   -.335E+01 -.812E+00 0.269E+02   0.338E+01 0.816E+00 -.279E+02   -.129E-01 -.148E-02 0.363E+00
   -.311E+02 -.936E+01 -.175E+04   0.310E+02 0.936E+01 0.175E+04   0.168E+00 0.820E-02 0.183E+00
[...]
   -.558E+02 0.107E+00 0.111E+04   0.600E+02 -.107E+00 -.111E+04   -.376E+01 0.112E-02 0.160E+00
   0.559E+02 0.108E+00 0.111E+04   -.601E+02 -.109E+00 -.111E+04   0.376E+01 0.113E-02 0.160E+00
   0.990E+00 0.205E+00 0.496E+03   -.996E+00 -.206E+00 -.500E+03   0.103E-01 0.446E-02 0.434E+01
   0.133E+01 0.810E+00 -.493E+03   -.992E+00 -.813E+00 0.500E+03   -.346E+00 0.553E-02 -.746E+01
   -.584E+02 0.554E+00 0.139E+02   0.633E+02 -.557E+00 -.141E+02   -.537E+01 0.109E-01 0.319E+00
   0.581E+02 0.527E+00 0.173E+02   -.631E+02 -.531E+00 -.176E+02   0.539E+01 0.118E-01 0.408E+00
   -.188E+02 0.147E+01 -.580E+03   0.206E+02 -.149E+01 0.573E+03   -.176E+01 0.203E-01 0.676E+01
   -.117E+02 0.523E+01 -.150E+04   0.128E+02 -.515E+01 0.149E+04   -.116E+01 -.762E-01 0.235E+01
   0.135E+02 0.448E+01 -.107E+04   -.151E+02 -.450E+01 0.107E+04   0.156E+01 0.239E-01 0.671E+00
   0.640E+02 0.453E+01 -.106E+04   -.716E+02 -.457E+01 0.106E+04   0.759E+01 0.456E-01 0.130E+01
   0.149E+02 0.498E+01 -.171E+04   -.144E+02 -.493E+01 0.171E+04   -.502E+00 -.419E-01 -.234E+01
   0.653E+02 0.160E+02 -.259E+04   -.651E+02 -.158E+02 0.261E+04   -.119E+00 -.125E+00 -.203E+02
   -.558E+02 0.448E+02 -.219E+04   0.620E+02 -.449E+02 0.219E+04   -.617E+01 0.132E+00 -.350E+01
   0.547E+02 0.445E+02 -.219E+04   -.607E+02 -.446E+02 0.219E+04   0.594E+01 0.111E+00 -.349E+01
   -.438E+02 0.238E+01 0.942E+02   -.271E-11 -.333E-11 0.150E-10   0.438E+02 -.238E+01 -.942E+02

 POSITION                                       TOTAL-FORCE (eV/Angst)
      6.63018      7.17536     25.00989        -0.000541      0.004528      0.004199
      6.63478      8.30305     25.33894        -0.000220      0.000989      0.007372
      6.62518      6.04785     24.64973        -0.000491     -0.009189     -0.000815
      9.93886      7.48841      8.79216        -0.000311      0.000094     -3.341032
      0.00000      8.98609      8.79216         0.000041      0.000140      2.736919
      0.00000      7.48841     12.10511         0.000599      0.000070      0.491545
      9.93886      8.98609     12.10511        -0.001571      0.000608     -0.683006
      9.93886      7.48841     15.41807        -0.019285     -0.002355      0.676310
      0.00000      8.98609     15.41807         0.024337      0.003102     -0.699554
     13.12397      7.48923     18.66198        -0.000785      0.001327      0.000586
      9.83936      8.98688     18.87226         0.000664      0.000669     -0.001355
      9.93998      7.49736     22.26588         0.000768     -0.000821      0.000196
     -0.00173      8.99004     21.89351         0.000266      0.001440     -0.003591
      9.93886     10.48377      8.79216        -0.000372      0.000397     -3.341009
      0.00000      0.00000      8.79216         0.000042      0.000033      2.736816
      0.00000     10.48377     12.10511         0.000596      0.000233      0.491752
      9.93886      0.00000     12.10511        -0.001769      0.000239     -0.681278
      9.93886     10.48377     15.41807        -0.019211      0.014570      0.683982
      0.00000      0.00000     15.41807         0.024435      0.001993     -0.697641
     13.12423     10.48449     18.66284         0.000974      0.001638     -0.000904
      9.83995      0.00059     18.87571        -0.001045      0.003484      0.000015
      9.93503     10.49100     22.27588         0.001113      0.005080      0.000577
     -0.00234      0.00227     21.89415         0.000842      0.001114     -0.002051
      9.93886      1.49768      8.79216        -0.000374     -0.000149     -3.340914
      0.00000      2.99536      8.79216         0.000041     -0.000176      2.736887
      0.00000      1.49768     12.10511         0.000590     -0.000076      0.491815
      9.93886      2.99536     12.10511        -0.001526     -0.000637     -0.681184
      9.93886      1.49768     15.41807        -0.019274     -0.001962      0.692640
      0.00000      2.99536     15.41807         0.024291     -0.002485     -0.698518
     13.12493      1.49811     18.66282         0.001313     -0.001169     -0.001304
      9.84053      2.99525     18.87523        -0.000181     -0.000394      0.000982
      9.93606      1.50486     22.27496        -0.000118      0.000079     -0.000497
     -0.00208      2.99682     21.89384         0.000482     -0.001451     -0.000352
      9.93886      4.49305      8.79216        -0.000307     -0.000437     -3.340953
      0.00000      5.99073      8.79216         0.000041     -0.000064      2.736967
      0.00000      4.49305     12.10511         0.000593     -0.000284      0.491638
      9.93886      5.99073     12.10511        -0.001323     -0.000272     -0.682936
      9.93886      4.49305     15.41807        -0.019628     -0.010479      0.684830
      0.00000      5.99073     15.41807         0.024232     -0.002049     -0.700647
     13.12438      4.49367     18.66228        -0.001003     -0.002379     -0.000688
      9.83973      5.99097     18.87314         0.001599     -0.003743     -0.001016
      9.94002      4.50081     22.27309         0.000540     -0.005388     -0.001058
     -0.00143      5.99379     21.89303        -0.000045     -0.001318     -0.002039
      3.31295      7.48841      8.79216         0.000318      0.000091     -3.340914
      6.62590      8.98609      8.79216        -0.000063      0.000271      2.738061
      6.62590      7.48841     12.10511         0.000092      0.003234      0.494190
      3.31295      8.98609     12.10511         0.000725      0.000583     -0.682279
      3.31295      7.48841     15.41807        -0.008726     -0.001772      0.677929
      6.62590      8.98609     15.41807         0.023142     -0.003819     -0.680836
      6.49741      7.48419     18.66943         0.000223     -0.000183     -0.001173
      3.21284      8.98708     18.87247         0.000205      0.001652     -0.002856
      3.31103      7.49742     22.26634         0.000092     -0.001314     -0.000048
      6.62433      8.99284     21.88177        -0.000137     -0.000272     -0.004285
      3.31295     10.48377      8.79216         0.000379      0.000401     -3.340891
      6.62590      0.00000      8.79216        -0.000066      0.000024      2.738073
      6.62590     10.48377     12.10511         0.000144      0.001239      0.496366
      3.31295      0.00000     12.10511         0.000913      0.000237     -0.680515
      3.31295     10.48377     15.41807        -0.010505      0.014749      0.686095
      6.62590      0.00000     15.41807         0.024622      0.002751     -0.709796
      6.49747     10.48278     18.65521         0.000046      0.000759     -0.000142
[...]
      6.62590      5.99073     13.39727        -0.001167      0.000042     -0.095718
      4.60511      4.49305     12.10511         0.419811      0.000515      0.050186
      8.64670      4.49305     12.10511        -0.419019      0.000521      0.050219
      3.31295      5.99073     14.12590         0.003986      0.002580     -0.124200
      3.31295      5.99073     16.71023        -0.011081      0.001814     -0.040341
      7.91807      4.49305     15.41807        -0.468368      0.007414      0.105531
      5.33374      4.49305     15.41807         0.464124      0.008121      0.098329
      6.61977      5.99004     17.46812         0.000519      0.000277      0.001727
      6.61852      5.99286     20.07072         0.001154      0.000096     -0.000708
      4.63069      4.49346     18.75532         0.000950      0.000771      0.000952
      8.62365      4.49347     18.76248        -0.002095      0.002042      0.000500
      3.29692      5.99195     20.75646        -0.000265      0.000969      0.002205
      3.32256      5.99752     23.35665         0.001126      0.002570      0.001751
      7.86765      4.48607     22.19840         0.000518      0.001138      0.000712
      5.37503      4.48562     22.19796        -0.000119      0.000665      0.000522
    total drift:                               -0.008696      0.003963      0.025084

  FREE ENERGIE OF THE ION-ELECTRON SYSTEM (eV)
  free  energy   TOTEN  =     -1583.48495944 eV

  energy  without entropy=    -1583.48495944  energy(sigma->0) =    -1583.48495944

 d Force = 0.3818944E-05[ 0.290E-05, 0.474E-05]  d Energy = 0.3911453E-05-0.925E-07
 d Force =-0.1554723E+00[-0.155E+00,-0.155E+00]  d Ewald  =-0.1554723E+00-0.123E-08

 Conjugate gradient step on ions:
 trial-energy change:   -0.000004  1 .order   -0.000004   -0.000005   -0.000003
  (g-gl).g = 0.642E-04      g.g   = 0.693E-04  gl.gl    = 0.343E-04
 g(Force)  = 0.693E-04   g(Stress)= 0.000E+00 ortho     =-0.100E-05
 gamma     =   1.86843
 trial     =   0.07025
 opt step  =   0.18145  (harmonic =   0.18145) maximal distance =0.00064150
 next E    = -1583.484962   (d E  =  -0.00001)

 reached required accuracy - stopping structural energy minimisation