 vasp.6.3.0 20Jan22 (build Apr  1 2022 16:44:48) complex
 executed on        HPECrayEX_GCC date 2022.11.16  22:43:34

 INCAR:
   SYSTEM = MgO-rocksalt
   ISMEAR = 0
   SIGMA = 0.05
   EDIFF = 1E-6
   ALGO = ALL
   ISTART = 0
   IBRION = -1
   NSW = 0
   ISYM = 0
   DIPOL = 0.5 0.5 0.5
   IDIPOL = 3
   LDIPOL = .TRUE.
   LHFCALC = .TRUE.
   GGA = B5
   AEXX = 0.2
   AGGAX = 0.72
   AGGAC = 0.81
   ALDAC = 0.19
   IVDW = 1
   VDW_S6 = 1.05
   VDW_C6 = 0.63 0.70
   VDW_R0 = 1.243 1.342
   ENCUT = 600
   PREC = Accurate
   LASPH = .TRUE.
   LREAL = .FALSE.
   ISPIN = 2
   MAGMOM = 0.0 0.0 0.0 0.0 0.0 0.0 0.0 0.0 0.0 0.0 0.0 0.0 0.0 0.0 0.0 0.0 0.0 0.0 0.0 0.0 0.0 0.0 0.0 0.0 0.0 0.0 0.0 0.0 0.0 0.0 0.0 0.0 0.0 0.0 0.0 0.0 0.0 0.0 0.0 0.0 0.0 0.0 0.0 0.0 0.0 0.0 0.0 0.0 0.0 0.0 0.0 0.0 0.0 0.0 0.0 0.0 0.0 0.0 0.0 0.0 0.0 0.0 0.0 0.0
   NELM = 200
   NELMIN = 8
   NCORE = 8
   KPAR = 1
   LWAVE = .FALSE.
   LCHARG = .FALSE.

 POTCAR:    PAW_PBE Mg_pv 13Apr2007
 POTCAR:    PAW_PBE O 08Apr2002
 POTCAR:    PAW_PBE Mg_pv 13Apr2007
   VRHFIN =Mg: p6s2

   TITEL  = PAW_PBE Mg_pv 13Apr2007
   POMASS =   24.305; ZVAL   =    8.000    mass and valenz
   ENMAX  =  403.929; ENMIN  =  302.947 eV

   TITEL  = PAW_PBE O 08Apr2002
   POMASS =   16.000; ZVAL   =    6.000    mass and valenz
   ENMAX  =  400.000; ENMIN  =  300.000 eV

  PAW_PBE Mg_pv 13Apr2007               :
  PAW_PBE O 08Apr2002                   :

 POSCAR: Mg  O
  positions in direct lattice
 exchange correlation table for  LEXCH =       12
   RHO(1)=    0.500       N(1)  =     2000
   RHO(2)=  100.500       N(2)  =     4000

 ion  position               nearest neighbor table
   1  0.250  0.000  0.352-  35 2.10  36 2.10  43 2.10  52 2.10  33 2.10
   2  0.500  0.250  0.352-  35 2.10  36 2.10  44 2.10  51 2.10  34 2.10
   3  0.250  0.250  0.451-  33 2.10  34 2.10  41 2.10  50 2.10  35 2.10  39 2.11
   4  0.500  0.000  0.451-  33 2.10  34 2.10  42 2.10  49 2.10  36 2.10  40 2.10
   5  0.250  0.000  0.550-  40 2.10  39 2.10  47 2.10  56 2.10  33 2.11  37 2.13
   6  0.500  0.250  0.550-  48 2.10  39 2.10  55 2.10  40 2.10  34 2.12  38 2.12
   7  0.250  0.250  0.648-  39 2.09  37 2.10  38 2.10  54 2.10  45 2.10
   8  0.500  0.000  0.648-  40 2.09  38 2.10  46 2.10  37 2.10  53 2.10
   9  0.250  0.500  0.352-  35 2.10  43 2.10  44 2.10  60 2.10  41 2.10
  10  0.500  0.750  0.352-  36 2.10  43 2.10  44 2.10  59 2.10  42 2.10
  11  0.250  0.750  0.451-  33 2.10  41 2.10  42 2.10  58 2.10  43 2.10  47 2.11
  12  0.500  0.500  0.451-  34 2.10  41 2.10  42 2.10  57 2.10  44 2.10  48 2.11
  13  0.251  0.500  0.550-  48 2.10  39 2.10  47 2.10  64 2.11  41 2.11  45 2.13
  14  0.500  0.750  0.550-  48 2.10  47 2.10  40 2.10  63 2.10  42 2.12  46 2.12
  15  0.250  0.750  0.648-  47 2.09  37 2.10  46 2.10  45 2.10  62 2.10
  16  0.499  0.500  0.649-  45 2.09  38 2.10  46 2.11  48 2.12  61 2.12
  17  0.750  0.000  0.352-  36 2.10  51 2.10  52 2.10  59 2.10  49 2.10
  18  0.000  0.250  0.352-  35 2.10  51 2.10  52 2.10  60 2.10  50 2.10
  19  0.750  0.250  0.451-  34 2.10  49 2.10  50 2.10  57 2.10  51 2.10  55 2.11
  20  0.000  0.000  0.451-  33 2.10  49 2.10  50 2.10  58 2.10  52 2.10  56 2.11
  21  0.750  0.000  0.550-  40 2.10  55 2.10  56 2.10  63 2.10  49 2.11  53 2.13
  22  0.000  0.250  0.550-  39 2.10  55 2.10  64 2.10  56 2.10  50 2.11  54 2.13
  23  0.750  0.249  0.648-  53 2.09  55 2.09  38 2.10  54 2.10  61 2.11
  24  0.000  0.000  0.648-  56 2.09  37 2.10  54 2.10  62 2.10  53 2.10
  25  0.750  0.500  0.352-  44 2.10  51 2.10  59 2.10  60 2.10  57 2.10
  26  0.000  0.750  0.352-  43 2.10  52 2.10  59 2.10  60 2.10  58 2.10
  27  0.750  0.750  0.451-  42 2.10  49 2.10  57 2.10  58 2.10  59 2.10  63 2.11
  28  0.000  0.500  0.451-  41 2.10  50 2.10  57 2.10  58 2.10  60 2.10  64 2.11
  29  0.750  0.500  0.550-  48 2.10  55 2.10  63 2.10  64 2.10  57 2.11  61 2.14
  30  0.000  0.750  0.550-  47 2.10  64 2.10  56 2.10  63 2.10  58 2.11  62 2.13
  31  0.750  0.752  0.647-  63 2.08  53 2.09  62 2.10  46 2.10  61 2.11
  32  0.002  0.500  0.648-  45 2.09  64 2.09  54 2.10  62 2.10  61 2.10
  33  0.250  0.000  0.451-   3 2.10   4 2.10  11 2.10  20 2.10   1 2.10   5 2.11
  34  0.500  0.250  0.451-   3 2.10   4 2.10  12 2.10  19 2.10   2 2.10   6 2.12
  35  0.250  0.250  0.352-   1 2.10   2 2.10   9 2.10  18 2.10   3 2.10
  36  0.500  0.000  0.352-   1 2.10   2 2.10  10 2.10  17 2.10   4 2.10
  37  0.250  0.000  0.650-  24 2.10  15 2.10   7 2.10   8 2.10   5 2.13
  38  0.500  0.250  0.649-   8 2.10   7 2.10  23 2.10  16 2.10   6 2.12
  39  0.250  0.250  0.550-   7 2.09  22 2.10  13 2.10   5 2.10   6 2.10   3 2.11
  40  0.500  1.000  0.549-   8 2.09  21 2.10   5 2.10  14 2.10   6 2.10   4 2.10
  41  0.250  0.500  0.451-   3 2.10  11 2.10  12 2.10  28 2.10   9 2.10  13 2.11
  42  0.500  0.750  0.451-   4 2.10  11 2.10  12 2.10  27 2.10  10 2.10  14 2.12
  43  0.250  0.750  0.352-   1 2.10   9 2.10  10 2.10  26 2.10  11 2.10
  44  0.500  0.500  0.352-   2 2.10   9 2.10  10 2.10  25 2.10  12 2.10
  45  0.250  0.500  0.650-  32 2.09  16 2.09  15 2.10   7 2.10  13 2.13
  46  0.500  0.750  0.650-   8 2.10  31 2.10  15 2.10  16 2.11  14 2.12
  47  0.250  0.750  0.550-  15 2.09  30 2.10  13 2.10  14 2.10   5 2.10  11 2.11
  48  0.500  0.500  0.550-  29 2.10  14 2.10  13 2.10   6 2.10  12 2.11  16 2.12
  49  0.750  0.000  0.451-   4 2.10  19 2.10  20 2.10  27 2.10  17 2.10  21 2.11
  50  0.000  0.250  0.451-   3 2.10  19 2.10  20 2.10  28 2.10  18 2.10  22 2.11
  51  0.750  0.250  0.352-   2 2.10  17 2.10  18 2.10  25 2.10  19 2.10
  52  0.000  0.000  0.352-   1 2.10  17 2.10  18 2.10  26 2.10  20 2.10
  53  0.750  0.000  0.650-  31 2.09  23 2.09  24 2.10   8 2.10  21 2.13
  54  0.000  0.250  0.650-  32 2.10  24 2.10  23 2.10   7 2.10  22 2.13
  55  0.750  0.250  0.550-  23 2.09  29 2.10  22 2.10  21 2.10   6 2.10  19 2.11
  56  0.000  0.000  0.550-  24 2.09  30 2.10  22 2.10  21 2.10   5 2.10  20 2.11
  57  0.750  0.500  0.451-  12 2.10  19 2.10  27 2.10  28 2.10  25 2.10  29 2.11
  58  0.000  0.750  0.451-  11 2.10  20 2.10  27 2.10  28 2.10  26 2.10  30 2.11
  59  0.750  0.750  0.352-  10 2.10  17 2.10  25 2.10  26 2.10  27 2.10
  60  0.000  0.500  0.352-   9 2.10  18 2.10  25 2.10  26 2.10  28 2.10
  61  0.751  0.500  0.650-  32 2.10  23 2.11  31 2.11  16 2.12  29 2.14
  62  0.000  0.750  0.650-  31 2.10  32 2.10  24 2.10  15 2.10  30 2.13
  63  0.750  0.750  0.550-  31 2.08  29 2.10  30 2.10  14 2.10  21 2.10  27 2.11
  64  1.000  0.500  0.550-  32 2.09  30 2.10  22 2.10  29 2.10  13 2.11  28 2.11

IMPORTANT INFORMATION: All symmetrisations will be switched off!
NOSYMM: (Re-)initialisation of all symmetry stuff for point group C_1.

                                     Primitive cell

  volume of cell :    1504.9259

  direct lattice vectors                    reciprocal lattice vectors
     8.404861995  0.000000000  0.000000000     0.118978753  0.000000000  0.000000000
     0.000000000  8.404861995  0.000000000     0.000000000  0.118978753  0.000000000
     0.000000000  0.000000000 21.303646496     0.000000000  0.000000000  0.046940321

  length of vectors
     8.404861995  8.404861995 21.303646496     0.118978753  0.118978753  0.046940321

  position of ions in fractional coordinates (direct lattice)
     0.250000000  0.000000000  0.352052406
     0.500000000  0.250000000  0.352052406
     0.250000000  0.250000000  0.450684135
     0.500000000  0.000000000  0.450684135
     0.250201296  0.000051186  0.549829182
     0.500074169  0.250267297  0.550040223
     0.250380904  0.249768525  0.647816109
     0.500027791  0.000177069  0.647770936
     0.250000000  0.500000000  0.352052406
     0.500000000  0.750000000  0.352052406
     0.250000000  0.750000000  0.450684135
     0.500000000  0.500000000  0.450684135
     0.250556007  0.500010133  0.549952401
     0.500029024  0.749770195  0.550011951
     0.250360895  0.750345249  0.647856598
     0.499163319  0.499910165  0.649266123
     0.750000000  0.000000000  0.352052406
     0.000000000  0.250000000  0.352052406
     0.750000000  0.250000000  0.450684135
     0.000000000  0.000000000  0.450684135
     0.750040870  0.000265953  0.549771423
     0.000127674  0.250061079  0.549908161
     0.750038308  0.249141597  0.647977931
     0.000432932  0.000166783  0.647856126
     0.750000000  0.500000000  0.352052406
     0.000000000  0.750000000  0.352052406
     0.750000000  0.750000000  0.450684135
     0.000000000  0.500000000  0.450684135
     0.749727982  0.499936508  0.549738246
     0.000263021  0.750039209  0.549862713
     0.750329619  0.751707916  0.647452657
     0.001503727  0.500051997  0.647744642
     0.250000000  0.000000000  0.450684135
     0.500000000  0.250000000  0.450684135
     0.250000000  0.250000000  0.352052406
     0.500000000  0.000000000  0.352052406
     0.250083279  0.000015404  0.649829528
     0.500175362  0.249607323  0.649442677
     0.249944391  0.250088293  0.549564651
     0.500136630  0.999950246  0.549483932
     0.250000000  0.500000000  0.450684135
     0.500000000  0.750000000  0.450684135
     0.250000000  0.750000000  0.352052406
     0.500000000  0.500000000  0.352052406
     0.250039983  0.500097099  0.649944714
     0.500476229  0.750430228  0.649695467
     0.250030158  0.749973742  0.549593958
     0.500341060  0.500088978  0.549853824
     0.750000000  0.000000000  0.450684135
     0.000000000  0.250000000  0.450684135
     0.750000000  0.250000000  0.352052406
     0.000000000  0.000000000  0.352052406
     0.750344121  0.000171502  0.649705803
     0.000159769  0.250115784  0.649912880
     0.750244159  0.250295708  0.549652232
     0.000089450  0.000032408  0.549565907
     0.750000000  0.500000000  0.450684135
     0.000000000  0.750000000  0.450684135
     0.750000000  0.750000000  0.352052406
     0.000000000  0.500000000  0.352052406
     0.751295068  0.500361563  0.650304388
     0.000101216  0.750090273  0.649884417
     0.750241148  0.749872146  0.549597635
     0.999948007  0.500067176  0.549660164

  ion indices of the primitive-cell ions
   primitive index   ion index
                 1           1
                 2           2
                 3           3
                 4           4
                 5           5
                 6           6
                 7           7
                 8           8
                 9           9
                10          10
                11          11
                12          12
                13          13
                14          14
                15          15
                16          16
                17          17
                18          18
                19          19
                20          20
                21          21
                22          22
                23          23
                24          24
                25          25
                26          26
                27          27
                28          28
                29          29
                30          30
                31          31
                32          32
                33          33
                34          34
                35          35
[...]
   0.50000000  0.75000000  0.45068414
   0.25000000  0.75000000  0.35205241
   0.50000000  0.50000000  0.35205241
   0.25003998  0.50009710  0.64994471
   0.50047623  0.75043023  0.64969547
   0.25003016  0.74997374  0.54959396
   0.50034106  0.50008898  0.54985382
   0.75000000  0.00000000  0.45068414
   0.00000000  0.25000000  0.45068414
   0.75000000  0.25000000  0.35205241
   0.00000000  0.00000000  0.35205241
   0.75034412  0.00017150  0.64970580
   0.00015977  0.25011578  0.64991288
   0.75024416  0.25029571  0.54965223
   0.00008945  0.00003241  0.54956591
   0.75000000  0.50000000  0.45068414
   0.00000000  0.75000000  0.45068414
   0.75000000  0.75000000  0.35205241
   0.00000000  0.50000000  0.35205241
   0.75129507  0.50036156  0.65030439
   0.00010122  0.75009027  0.64988442
   0.75024115  0.74987215  0.54959763
   0.99994801  0.50006718  0.54966016

 position of ions in cartesian coordinates  (Angst):
   2.10121550  0.00000000  7.50000000
   4.20243100  2.10121550  7.50000000
   2.10121550  2.10121550  9.60121550
   4.20243100  0.00000000  9.60121550
   2.10290737  0.00043021 11.71336654
   4.20305438  2.10346209 11.71786246
   2.10441695  2.09926998 13.80084538
   4.20266458  0.00148824 13.79988303
   2.10121550  4.20243100  7.50000000
   4.20243100  6.30364650  7.50000000
   2.10121550  6.30364650  9.60121550
   4.20243100  4.20243100  9.60121550
   2.10588866  4.20251616 11.71599155
   4.20267494  6.30171502 11.71726017
   2.10424878  6.30654827 13.80170795
   4.19539881  4.20167595 13.83173596
   6.30364650  0.00000000  7.50000000
   0.00000000  2.10121550  7.50000000
   6.30364650  2.10121550  9.60121550
   0.00000000  0.00000000  9.60121550
   6.30399000  0.00223530 11.71213605
   0.00107309  2.10172886 11.71504906
   6.30396847  2.09400074 13.80429277
   0.00363873  0.00140179 13.80169789
   6.30364650  4.20243100  7.50000000
   0.00000000  6.30364650  7.50000000
   6.30364650  6.30364650  9.60121550
   0.00000000  4.20243100  9.60121550
   6.30136022  4.20189736 11.71142927
   0.00221065  6.30397604 11.71408086
   6.30641690  6.31800129 13.79310252
   0.01263862  4.20286802 13.79932288
   2.10121550  0.00000000  9.60121550
   4.20243100  2.10121550  9.60121550
   2.10121550  2.10121550  7.50000000
   4.20243100  0.00000000  7.50000000
   2.10191545  0.00012947 13.84373855
   4.20390489  2.09791510 13.83549722
   2.10074812  2.10195759 11.70773106
   4.20357935  8.40444382 11.70601144
   2.10121550  4.20243100  9.60121550
   4.20243100  6.30364650  9.60121550
   2.10121550  6.30364650  7.50000000
   4.20243100  4.20243100  7.50000000
   2.10155155  4.20324710 13.84619243
   4.20643363  6.30726250 13.84088255
   2.10146898  6.30342580 11.70835539
   4.20529756  4.20317884 11.71389148
   6.30364650  0.00000000  9.60121550
   0.00000000  2.10121550  9.60121550
   6.30364650  2.10121550  7.50000000
   0.00000000  0.00000000  7.50000000
   6.30653879  0.00144145 13.84110275
   0.00134284  2.10218865 13.84551426
   6.30569862  2.10370088 11.70959684
   0.00075181  0.00027239 11.70775780
   6.30364650  4.20243100  9.60121550
   0.00000000  6.30364650  9.60121550
   6.30364650  6.30364650  7.50000000
   0.00000000  4.20243100  7.50000000
   6.31453136  4.20546988 13.85385480
   0.00085071  6.30440523 13.84490789
   6.30567332  6.30257190 11.70843372
   8.40442500  4.20299560 11.70976582

--------------------------------------- Iteration      FINAL  ---------------------------------------

--------------------OUTCAR has been truncated-------------------------

[...]

--------------------OUTCAR has been truncated-------------------------

  DFT-D2 method for vdW energy calculation

  Parameters of vdW forcefield:
         C6(Jnm^6/mol)     R0(A)
   Mg       0.630          1.243
   O        0.700          1.342

  vdW correction parametrized for the method !ÿ      

  IVDW =   1
  VDW_RADIUS =    50.000 A
  VDW_S6 =     1.050
  VDW_SR =     1.000
  VDW_D =    20.000
  LVDW_EWALD = F

  Number of pair interactions contributing to vdW energy:  731246
  Edisp (eV):   -5.16854

 VOLUME and BASIS-vectors are now :
  energy-cutoff  :      600.00
  volume of cell :     1504.93
      direct lattice vectors                 reciprocal lattice vectors
     8.404861995  0.000000000  0.000000000     0.118978753  0.000000000  0.000000000
     0.000000000  8.404861995  0.000000000     0.000000000  0.118978753  0.000000000
     0.000000000  0.000000000 21.303646496     0.000000000  0.000000000  0.046940321

  length of vectors
     8.404861995  8.404861995 21.303646496     0.118978753  0.118978753  0.046940321

 FORCES acting on ions:
    Electron-Ion                     Ewald-Force                    Non-Local-Force
   -.337E-01 -.451E-02 0.209E+04   0.345E-01 0.459E-02 -.208E+04   -.518E-03 -.589E-04 -.641E+01
   0.887E-03 -.927E-01 0.209E+04   -.139E-02 0.942E-01 -.208E+04   0.318E-03 -.101E-02 -.642E+01
   -.226E+00 -.396E+00 0.692E+03   0.229E+00 0.409E+00 -.692E+03   -.143E-02 -.818E-02 0.419E+00
   -.403E-03 -.350E-01 0.692E+03   0.251E-02 0.313E-01 -.693E+03   -.111E-02 0.247E-02 0.383E+00
   0.102E+00 0.891E-01 -.696E+03   -.115E+00 -.945E-01 0.696E+03   0.121E-02 0.180E-02 -.162E+00
   -.529E+00 -.134E+01 -.697E+03   0.585E+00 0.147E+01 0.697E+03   -.333E-01 -.105E+00 -.369E+00
   0.472E+00 -.616E+00 -.208E+04   -.596E+00 0.467E+00 0.207E+04   0.641E-01 0.125E+00 0.556E+01
   -.195E+00 0.544E+00 -.208E+04   0.132E+00 -.580E+00 0.207E+04   0.589E-01 0.106E-01 0.554E+01
   -.446E-01 0.472E-02 0.209E+04   0.466E-01 -.469E-02 -.208E+04   -.142E-02 -.306E-04 -.641E+01
   0.133E-02 0.925E-01 0.209E+04   -.207E-02 -.939E-01 -.208E+04   0.499E-03 0.963E-03 -.642E+01
   -.226E+00 0.402E+00 0.692E+03   0.239E+00 -.412E+00 -.692E+03   -.764E-02 0.665E-02 0.429E+00
   0.143E+00 0.443E-01 0.691E+03   -.144E+00 -.401E-01 -.691E+03   0.342E-03 -.291E-02 0.470E+00
   -.287E+00 -.884E-01 -.697E+03   0.368E+00 0.941E-01 0.697E+03   -.850E-01 -.191E-02 -.158E+00
   -.399E+00 0.135E+01 -.698E+03   0.431E+00 -.148E+01 0.698E+03   -.109E-01 0.102E+00 -.313E+00
   -.717E-01 0.606E+00 -.208E+04   -.384E-01 -.454E+00 0.207E+04   0.668E-01 -.127E+00 0.555E+01
   -.570E+01 -.492E+00 -.209E+04   0.580E+01 0.574E+00 0.208E+04   0.807E-01 -.415E-01 0.572E+01
   0.345E-01 -.401E-02 0.209E+04   -.348E-01 0.467E-02 -.208E+04   0.166E-03 -.482E-03 -.641E+01
   -.548E-03 -.812E-01 0.209E+04   0.140E-02 0.817E-01 -.208E+04   -.578E-03 -.311E-03 -.642E+01
   0.247E+00 -.261E+00 0.692E+03   -.242E+00 0.272E+00 -.692E+03   -.318E-02 -.723E-02 0.425E+00
   0.181E-01 -.326E-01 0.692E+03   -.102E-01 0.382E-01 -.693E+03   -.495E-02 -.351E-02 0.408E+00
   -.617E-01 0.416E-01 -.695E+03   0.761E-01 -.617E-02 0.695E+03   -.317E-02 -.371E-01 -.165E+00
   0.492E+00 -.697E+00 -.697E+03   -.541E+00 0.756E+00 0.698E+03   0.283E-01 -.380E-01 -.236E+00
   0.391E-01 -.480E+01 -.208E+04   0.131E+00 0.491E+01 0.207E+04   -.101E+00 0.321E-01 0.556E+01
   0.181E+00 0.600E-01 -.208E+04   -.109E+00 -.656E-01 0.207E+04   -.661E-01 -.696E-03 0.552E+01
   0.457E-01 0.519E-02 0.209E+04   -.470E-01 -.541E-02 -.208E+04   0.928E-03 0.159E-03 -.641E+01
   -.402E-03 0.814E-01 0.209E+04   0.174E-02 -.817E-01 -.208E+04   -.942E-03 0.171E-03 -.641E+01
   0.249E+00 0.265E+00 0.692E+03   -.249E+00 -.266E+00 -.692E+03   0.650E-04 0.117E-02 0.406E+00
   -.118E+00 0.442E-01 0.691E+03   0.134E+00 -.457E-01 -.692E+03   -.910E-02 0.102E-02 0.407E+00
   0.504E+00 -.115E+00 -.699E+03   -.563E+00 0.927E-01 0.700E+03   0.725E-01 0.278E-01 -.222E+00
   0.352E+00 0.726E+00 -.697E+03   -.378E+00 -.784E+00 0.697E+03   0.661E-02 0.377E-01 -.236E+00
   0.610E+00 0.556E+01 -.207E+04   -.485E+00 -.569E+01 0.207E+04   -.882E-01 -.611E-01 0.547E+01
   0.367E+01 -.152E+00 -.207E+04   -.400E+01 0.173E+00 0.207E+04   0.127E+00 -.783E-02 0.544E+01
   -.429E-01 0.167E-02 0.519E+03   0.387E-01 -.251E-02 -.519E+03   0.443E-02 0.832E-03 -.718E-01
   -.278E-01 -.328E+00 0.518E+03   0.230E-01 0.312E+00 -.518E+03   0.597E-02 0.192E-01 -.117E+00
   -.323E-01 -.693E-01 0.157E+04   0.326E-01 0.704E-01 -.157E+04   -.307E-03 -.141E-02 0.312E+01
   -.290E-02 -.402E-02 0.157E+04   0.214E-02 0.377E-02 -.157E+04   0.943E-03 0.340E-03 0.312E+01
   -.902E-01 0.988E-01 -.158E+04   0.574E-01 -.116E+00 0.158E+04   0.515E-01 0.231E-01 -.450E+01
   -.107E+01 -.181E+01 -.157E+04   0.117E+01 0.187E+01 0.158E+04   -.113E+00 -.287E-01 -.422E+01
   -.153E+00 -.466E+00 -.516E+03   0.136E+00 0.464E+00 0.516E+03   0.299E-01 -.114E-02 0.357E+00
   -.235E-01 0.709E-01 -.515E+03   0.399E-01 -.825E-01 0.515E+03   -.202E-01 0.176E-01 0.355E+00
   -.861E-01 0.354E-02 0.518E+03   0.578E-01 -.574E-02 -.518E+03   0.328E-01 0.278E-02 -.951E-01
   -.258E-01 0.328E+00 0.518E+03   0.248E-01 -.313E+00 -.518E+03   0.147E-02 -.184E-01 -.120E+00
   -.329E-01 0.691E-01 0.157E+04   0.339E-01 -.704E-01 -.157E+04   -.112E-02 0.152E-02 0.312E+01
   0.896E-02 0.429E-02 0.157E+04   -.101E-01 -.402E-02 -.157E+04   0.142E-02 -.365E-03 0.312E+01
   -.543E+00 -.936E-01 -.158E+04   0.452E+00 0.107E+00 0.158E+04   0.130E+00 -.193E-01 -.435E+01
   -.824E+00 0.185E+01 -.158E+04   0.964E+00 -.195E+01 0.158E+04   -.172E+00 0.775E-01 -.435E+01
   -.284E+00 0.466E+00 -.517E+03   0.273E+00 -.464E+00 0.516E+03   0.207E-01 0.139E-02 0.332E+00
   -.734E+00 -.524E-01 -.523E+03   0.812E+00 0.568E-01 0.523E+03   -.104E+00 -.975E-02 -.347E-01
   0.664E-01 0.246E-01 0.519E+03   -.743E-01 -.381E-01 -.519E+03   0.993E-02 0.155E-01 -.633E-01
   0.443E-01 -.261E+00 0.518E+03   -.486E-01 0.263E+00 -.518E+03   0.480E-02 -.123E-02 -.106E+00
   0.322E-01 -.577E-01 0.157E+04   -.326E-01 0.584E-01 -.157E+04   0.587E-03 -.846E-03 0.312E+01
   0.240E-02 -.461E-02 0.157E+04   -.197E-02 0.503E-02 -.157E+04   -.546E-03 -.507E-03 0.312E+01
   0.808E-01 -.440E+00 -.158E+04   -.448E-01 0.469E+00 0.158E+04   -.532E-01 -.131E-01 -.448E+01
   0.725E+00 -.697E+00 -.158E+04   -.853E+00 0.831E+00 0.158E+04   0.154E+00 -.158E+00 -.454E+01
   0.203E+00 -.114E+01 -.518E+03   -.188E+00 0.121E+01 0.518E+03   -.262E-01 -.981E-01 0.224E+00
   -.860E-02 -.412E-01 -.517E+03   -.454E-02 0.329E-01 0.516E+03   0.174E-01 0.106E-01 0.284E+00
   0.110E+00 -.126E-02 0.519E+03   -.983E-01 0.290E-02 -.518E+03   -.134E-01 -.157E-02 -.751E-01
   0.519E-01 0.269E+00 0.519E+03   -.659E-01 -.275E+00 -.518E+03   0.162E-01 0.701E-02 -.965E-01
   0.324E-01 0.569E-01 0.157E+04   -.337E-01 -.579E-01 -.157E+04   0.163E-02 0.131E-02 0.312E+01
   -.966E-02 0.460E-02 0.157E+04   0.103E-01 -.513E-02 -.157E+04   -.820E-03 0.638E-03 0.312E+01
   0.193E+01 -.393E+00 -.158E+04   -.182E+01 0.516E+00 0.158E+04   -.204E+00 -.138E+00 -.443E+01
   0.365E+00 0.801E+00 -.158E+04   -.482E+00 -.954E+00 0.158E+04   0.156E+00 0.180E+00 -.459E+01
   0.325E+00 0.120E+01 -.516E+03   -.312E+00 -.128E+01 0.516E+03   -.220E-01 0.107E+00 0.337E+00
   0.607E+00 0.332E-01 -.517E+03   -.707E+00 -.264E-01 0.517E+03   0.132E+00 -.883E-02 0.273E+00
   -.136E+00 0.141E+00 0.166E+02   0.125E-12 -.239E-12 -.273E-11   0.131E+00 -.127E+00 -.146E+02

 POSITION                                       TOTAL-FORCE (eV/Angst)
      2.10122      0.00000      7.50000         0.000097     -0.000018      0.406505
      4.20243      2.10122      7.50000        -0.000244      0.000279      0.407756
      2.10122      2.10122      9.60122         0.001205      0.003633      0.035344
      4.20243      0.00000      9.60122         0.000727     -0.000974      0.036801
      2.10291      0.00043     11.71337        -0.010800     -0.003199     -0.017559
      4.20305      2.10346     11.71786         0.017681      0.017638     -0.044161
      2.10442      2.09927     13.80085        -0.050119     -0.011877     -0.028659
      4.20266      0.00149     13.79988         0.000561     -0.022515     -0.027357
      2.10122      4.20243      7.50000         0.000324     -0.000040      0.407267
      4.20243      6.30365      7.50000        -0.000272     -0.000366      0.408256
      2.10122      6.30365      9.60122         0.003892     -0.002902      0.035028
      4.20243      4.20243      9.60122        -0.000592      0.000869      0.046049
      2.10589      4.20252     11.71599        -0.011047      0.003349     -0.030681
      4.20267      6.30172     11.71726         0.018055     -0.016028     -0.024624
      2.10425      6.30655     13.80171        -0.034522      0.012795     -0.027157
      4.19540      4.20168     13.83174         0.170493      0.033099     -0.234380
      6.30365      0.00000      7.50000        -0.000192      0.000083      0.406252
      0.00000      2.10122      7.50000         0.000108      0.000123      0.408014
      6.30365      2.10122      9.60122         0.000892      0.002998      0.040499
      0.00000      0.00000      9.60122         0.002264      0.001523      0.035935
      6.30399      0.00224     11.71214         0.010004     -0.004697     -0.020189
      0.00107      2.10173     11.71505        -0.016899      0.015595     -0.001157
      6.30397      2.09400     13.80429         0.055762      0.137630     -0.042651
      0.00364      0.00140     13.80170        -0.001172     -0.005907     -0.020633
      6.30365      4.20243      7.50000        -0.000368     -0.000077      0.406742
      0.00000      6.30365      7.50000         0.000193     -0.000147      0.407474
      6.30365      6.30365      9.60122        -0.000086      0.000340      0.043898
      0.00000      4.20243      9.60122         0.004699     -0.000392      0.052187
      6.30136      4.20190     11.71143         0.018879      0.007794      0.120621
      0.00221      6.30398     11.71408        -0.018147     -0.015443      0.003923
      6.30642      6.31800     13.79310         0.026453     -0.181512      0.048525
      0.01264      4.20287     13.79932        -0.171258      0.011615      0.025062
      2.10122      0.00000      9.60122         0.000596      0.000031      0.055034
      4.20243      2.10122      9.60122         0.001955      0.006087      0.062739
      2.10122      2.10122      7.50000        -0.000157     -0.000517     -0.494845
      4.20243      0.00000      7.50000         0.000222      0.000090     -0.494578
      2.10192      0.00013     13.84374         0.026293      0.009422      0.011379
      4.20390      2.09792     13.83550        -0.027221      0.025929      0.121781
      2.10075      2.10196     11.70773         0.017158     -0.003378      0.024154
      4.20358      8.40444     11.70601        -0.006543      0.008445      0.032584
      2.10122      4.20243      9.60122         0.008979      0.000955      0.061154
      4.20243      6.30365      9.60122         0.000653     -0.005916      0.058385
      2.10122      6.30365      7.50000        -0.000432      0.000467     -0.494809
      4.20243      4.20243      7.50000         0.000369     -0.000182     -0.495120
      2.10155      4.20325     13.84619         0.058224     -0.008360      0.047352
      4.20643      6.30726     13.84088        -0.055365     -0.008663      0.067295
      2.10147      6.30343     11.70836         0.012554      0.003344      0.016599
      4.20530      4.20318     11.71389        -0.042141     -0.006817     -0.001716
      6.30365      0.00000      9.60122         0.003409      0.004122      0.052338
      0.00000      2.10122      9.60122         0.000986     -0.000204      0.051683
      6.30365      2.10122      7.50000         0.000104     -0.000335     -0.494419
      0.00000      0.00000      7.50000        -0.000281     -0.000201     -0.494168
      6.30654      0.00144     13.84110        -0.025069      0.014997      0.022453
      0.00134      2.10219     13.84551         0.047723     -0.045566     -0.000213
      6.30570      2.10370     11.70960        -0.015617     -0.040641     -0.013798
      0.00075      0.00027     11.70776         0.006459      0.003603      0.008401
      6.30365      4.20243      9.60122        -0.003293     -0.000169      0.044925
      0.00000      6.30365      9.60122         0.004379      0.001826      0.050387
      6.30365      6.30365      7.50000         0.000453      0.000444     -0.494291
      0.00000      4.20243      7.50000        -0.000352      0.000156     -0.494378
      6.31453      4.20547     13.85385        -0.130665     -0.034020     -0.017286
      0.00085      6.30441     13.84491         0.061232      0.051235     -0.012803
      6.30567      6.30257     11.70843        -0.012071      0.043863     -0.024201
      8.40443      4.20300     11.70977         0.050888     -0.003315     -0.024947
    total drift:                                0.006086      0.002527      0.005748

  FREE ENERGIE OF THE ION-ELECTRON SYSTEM (eV)
  free  energy   TOTEN  =      -438.71347700 eV

  energy  without entropy=     -438.71347700  energy(sigma->0) =     -438.71347700