 vasp.6.3.0 20Jan22 (build Apr  1 2022 16:44:48) complex
 executed on        HPECrayEX_GCC date 2022.11.13  16:07:18

 INCAR:
   SYSTEM = MgO-rocksalt
   ISMEAR = 0
   SIGMA = 0.05
   EDIFF = 1E-6
   ALGO = ALL
   ISTART = 0
   IBRION = -1
   NSW = 0
   ISYM = 0
   DIPOL = 0.5 0.5 0.5
   IDIPOL = 3
   LDIPOL = .TRUE.
   GGA = PE
   IVDW = 1
   VDW_C6 = 0.63 0.70
   VDW_R0 = 1.243 1.342
   ENCUT = 600
   PREC = Accurate
   LASPH = .TRUE.
   LREAL = .FALSE.
   ISPIN = 2
   MAGMOM = 0.0 0.0 0.0 0.0 0.0 0.0 0.0 0.0 0.0 0.0 0.0 0.0 0.0 0.0 0.0 0.0 0.0 0.0 0.0 0.0 0.0 0.0 0.0 0.0 0.0 0.0 0.0 0.0 0.0 0.0 0.0 0.0 0.0 0.0 0.0 0.0 0.0 0.0 0.0 0.0 0.0 0.0 0.0 0.0 0.0 0.0 0.0 0.0 0.0 0.0 0.0 0.0 0.0 0.0 0.0 0.0 0.0 0.0 0.0 0.0 0.0 0.0 0.0 0.0
   NELM = 200
   NELMIN = 8
   NCORE = 8
   KPAR = 1
   LWAVE = .FALSE.
   LCHARG = .FALSE.

 POTCAR:    PAW_PBE Mg_pv 13Apr2007
 POTCAR:    PAW_PBE O 08Apr2002
 POTCAR:    PAW_PBE Mg_pv 13Apr2007
   VRHFIN =Mg: p6s2

   TITEL  = PAW_PBE Mg_pv 13Apr2007
   POMASS =   24.305; ZVAL   =    8.000    mass and valenz
   ENMAX  =  403.929; ENMIN  =  302.947 eV

   TITEL  = PAW_PBE O 08Apr2002
   POMASS =   16.000; ZVAL   =    6.000    mass and valenz
   ENMAX  =  400.000; ENMIN  =  300.000 eV

  PAW_PBE Mg_pv 13Apr2007               :
  PAW_PBE O 08Apr2002                   :

 POSCAR: Mg  O
  positions in direct lattice
 exchange correlation table for  LEXCH =        8
   RHO(1)=    0.500       N(1)  =     2000
   RHO(2)=  100.500       N(2)  =     4000

 ion  position               nearest neighbor table
   1  0.250  0.000  0.352-  35 2.10  36 2.10  43 2.10  52 2.10  33 2.10
   2  0.500  0.250  0.352-  35 2.10  36 2.10  44 2.10  51 2.10  34 2.10
   3  0.250  0.250  0.451-  33 2.10  34 2.10  41 2.10  50 2.10  35 2.10  39 2.11
   4  0.500  0.000  0.451-  33 2.10  34 2.10  42 2.10  49 2.10  36 2.10  40 2.10
   5  0.250  0.000  0.550-  40 2.10  39 2.10  47 2.10  56 2.10  33 2.11  37 2.13
   6  0.500  0.250  0.550-  48 2.10  39 2.10  55 2.10  40 2.10  34 2.12  38 2.12
   7  0.250  0.250  0.648-  39 2.09  37 2.10  38 2.10  54 2.10  45 2.10
   8  0.500  0.000  0.648-  40 2.09  38 2.10  46 2.10  37 2.10  53 2.10
   9  0.250  0.500  0.352-  35 2.10  43 2.10  44 2.10  60 2.10  41 2.10
  10  0.500  0.750  0.352-  36 2.10  43 2.10  44 2.10  59 2.10  42 2.10
  11  0.250  0.750  0.451-  33 2.10  41 2.10  42 2.10  58 2.10  43 2.10  47 2.11
  12  0.500  0.500  0.451-  34 2.10  41 2.10  42 2.10  57 2.10  44 2.10  48 2.11
  13  0.251  0.500  0.550-  48 2.10  39 2.10  47 2.10  64 2.11  41 2.11  45 2.13
  14  0.500  0.750  0.550-  48 2.10  47 2.10  40 2.10  63 2.10  42 2.12  46 2.12
  15  0.250  0.750  0.648-  47 2.09  37 2.10  46 2.10  45 2.10  62 2.10
  16  0.499  0.500  0.649-  45 2.09  38 2.10  46 2.11  48 2.12  61 2.12
  17  0.750  0.000  0.352-  36 2.10  51 2.10  52 2.10  59 2.10  49 2.10
  18  0.000  0.250  0.352-  35 2.10  51 2.10  52 2.10  60 2.10  50 2.10
  19  0.750  0.250  0.451-  34 2.10  49 2.10  50 2.10  57 2.10  51 2.10  55 2.11
  20  0.000  0.000  0.451-  33 2.10  49 2.10  50 2.10  58 2.10  52 2.10  56 2.11
  21  0.750  0.000  0.550-  40 2.10  55 2.10  56 2.10  63 2.10  49 2.11  53 2.13
  22  0.000  0.250  0.550-  39 2.10  55 2.10  64 2.10  56 2.10  50 2.11  54 2.13
  23  0.750  0.249  0.648-  53 2.09  55 2.09  38 2.10  54 2.10  61 2.11
  24  0.000  0.000  0.648-  56 2.09  37 2.10  54 2.10  62 2.10  53 2.10
  25  0.750  0.500  0.352-  44 2.10  51 2.10  59 2.10  60 2.10  57 2.10
  26  0.000  0.750  0.352-  43 2.10  52 2.10  59 2.10  60 2.10  58 2.10
  27  0.750  0.750  0.451-  42 2.10  49 2.10  57 2.10  58 2.10  59 2.10  63 2.11
  28  0.000  0.500  0.451-  41 2.10  50 2.10  57 2.10  58 2.10  60 2.10  64 2.11
  29  0.750  0.500  0.550-  48 2.10  55 2.10  63 2.10  64 2.10  57 2.11  61 2.14
  30  0.000  0.750  0.550-  47 2.10  64 2.10  56 2.10  63 2.10  58 2.11  62 2.13
  31  0.750  0.752  0.647-  63 2.08  53 2.09  62 2.10  46 2.10  61 2.11
  32  0.002  0.500  0.648-  45 2.09  64 2.09  54 2.10  62 2.10  61 2.10
  33  0.250  0.000  0.451-   3 2.10   4 2.10  11 2.10  20 2.10   1 2.10   5 2.11
  34  0.500  0.250  0.451-   3 2.10   4 2.10  12 2.10  19 2.10   2 2.10   6 2.12
  35  0.250  0.250  0.352-   1 2.10   2 2.10   9 2.10  18 2.10   3 2.10
  36  0.500  0.000  0.352-   1 2.10   2 2.10  10 2.10  17 2.10   4 2.10
  37  0.250  0.000  0.650-  24 2.10  15 2.10   7 2.10   8 2.10   5 2.13
  38  0.500  0.250  0.649-   8 2.10   7 2.10  23 2.10  16 2.10   6 2.12
  39  0.250  0.250  0.550-   7 2.09  22 2.10  13 2.10   5 2.10   6 2.10   3 2.11
  40  0.500  1.000  0.549-   8 2.09  21 2.10   5 2.10  14 2.10   6 2.10   4 2.10
  41  0.250  0.500  0.451-   3 2.10  11 2.10  12 2.10  28 2.10   9 2.10  13 2.11
  42  0.500  0.750  0.451-   4 2.10  11 2.10  12 2.10  27 2.10  10 2.10  14 2.12
  43  0.250  0.750  0.352-   1 2.10   9 2.10  10 2.10  26 2.10  11 2.10
  44  0.500  0.500  0.352-   2 2.10   9 2.10  10 2.10  25 2.10  12 2.10
  45  0.250  0.500  0.650-  32 2.09  16 2.09  15 2.10   7 2.10  13 2.13
  46  0.500  0.750  0.650-   8 2.10  31 2.10  15 2.10  16 2.11  14 2.12
  47  0.250  0.750  0.550-  15 2.09  30 2.10  13 2.10  14 2.10   5 2.10  11 2.11
  48  0.500  0.500  0.550-  29 2.10  14 2.10  13 2.10   6 2.10  12 2.11  16 2.12
  49  0.750  0.000  0.451-   4 2.10  19 2.10  20 2.10  27 2.10  17 2.10  21 2.11
  50  0.000  0.250  0.451-   3 2.10  19 2.10  20 2.10  28 2.10  18 2.10  22 2.11
  51  0.750  0.250  0.352-   2 2.10  17 2.10  18 2.10  25 2.10  19 2.10
  52  0.000  0.000  0.352-   1 2.10  17 2.10  18 2.10  26 2.10  20 2.10
  53  0.750  0.000  0.650-  31 2.09  23 2.09  24 2.10   8 2.10  21 2.13
  54  0.000  0.250  0.650-  32 2.10  24 2.10  23 2.10   7 2.10  22 2.13
  55  0.750  0.250  0.550-  23 2.09  29 2.10  22 2.10  21 2.10   6 2.10  19 2.11
  56  0.000  0.000  0.550-  24 2.09  30 2.10  22 2.10  21 2.10   5 2.10  20 2.11
  57  0.750  0.500  0.451-  12 2.10  19 2.10  27 2.10  28 2.10  25 2.10  29 2.11
  58  0.000  0.750  0.451-  11 2.10  20 2.10  27 2.10  28 2.10  26 2.10  30 2.11
  59  0.750  0.750  0.352-  10 2.10  17 2.10  25 2.10  26 2.10  27 2.10
  60  0.000  0.500  0.352-   9 2.10  18 2.10  25 2.10  26 2.10  28 2.10
  61  0.751  0.500  0.650-  32 2.10  23 2.11  31 2.11  16 2.12  29 2.14
  62  0.000  0.750  0.650-  31 2.10  32 2.10  24 2.10  15 2.10  30 2.13
  63  0.750  0.750  0.550-  31 2.08  29 2.10  30 2.10  14 2.10  21 2.10  27 2.11
  64  1.000  0.500  0.550-  32 2.09  30 2.10  22 2.10  29 2.10  13 2.11  28 2.11

IMPORTANT INFORMATION: All symmetrisations will be switched off!
NOSYMM: (Re-)initialisation of all symmetry stuff for point group C_1.

                                     Primitive cell

  volume of cell :    1504.9259

  direct lattice vectors                    reciprocal lattice vectors
     8.404861995  0.000000000  0.000000000     0.118978753  0.000000000  0.000000000
     0.000000000  8.404861995  0.000000000     0.000000000  0.118978753  0.000000000
     0.000000000  0.000000000 21.303646496     0.000000000  0.000000000  0.046940321

  length of vectors
     8.404861995  8.404861995 21.303646496     0.118978753  0.118978753  0.046940321

  position of ions in fractional coordinates (direct lattice)
     0.250000000  0.000000000  0.352052406
     0.500000000  0.250000000  0.352052406
     0.250000000  0.250000000  0.450684135
     0.500000000  0.000000000  0.450684135
     0.250201296  0.000051186  0.549829182
     0.500074169  0.250267297  0.550040223
     0.250380904  0.249768525  0.647816109
     0.500027791  0.000177069  0.647770936
     0.250000000  0.500000000  0.352052406
     0.500000000  0.750000000  0.352052406
     0.250000000  0.750000000  0.450684135
     0.500000000  0.500000000  0.450684135
     0.250556007  0.500010133  0.549952401
     0.500029024  0.749770195  0.550011951
     0.250360895  0.750345249  0.647856598
     0.499163319  0.499910165  0.649266123
     0.750000000  0.000000000  0.352052406
     0.000000000  0.250000000  0.352052406
     0.750000000  0.250000000  0.450684135
     0.000000000  0.000000000  0.450684135
     0.750040870  0.000265953  0.549771423
     0.000127674  0.250061079  0.549908161
     0.750038308  0.249141597  0.647977931
     0.000432932  0.000166783  0.647856126
     0.750000000  0.500000000  0.352052406
     0.000000000  0.750000000  0.352052406
     0.750000000  0.750000000  0.450684135
     0.000000000  0.500000000  0.450684135
     0.749727982  0.499936508  0.549738246
     0.000263021  0.750039209  0.549862713
     0.750329619  0.751707916  0.647452657
     0.001503727  0.500051997  0.647744642
     0.250000000  0.000000000  0.450684135
     0.500000000  0.250000000  0.450684135
     0.250000000  0.250000000  0.352052406
     0.500000000  0.000000000  0.352052406
     0.250083279  0.000015404  0.649829528
     0.500175362  0.249607323  0.649442677
     0.249944391  0.250088293  0.549564651
     0.500136630  0.999950246  0.549483932
     0.250000000  0.500000000  0.450684135
     0.500000000  0.750000000  0.450684135
     0.250000000  0.750000000  0.352052406
     0.500000000  0.500000000  0.352052406
     0.250039983  0.500097099  0.649944714
     0.500476229  0.750430228  0.649695467
     0.250030158  0.749973742  0.549593958
     0.500341060  0.500088978  0.549853824
     0.750000000  0.000000000  0.450684135
     0.000000000  0.250000000  0.450684135
     0.750000000  0.250000000  0.352052406
     0.000000000  0.000000000  0.352052406
     0.750344121  0.000171502  0.649705803
     0.000159769  0.250115784  0.649912880
     0.750244159  0.250295708  0.549652232
     0.000089450  0.000032408  0.549565907
     0.750000000  0.500000000  0.450684135
     0.000000000  0.750000000  0.450684135
     0.750000000  0.750000000  0.352052406
     0.000000000  0.500000000  0.352052406
     0.751295068  0.500361563  0.650304388
     0.000101216  0.750090273  0.649884417
     0.750241148  0.749872146  0.549597635
     0.999948007  0.500067176  0.549660164

  ion indices of the primitive-cell ions
   primitive index   ion index
                 1           1
                 2           2
                 3           3
                 4           4
                 5           5
                 6           6
                 7           7
                 8           8
                 9           9
                10          10
                11          11
                12          12
                13          13
                14          14
                15          15
                16          16
                17          17
                18          18
                19          19
                20          20
                21          21
                22          22
                23          23
                24          24
                25          25
                26          26
                27          27
                28          28
                29          29
                30          30
                31          31
                32          32
                33          33
                34          34
                35          35
                36          36
                37          37
                38          38
[...]
   2.10290737  0.00043021 11.71336654
   4.20305438  2.10346209 11.71786246
   2.10441695  2.09926998 13.80084538
   4.20266458  0.00148824 13.79988303
   2.10121550  4.20243100  7.50000000
   4.20243100  6.30364650  7.50000000
   2.10121550  6.30364650  9.60121550
   4.20243100  4.20243100  9.60121550
   2.10588866  4.20251616 11.71599155
   4.20267494  6.30171502 11.71726017
   2.10424878  6.30654827 13.80170795
   4.19539881  4.20167595 13.83173596
   6.30364650  0.00000000  7.50000000
   0.00000000  2.10121550  7.50000000
   6.30364650  2.10121550  9.60121550
   0.00000000  0.00000000  9.60121550
   6.30399000  0.00223530 11.71213605
   0.00107309  2.10172886 11.71504906
   6.30396847  2.09400074 13.80429277
   0.00363873  0.00140179 13.80169789
   6.30364650  4.20243100  7.50000000
   0.00000000  6.30364650  7.50000000
   6.30364650  6.30364650  9.60121550
   0.00000000  4.20243100  9.60121550
   6.30136022  4.20189736 11.71142927
   0.00221065  6.30397604 11.71408086
   6.30641690  6.31800129 13.79310252
   0.01263862  4.20286802 13.79932288
   2.10121550  0.00000000  9.60121550
   4.20243100  2.10121550  9.60121550
   2.10121550  2.10121550  7.50000000
   4.20243100  0.00000000  7.50000000
   2.10191545  0.00012947 13.84373855
   4.20390489  2.09791510 13.83549722
   2.10074812  2.10195759 11.70773106
   4.20357935  8.40444382 11.70601144
   2.10121550  4.20243100  9.60121550
   4.20243100  6.30364650  9.60121550
   2.10121550  6.30364650  7.50000000
   4.20243100  4.20243100  7.50000000
   2.10155155  4.20324710 13.84619243
   4.20643363  6.30726250 13.84088255
   2.10146898  6.30342580 11.70835539
   4.20529756  4.20317884 11.71389148
   6.30364650  0.00000000  9.60121550
   0.00000000  2.10121550  9.60121550
   6.30364650  2.10121550  7.50000000
   0.00000000  0.00000000  7.50000000
   6.30653879  0.00144145 13.84110275
   0.00134284  2.10218865 13.84551426
   6.30569862  2.10370088 11.70959684
   0.00075181  0.00027239 11.70775780
   6.30364650  4.20243100  9.60121550
   0.00000000  6.30364650  9.60121550
   6.30364650  6.30364650  7.50000000
   0.00000000  4.20243100  7.50000000
   6.31453136  4.20546988 13.85385480
   0.00085071  6.30440523 13.84490789
   6.30567332  6.30257190 11.70843372
   8.40442500  4.20299560 11.70976582

--------------------------------------- Iteration      FINAL  ---------------------------------------

--------------------OUTCAR has been truncated-------------------------

[...]

--------------------OUTCAR has been truncated-------------------------

  DFT-D2 method for vdW energy calculation

  Parameters of vdW forcefield:
         C6(Jnm^6/mol)     R0(A)
   Mg       0.630          1.243
   O        0.700          1.342

  vdW correction parametrized for the method pbe

  IVDW =   1
  VDW_RADIUS =    50.000 A
  VDW_S6 =     0.750
  VDW_SR =     1.000
  VDW_D =    20.000
  LVDW_EWALD = F

  Number of pair interactions contributing to vdW energy:  731246
  Edisp (eV):   -3.69182

  FORCE on cell =-STRESS in cart. coord.  units (eV):
  Direction    XX          YY          ZZ          XY          YZ          ZX
  Alpha Z   883.92154   883.92154   883.92154
  Ewald  163323.19655163322.97510************    -0.02803     0.48928     1.10562
  Hartree173365.48406173365.34831************    -0.01639     0.29984     0.61387
  E(xc)   -2458.41087 -2458.41112 -2463.68859    -0.00001     0.00117     0.00241
  Local  ************************347074.87699     0.04400    -0.79997    -1.71776
  n-local -2811.33246 -2811.33475 -2831.91483    -0.00009     0.01574     0.03383
  augment  1047.61865  1047.61847  1038.31342    -0.00003     0.00477     0.00667
  Kinetic  7311.44407  7311.45136  7351.98393    -0.00020    -0.07889    -0.20770
  Fock        0.00000     0.00000     0.00000     0.00000     0.00000     0.00000
  vdW        -5.39618    -5.39616    -4.38509     0.00005     0.00019     0.00012
  Total     -16.35084   -16.35046     7.19627    -0.00071    -0.06788    -0.16295
  in kB     -17.40747   -17.40706     7.66131    -0.00075    -0.07226    -0.17348

 VOLUME and BASIS-vectors are now :
  energy-cutoff  :      600.00
  volume of cell :     1504.93
      direct lattice vectors                 reciprocal lattice vectors
     8.404861995  0.000000000  0.000000000     0.118978753  0.000000000  0.000000000
     0.000000000  8.404861995  0.000000000     0.000000000  0.118978753  0.000000000
     0.000000000  0.000000000 21.303646496     0.000000000  0.000000000  0.046940321

  length of vectors
     8.404861995  8.404861995 21.303646496     0.118978753  0.118978753  0.046940321

 FORCES acting on ions:
    Electron-Ion                     Ewald-Force                    Non-Local-Force
   -.339E-01 -.455E-02 0.209E+04   0.345E-01 0.459E-02 -.208E+04   -.454E-03 -.348E-04 -.706E+01
   0.980E-03 -.925E-01 0.209E+04   -.139E-02 0.942E-01 -.208E+04   0.286E-03 -.128E-02 -.707E+01
   -.226E+00 -.396E+00 0.692E+03   0.229E+00 0.409E+00 -.692E+03   -.184E-02 -.895E-02 0.489E+00
   -.577E-03 -.344E-01 0.692E+03   0.251E-02 0.313E-01 -.693E+03   -.111E-02 0.235E-02 0.452E+00
   0.102E+00 0.895E-01 -.696E+03   -.115E+00 -.945E-01 0.696E+03   0.150E-02 0.182E-02 -.238E+00
   -.536E+00 -.135E+01 -.697E+03   0.585E+00 0.147E+01 0.697E+03   -.328E-01 -.107E+00 -.441E+00
   0.479E+00 -.609E+00 -.208E+04   -.596E+00 0.467E+00 0.207E+04   0.677E-01 0.133E+00 0.623E+01
   -.196E+00 0.545E+00 -.208E+04   0.132E+00 -.580E+00 0.207E+04   0.650E-01 0.126E-01 0.622E+01
   -.443E-01 0.478E-02 0.209E+04   0.466E-01 -.469E-02 -.208E+04   -.178E-02 -.702E-04 -.707E+01
   0.127E-02 0.922E-01 0.209E+04   -.207E-02 -.939E-01 -.208E+04   0.588E-03 0.125E-02 -.707E+01
   -.226E+00 0.402E+00 0.692E+03   0.239E+00 -.412E+00 -.692E+03   -.820E-02 0.741E-02 0.498E+00
   0.141E+00 0.438E-01 0.691E+03   -.144E+00 -.401E-01 -.691E+03   0.191E-02 -.289E-02 0.538E+00
   -.292E+00 -.887E-01 -.697E+03   0.368E+00 0.941E-01 0.697E+03   -.891E-01 -.203E-02 -.227E+00
   -.405E+00 0.136E+01 -.698E+03   0.431E+00 -.148E+01 0.698E+03   -.896E-02 0.105E+00 -.387E+00
   -.633E-01 0.600E+00 -.208E+04   -.384E-01 -.454E+00 0.207E+04   0.686E-01 -.135E+00 0.622E+01
   -.570E+01 -.498E+00 -.209E+04   0.580E+01 0.574E+00 0.208E+04   0.798E-01 -.427E-01 0.641E+01
   0.347E-01 -.386E-02 0.209E+04   -.348E-01 0.467E-02 -.208E+04   0.403E-04 -.632E-03 -.706E+01
   -.591E-03 -.814E-01 0.209E+04   0.140E-02 0.817E-01 -.208E+04   -.599E-03 -.204E-03 -.707E+01
   0.246E+00 -.263E+00 0.692E+03   -.242E+00 0.272E+00 -.692E+03   -.288E-02 -.638E-02 0.493E+00
   0.174E-01 -.328E-01 0.692E+03   -.102E-01 0.382E-01 -.693E+03   -.496E-02 -.381E-02 0.476E+00
   -.621E-01 0.392E-01 -.695E+03   0.761E-01 -.617E-02 0.695E+03   -.372E-02 -.385E-01 -.238E+00
   0.498E+00 -.705E+00 -.697E+03   -.541E+00 0.756E+00 0.698E+03   0.274E-01 -.366E-01 -.312E+00
   0.271E-01 -.480E+01 -.208E+04   0.131E+00 0.491E+01 0.207E+04   -.105E+00 0.298E-01 0.623E+01
   0.181E+00 0.605E-01 -.208E+04   -.109E+00 -.656E-01 0.207E+04   -.727E-01 -.796E-03 0.619E+01
   0.455E-01 0.512E-02 0.209E+04   -.470E-01 -.541E-02 -.208E+04   0.119E-02 0.232E-03 -.706E+01
   -.289E-03 0.816E-01 0.209E+04   0.174E-02 -.817E-01 -.208E+04   -.110E-02 0.366E-04 -.707E+01
   0.248E+00 0.266E+00 0.692E+03   -.249E+00 -.266E+00 -.692E+03   0.594E-03 0.415E-03 0.475E+00
   -.118E+00 0.441E-01 0.691E+03   0.134E+00 -.457E-01 -.692E+03   -.107E-01 0.126E-02 0.475E+00
   0.506E+00 -.114E+00 -.699E+03   -.563E+00 0.927E-01 0.700E+03   0.768E-01 0.298E-01 -.299E+00
   0.357E+00 0.734E+00 -.697E+03   -.378E+00 -.784E+00 0.697E+03   0.450E-02 0.359E-01 -.314E+00
   0.600E+00 0.557E+01 -.207E+04   -.485E+00 -.569E+01 0.207E+04   -.908E-01 -.627E-01 0.614E+01
   0.370E+01 -.155E+00 -.207E+04   -.400E+01 0.173E+00 0.207E+04   0.131E+00 -.687E-02 0.611E+01
   -.432E-01 0.157E-02 0.519E+03   0.387E-01 -.251E-02 -.519E+03   0.530E-02 0.104E-02 -.674E-01
   -.277E-01 -.326E+00 0.518E+03   0.230E-01 0.312E+00 -.518E+03   0.650E-02 0.197E-01 -.116E+00
   -.323E-01 -.692E-01 0.157E+04   0.326E-01 0.704E-01 -.157E+04   -.381E-03 -.165E-02 0.348E+01
   -.288E-02 -.401E-02 0.157E+04   0.214E-02 0.377E-02 -.157E+04   0.105E-02 0.347E-03 0.348E+01
   -.878E-01 0.996E-01 -.158E+04   0.574E-01 -.116E+00 0.158E+04   0.558E-01 0.252E-01 -.492E+01
   -.107E+01 -.181E+01 -.157E+04   0.117E+01 0.187E+01 0.158E+04   -.121E+00 -.314E-01 -.462E+01
   -.152E+00 -.466E+00 -.516E+03   0.136E+00 0.464E+00 0.516E+03   0.335E-01 -.766E-03 0.372E+00
   -.246E-01 0.711E-01 -.515E+03   0.399E-01 -.825E-01 0.515E+03   -.211E-01 0.198E-01 0.371E+00
   -.844E-01 0.373E-02 0.518E+03   0.578E-01 -.574E-02 -.518E+03   0.344E-01 0.286E-02 -.939E-01
   -.263E-01 0.327E+00 0.518E+03   0.248E-01 -.313E+00 -.518E+03   0.222E-02 -.187E-01 -.119E+00
   -.330E-01 0.691E-01 0.157E+04   0.339E-01 -.704E-01 -.157E+04   -.124E-02 0.179E-02 0.348E+01
   0.882E-02 0.428E-02 0.157E+04   -.101E-01 -.402E-02 -.157E+04   0.183E-02 -.371E-03 0.348E+01
   -.535E+00 -.947E-01 -.158E+04   0.452E+00 0.107E+00 0.158E+04   0.137E+00 -.205E-01 -.476E+01
   -.831E+00 0.185E+01 -.158E+04   0.964E+00 -.195E+01 0.158E+04   -.183E+00 0.836E-01 -.477E+01
   -.283E+00 0.467E+00 -.517E+03   0.273E+00 -.464E+00 0.516E+03   0.229E-01 0.101E-02 0.345E+00
   -.739E+00 -.527E-01 -.523E+03   0.812E+00 0.568E-01 0.523E+03   -.112E+00 -.108E-01 -.495E-01
   0.670E-01 0.253E-01 0.519E+03   -.743E-01 -.381E-01 -.519E+03   0.103E-01 0.164E-01 -.590E-01
   0.443E-01 -.262E+00 0.518E+03   -.486E-01 0.263E+00 -.518E+03   0.524E-02 -.670E-03 -.105E+00
   0.321E-01 -.578E-01 0.157E+04   -.326E-01 0.584E-01 -.157E+04   0.727E-03 -.768E-03 0.348E+01
   0.235E-02 -.462E-02 0.157E+04   -.197E-02 0.503E-02 -.157E+04   -.535E-03 -.561E-03 0.348E+01
   0.781E-01 -.438E+00 -.158E+04   -.448E-01 0.469E+00 0.158E+04   -.570E-01 -.149E-01 -.490E+01
   0.732E+00 -.704E+00 -.158E+04   -.853E+00 0.831E+00 0.158E+04   0.164E+00 -.167E+00 -.497E+01
   0.202E+00 -.114E+01 -.518E+03   -.188E+00 0.121E+01 0.518E+03   -.290E-01 -.105E+00 0.230E+00
   -.755E-02 -.410E-01 -.517E+03   -.454E-02 0.329E-01 0.516E+03   0.181E-01 0.115E-01 0.293E+00
   0.109E+00 -.163E-02 0.519E+03   -.983E-01 0.290E-02 -.518E+03   -.131E-01 -.121E-02 -.692E-01
   0.527E-01 0.269E+00 0.519E+03   -.659E-01 -.275E+00 -.518E+03   0.170E-01 0.697E-02 -.937E-01
   0.324E-01 0.569E-01 0.157E+04   -.337E-01 -.579E-01 -.157E+04   0.189E-02 0.136E-02 0.348E+01
   -.957E-02 0.459E-02 0.157E+04   0.103E-01 -.513E-02 -.157E+04   -.104E-02 0.755E-03 0.348E+01
   0.191E+01 -.398E+00 -.158E+04   -.182E+01 0.516E+00 0.158E+04   -.217E+00 -.148E+00 -.485E+01
   0.373E+00 0.809E+00 -.158E+04   -.482E+00 -.954E+00 0.158E+04   0.166E+00 0.190E+00 -.502E+01
   0.325E+00 0.120E+01 -.516E+03   -.312E+00 -.128E+01 0.516E+03   -.241E-01 0.114E+00 0.353E+00
   0.614E+00 0.328E-01 -.517E+03   -.707E+00 -.264E-01 0.517E+03   0.140E+00 -.942E-02 0.285E+00
   -.129E+00 0.134E+00 0.148E+02   0.125E-12 -.239E-12 -.273E-11   0.134E+00 -.132E+00 -.148E+02

 POSITION                                       TOTAL-FORCE (eV/Angst)
      2.10122      0.00000      7.50000         0.000083     -0.000017      0.286921
      4.20243      2.10122      7.50000        -0.000201      0.000350      0.288124
      2.10122      2.10122      9.60122         0.001395      0.003616      0.028207
      4.20243      0.00000      9.60122         0.000711     -0.000803      0.028721
      2.10291      0.00043     11.71337        -0.010723     -0.003107     -0.003612
      4.20305      2.10346     11.71786         0.016217      0.015484     -0.035896
      2.10442      2.09927     13.80085        -0.048291     -0.010307      0.047032
      4.20266      0.00149     13.79988         0.000391     -0.022188      0.048362
      2.10122      4.20243      7.50000         0.000427     -0.000014      0.287810
      4.20243      6.30365      7.50000        -0.000279     -0.000412      0.288667
      2.10122      6.30365      9.60122         0.003909     -0.002945      0.028118
      4.20243      4.20243      9.60122        -0.001040      0.000756      0.041139
      2.10589      4.20252     11.71599        -0.011724      0.003252     -0.018205
      4.20267      6.30172     11.71726         0.016644     -0.013864     -0.014900
      2.10425      6.30655     13.80171        -0.032491      0.011241      0.048005
      4.19540      4.20168     13.83174         0.169840      0.031731     -0.154550
      6.30365      0.00000      7.50000        -0.000123      0.000146      0.286626
      0.00000      2.10122      7.50000         0.000126      0.000069      0.288327
      6.30365      2.10122      9.60122         0.000603      0.002424      0.033563
      0.00000      0.00000      9.60122         0.002134      0.001506      0.028644
      6.30399      0.00224     11.71214         0.009840     -0.005142     -0.007488
      0.00107      2.10173     11.71505        -0.015459      0.013656      0.010269
      6.30397      2.09400     13.80429         0.052533      0.136910      0.033590
      0.00364      0.00140     13.80170        -0.001037     -0.005702      0.053124
      6.30365      4.20243      7.50000        -0.000421     -0.000086      0.287056
      0.00000      6.30365      7.50000         0.000264     -0.000086      0.287819
      6.30365      6.30365      9.60122        -0.000273      0.000770      0.036133
      0.00000      4.20243      9.60122         0.005079     -0.000417      0.044399
      6.30136      4.20190     11.71143         0.018819      0.007797      0.131014
      0.00221      6.30398     11.71408        -0.016813     -0.013449      0.015332
      6.30642      6.31800     13.79310         0.023663     -0.180170      0.122060
      0.01264      4.20287     13.79932        -0.166161      0.010919      0.097886
      2.10122      0.00000      9.60122         0.000633      0.000056      0.060231
      4.20243      2.10122      9.60122         0.001745      0.005137      0.068958
      2.10122      2.10122      7.50000        -0.000175     -0.000504     -0.575353
      4.20243      0.00000      7.50000         0.000235      0.000071     -0.575138
      2.10192      0.00013     13.84374         0.025172      0.008956      0.140765
      4.20390      2.09792     13.83550        -0.024207      0.026152      0.244244
      2.10075      2.10196     11.70773         0.016736     -0.003297      0.008911
      4.20358      8.40444     11.70601        -0.005783      0.008193      0.017857
      2.10122      4.20243      9.60122         0.007749      0.000837      0.066496
      4.20243      6.30365      9.60122         0.000727     -0.004967      0.064797
      2.10122      6.30365      7.50000        -0.000416      0.000484     -0.575351
      4.20243      4.20243      7.50000         0.000452     -0.000142     -0.575696
      2.10155      4.20325     13.84619         0.053934     -0.007808      0.173250
      4.20643      6.30726     13.84088        -0.050544     -0.010295      0.192949
      2.10147      6.30343     11.70836         0.012161      0.003254      0.001825
      4.20530      4.20318     11.71389        -0.039204     -0.006654     -0.005437
      6.30365      0.00000      9.60122         0.002996      0.003590      0.056987
      0.00000      2.10122      9.60122         0.000923     -0.000044      0.057879
      6.30365      2.10122      7.50000         0.000130     -0.000251     -0.574993
      0.00000      0.00000      7.50000        -0.000224     -0.000187     -0.574896
      6.30654      0.00144     13.84110        -0.023665      0.015155      0.151430
      0.00134      2.10219     13.84551         0.043295     -0.040760      0.129845
      6.30570      2.10370     11.70960        -0.015188     -0.037912     -0.025022
      0.00075      0.00027     11.70776         0.005822      0.003349     -0.005151
      6.30365      4.20243      9.60122        -0.002503      0.000046      0.050600
      0.00000      6.30365      9.60122         0.003808      0.001537      0.056339
      6.30365      6.30365      7.50000         0.000469      0.000371     -0.574792
      0.00000      4.20243      7.50000        -0.000361      0.000187     -0.574966
      6.31453      4.20547     13.85385        -0.124156     -0.029952      0.108208
      0.00085      6.30441     13.84491         0.056487      0.045734      0.118506
      6.30567      6.30257     11.70843        -0.011575      0.040762     -0.038532
      8.40443      4.20300     11.70977         0.046886     -0.003015     -0.037046
    total drift:                                0.004939      0.001994      0.004883

  FREE ENERGIE OF THE ION-ELECTRON SYSTEM (eV)
  free  energy   TOTEN  =      -375.87195774 eV

  energy  without entropy=     -375.87195774  energy(sigma->0) =     -375.87195774