 vasp.6.3.0 20Jan22 (build Mar 11 2022 13:48:16) complex

 executed on             LinuxIFC date 2023.12.30  22:36:07

 INCAR:
   SYSTEM = TiO2
   ISMEAR = 0
   SIGMA = 0.05
   EDIFF = 1E-7
   ALGO = ALL
   ISTART = 0
   IBRION = 2
   NSW = 1000
   ISYM = 0
   ISIF = 2
   EDIFFG = -0.02
   DIPOL = 0.5 0.5 0.5
   IDIPOL = 3
   LDIPOL = .TRUE.
   LHFCALC = .TRUE.
   HFSCREEN = 0.2
   GGA = PE
   IVDW = 13
   VDW_S8 = 1.19528249
   VDW_A1 = 0.38663183
   VDW_A2 = 5.19133469
   ENCUT = 520
   PREC = Normal
   PRECFOCK = Fast
   LASPH = .TRUE.
   LREAL = .FALSE.
   ISPIN = 1
   NKREDX = 2
   NKREDY = 2
   NELM = 200
   NELMIN = 8
   NCORE = 19
   KPAR = 1
   LWAVE = .FALSE.
   LCHARG = .FALSE.

 POTCAR:    PAW_PBE H 15Jun2001
 POTCAR:    PAW_PBE O 08Apr2002
 POTCAR:    PAW_PBE Ti 08Apr2002
 POTCAR:    PAW_PBE O 08Apr2002
 POTCAR:    PAW_PBE H 15Jun2001
   VRHFIN =H: ultrasoft test

   TITEL  = PAW_PBE H 15Jun2001
   POMASS =    1.000; ZVAL   =    1.000    mass and valenz
   ENMAX  =  250.000; ENMIN  =  200.000 eV

   TITEL  = PAW_PBE O 08Apr2002
   POMASS =   16.000; ZVAL   =    6.000    mass and valenz
   ENMAX  =  400.000; ENMIN  =  300.000 eV

[...]

   TITEL  = PAW_PBE O 08Apr2002
   POMASS =   16.000; ZVAL   =    6.000    mass and valenz
   ENMAX  =  400.000; ENMIN  =  300.000 eV

  PAW_PBE H 15Jun2001                   :
  PAW_PBE O 08Apr2002                   :
  PAW_PBE Ti 08Apr2002                  :
  PAW_PBE O 08Apr2002                   :

 POSCAR:  H  O Ti  O
  positions in direct lattice
|           W    W    AA    RRRRR   N    N  II  N    N   GGGG   !!!           |
|           W    W   A  A   R    R  NN   N  II  NN   N  G    G  !!!           |
|           W    W  A    A  R    R  N N  N  II  N N  N  G       !!!           |
|           W WW W  AAAAAA  RRRRR   N  N N  II  N  N N  G  GGG   !            |
|           WW  WW  A    A  R   R   N   NN  II  N   NN  G    G                |
|           W    W  A    A  R    R  N    N  II  N    N   GGGG   !!!           |
|     Specifying the vdW parameters                                           |
|     VDW_S8 = 1.195                                                          |
|     VDW_A1 = 0.387                                                          |
|     VDW_A2 = 5.191                                                          |
|     in the INCAR file will overwrite the defaults for hse06. Please         |
|     make sure that is what you intended.                                    |

 ion  position               nearest neighbor table
   1  0.509  0.551  0.831-   3 0.97
   2  0.613  0.497  0.810-   3 1.00
   3  0.536  0.492  0.810-   1 0.97   2 1.00  83 2.23
   4  0.750  0.625  0.264-  85 1.94 145 1.94 144 1.94  84 1.94 166 1.97  87 1.97  14 2.94  34 2.94

   5  0.000  0.750  0.264-  87 1.94 107 1.94 106 1.94  86 1.94  88 1.97  35 2.94  15 2.94
   6  0.000  0.625  0.382-  89 1.94 149 1.94 148 1.94  88 1.94  90 1.97  91 1.97  16 2.94  36 2.94

[...]

  84  0.750  0.750  0.218-   4 1.94  14 1.94
  85  0.750  0.750  0.311-   4 1.94  14 1.94   7 1.97
  86  0.098  0.625  0.264-   5 1.94  35 1.94  44 1.97
  87  0.902  0.625  0.264-   5 1.94  35 1.94   4 1.97
  88  0.000  0.750  0.336-   6 1.94  16 1.94   5 1.97
  89  0.000  0.750  0.428-   6 1.94  16 1.94   9 1.97
  90  0.848  0.625  0.382-   7 1.94  37 1.94   6 1.97
  91  0.152  0.625  0.382-  47 1.94  77 1.94   6 1.97
  92  0.750  0.750  0.454-   8 1.94  18 1.94   7 1.97
  93  0.750  0.750  0.546-   8 1.94  18 1.94  11 2.09
  94  0.098  0.625  0.500-   9 1.94  39 1.94  48 1.97
  95  0.902  0.625  0.500-   9 1.94  39 1.94   8 1.97
  96  1.000  0.750  0.572-  10 1.89  20 1.89   9 1.98
  97  0.000  0.750  0.664-  13 1.82  10 1.99  20 1.99
  98  0.850  0.625  0.618-  10 1.94  41 1.96  11 1.96
  99  0.150  0.625  0.618-  10 1.94  81 1.96  51 1.96
 100  0.750  0.750  0.690-  11 1.86  12 2.07  22 2.07
 101  0.750  0.750  0.783-  12 1.83  22 1.83
 102  0.094  0.625  0.742-  43 1.93  13 1.93  52 2.02
 103  0.906  0.625  0.742-  43 1.93  13 1.93  12 2.02
 104  0.750  0.000  0.218-  14 1.94  24 1.94
 105  0.750  0.000  0.311-  14 1.94  24 1.94  17 1.97
 106  0.098  0.875  0.264-   5 1.94  15 1.94  54 1.97
 107  0.902  0.875  0.264-   5 1.94  15 1.94  14 1.97
 108  0.000  0.000  0.336-  16 1.94  26 1.94  15 1.97
 109  0.000  0.000  0.428-  16 1.94  26 1.94  19 1.97
 110  0.848  0.875  0.382-   7 1.94  17 1.94  16 1.97
 111  0.152  0.875  0.382-  47 1.94  57 1.94  16 1.97
 112  0.750  0.000  0.454-  18 1.94  28 1.94  17 1.97
 113  0.750  0.000  0.546-  18 1.94  28 1.94  21 2.09
 114  0.098  0.875  0.500-   9 1.94  19 1.94  58 1.97
 115  0.902  0.875  0.500-   9 1.94  19 1.94  18 1.97
 116  1.000  0.000  0.572-  20 1.89  30 1.89  19 1.98
 117  0.000  1.000  0.664-  23 1.82  20 1.99  30 1.99
 118  0.850  0.875  0.618-  20 1.94  21 1.96  11 1.96
 119  0.150  0.875  0.618-  20 1.94  61 1.96  51 1.96
 120  0.750  1.000  0.690-  21 1.86  22 2.07  32 2.07
 121  0.750  0.000  0.783-  22 1.83  32 1.83
 122  0.094  0.875  0.742-  23 1.93  13 1.93  62 2.02
 123  0.906  0.875  0.742-  23 1.93  13 1.93  22 2.02
 124  0.750  0.250  0.218-  24 1.94  34 1.94
 125  0.750  0.250  0.311-  24 1.94  34 1.94  27 1.97
 126  0.098  0.125  0.264-  15 1.94  25 1.94  64 1.97
 127  0.902  0.125  0.264-  15 1.94  25 1.94  24 1.97
 128  0.000  0.250  0.336-  26 1.94  36 1.94  25 1.97
 129  0.000  0.250  0.428-  26 1.94  36 1.94  29 1.97
 130  0.848  0.125  0.382-  17 1.94  27 1.94  26 1.97
 131  0.152  0.125  0.382-  57 1.94  67 1.94  26 1.97
 132  0.750  0.250  0.454-  28 1.94  38 1.94  27 1.97
 133  0.750  0.250  0.546-  28 1.94  38 1.94  31 2.09
 134  0.098  0.125  0.500-  19 1.94  29 1.94  68 1.97
 135  0.902  0.125  0.500-  19 1.94  29 1.94  28 1.97
 136  1.000  0.250  0.572-  30 1.89  40 1.89  29 1.98
 137  0.000  0.250  0.664-  33 1.82  30 1.99  40 1.99
 138  0.850  0.125  0.618-  30 1.94  21 1.96  31 1.96
 139  0.150  0.125  0.618-  30 1.94  61 1.96  71 1.96
 140  0.750  0.250  0.690-  31 1.86  32 2.07  42 2.07
 141  0.750  0.250  0.783-  32 1.83  42 1.83
 142  0.094  0.125  0.742-  23 1.93  33 1.93  72 2.02
 143  0.906  0.125  0.742-  23 1.93  33 1.93  32 2.02
[...]
 229  0.500  0.500  0.428-  46 1.94  76 1.94  79 1.97
 230  0.348  0.375  0.382-  67 1.94  77 1.94  76 1.97
 231  0.652  0.375  0.382-  27 1.94  37 1.94  76 1.97
 232  0.250  0.500  0.454-  48 1.94  78 1.94  77 1.97
 233  0.250  0.500  0.546-  48 1.94  78 1.94  81 2.09
 234  0.598  0.375  0.500-  69 1.94  79 1.94  38 1.97
 235  0.402  0.375  0.500-  69 1.94  79 1.94  78 1.97
 236  0.500  0.500  0.572-  80 1.89  50 1.89  79 1.98
 237  0.500  0.500  0.664-  83 1.82  80 1.99  50 1.99
 238  0.350  0.375  0.618-  80 1.94  81 1.96  71 1.96
 239  0.650  0.375  0.618-  80 1.94  41 1.96  31 1.96
 240  0.250  0.500  0.690-  81 1.86  82 2.07  52 2.07
 241  0.250  0.500  0.783-  82 1.83  52 1.83
 242  0.594  0.375  0.742-  83 1.93  73 1.93  42 2.02
 243  0.406  0.375  0.742-  83 1.93  73 1.93  82 2.02

IMPORTANT INFORMATION: All symmetrisations will be switched off!
NOSYMM: (Re-)initialisation of all symmetry stuff for point group C_1.

                                     Primitive cell

  volume of cell :    4180.4259

  direct lattice vectors                    reciprocal lattice vectors
    12.939701814  0.000000000  0.000000000     0.077281534  0.000000000  0.000000000
     0.000000000 11.760793336  0.000000000     0.000000000  0.085028278  0.000000000
     0.000000000  0.000000000 27.470062065     0.000000000  0.000000000  0.036403267

  length of vectors
    12.939701814 11.760793336 27.470062065     0.077281534  0.085028278  0.036403267

  position of ions in fractional coordinates (direct lattice)
     0.509265208  0.550850412  0.831191291
     0.612681665  0.496870251  0.810192852
     0.535882677  0.491878058  0.809812024
     0.750000000  0.625000000  0.264476291
     0.000000000  0.750000000  0.264476291
     0.000000000  0.625000000  0.382238145
     0.750000000  0.750000000  0.382238145
     0.750000000  0.625000000  0.500000000
     0.000000000  0.750000000  0.500000000
     0.000000081  0.625000000  0.615474623
     0.750000011  0.749999998  0.621974638
     0.749999948  0.624999991  0.743007752
     0.999999979  0.750000000  0.730533546
     0.750000000  0.875000000  0.264476291
     0.000000000  0.000000000  0.264476291
     0.000000000  0.875000000  0.382238145
     0.750000000  0.000000000  0.382238145
     0.750000000  0.875000000  0.500000000
     0.000000000  0.000000000  0.500000000
     0.000000028  0.875000011  0.615474625
     0.750000005  0.000000018  0.621974643
     0.749999941  0.875000027  0.743007753
     0.999999975  1.000000000  0.730533536
     0.750000000  0.125000000  0.264476291
     0.000000000  0.250000000  0.264476291
     0.000000000  0.125000000  0.382238145
     0.750000000  0.250000000  0.382238145
     0.750000000  0.125000000  0.500000000
     0.000000000  0.250000000  0.500000000
     0.000000058  0.124999999  0.615474625
     0.750000006  0.250000001  0.621974641
     0.749999945  0.124999996  0.743007752
     0.999999980  0.250000000  0.730533547
     0.750000000  0.375000000  0.264476291
     0.000000000  0.500000000  0.264476291
     0.000000000  0.375000000  0.382238145
     0.750000000  0.500000000  0.382238145
     0.750000000  0.375000000  0.500000000
     0.000000000  0.500000000  0.500000000
     0.000000042  0.375000008  0.615474625
     0.750000026  0.500000021  0.621974642
     0.749999950  0.375000020  0.743007757
     0.999999983  0.499999999  0.730533536
     0.250000000  0.625000000  0.264476291
     0.500000000  0.750000000  0.264476291
     0.500000000  0.625000000  0.382238145
     0.250000000  0.750000000  0.382238145
     0.250000000  0.625000000  0.500000000
     0.500000000  0.750000000  0.500000000
     0.500000038  0.625000001  0.615474625
     0.250000010  0.750000021  0.621974633
     0.249999950  0.624999994  0.743007746
     0.499999985  0.750000001  0.730533548
     0.250000000  0.875000000  0.264476291
     0.500000000  0.000000000  0.264476291
     0.500000000  0.875000000  0.382238145
     0.250000000  0.000000000  0.382238145
     0.250000000  0.875000000  0.500000000
     0.500000000  0.000000000  0.500000000
     0.500000065  0.875000011  0.615474623
[...]
     0.500000000  0.500000000  0.428294835
     0.347775060  0.375000000  0.382238145
     0.652224940  0.375000000  0.382238145
     0.250000000  0.500000000  0.453943310
     0.250000000  0.500000000  0.546056690
     0.597775060  0.375000000  0.500000000
     0.402224940  0.375000000  0.500000000
     0.499999855  0.500000006  0.572193426
     0.500000149  0.500000001  0.664456288
     0.349897728  0.375000057  0.618409488
     0.650102233  0.375000051  0.618409229
     0.249999756  0.499999986  0.689811501
     0.250000024  0.500000006  0.782511010
     0.593682847  0.375000042  0.741959738
     0.406317020  0.375000036  0.741959606

  ion indices of the primitive-cell ions
   primitive index   ion index
                 1           1
                 2           2
                 3           3
                 4           4
                 5           5
                 6           6
                 7           7
[...]
   3.23492229  5.88039650 18.94916474
   3.23492577  5.88039674 21.49562601
   7.68207901  4.41029799 20.38168006
   5.25762108  4.41029792 20.38167641

--------------------------------------- Iteration      FINAL  ---------------------------------------

--------------------OUTCAR has been truncated-------------------------

[...]

--------------------OUTCAR has been truncated-------------------------

  FORCE on cell =-STRESS in cart. coord.  units (eV):
  Direction    XX          YY          ZZ          XY          YZ          ZX
  Alpha Z  3321.95619  3321.95619  3321.95619
  Ewald  352339.04948357422.01072************   -25.64067    40.40189   -49.47046
  Hartree374551.76252375777.73634************    -5.57633     7.55657   -25.38212
  E(xc)   -4674.41302 -4725.38940 -4674.80511    -0.02155     0.09833     0.03257
  Local  ************************740043.52745    24.41607   -36.15561    69.66694
  n-local -2901.63462 -2795.56664 -2957.37407    -0.18160    -0.21472    -0.07265
  augment  1343.69728  1324.66531  1349.61365     0.44602    -0.78161     0.25673
  Kinetic 23525.36002 23002.75856 23591.54895     6.51308   -10.90442     5.07692
  Fock    -2142.80043 -2168.09126 -2144.82113     0.02418    -0.03860     0.16758
  vdW       -50.85329   -50.95363   -44.41358     0.00351    -0.00293     0.00623
  Total      10.47045   -42.75874   -33.51788    -0.01728    -0.04109     0.28176
  in kB       4.01287   -16.38758   -12.84596    -0.00662    -0.01575     0.10798

 VOLUME and BASIS-vectors are now :
  energy-cutoff  :      520.00
  volume of cell :     4180.43
      direct lattice vectors                 reciprocal lattice vectors
    12.939701814  0.000000000  0.000000000     0.077281534  0.000000000  0.000000000
     0.000000000 11.760793336  0.000000000     0.000000000  0.085028278  0.000000000
     0.000000000  0.000000000 27.470062065     0.000000000  0.000000000  0.036403267

  length of vectors
    12.939701814 11.760793336 27.470062065     0.077281534  0.085028278  0.036403267

 FORCES acting on ions:
    Electron-Ion                     Ewald-Force                    Non-Local-Force
   0.360E+02 -.612E+02 -.298E+03   -.395E+02 0.673E+02 0.304E+03   0.332E+01 -.583E+01 -.522E+01
   -.659E+02 -.101E+01 -.275E+03   0.740E+02 0.113E+01 0.275E+03   -.782E+01 -.106E+00 -.986E-01
   0.596E+02 0.372E+02 -.158E+04   -.784E+02 -.691E+02 0.157E+04   0.164E+02 0.279E+02 0.131E+02
   -.115E+00 -.391E-01 0.968E+03   0.113E+00 0.394E-01 -.971E+03   -.181E-03 0.170E-03 -.124E+01
   -.318E-01 -.495E-01 0.104E+04   0.330E-01 0.499E-01 -.104E+04   0.337E-03 0.174E-03 -.184E+01
   -.626E-01 -.356E-01 0.501E+03   0.672E-01 0.355E-01 -.500E+03   0.153E-02 0.766E-04 0.182E+00
   -.122E+00 -.431E-01 0.497E+03   0.116E+00 0.435E-01 -.498E+03   -.145E-02 0.367E-03 -.168E+00
   -.255E+00 -.159E+00 0.253E+01   0.226E+00 0.149E+00 -.211E+01   -.935E-02 -.549E-02 0.165E+00
   -.273E+00 -.264E+00 0.242E+01   0.286E+00 0.268E+00 -.304E+01   0.177E-02 -.164E-02 -.765E-01
   -.167E+01 -.704E+00 -.486E+03   0.166E+01 0.715E+00 0.486E+03   0.506E-02 -.624E-02 -.569E-01
   -.177E+01 -.266E+01 -.491E+03   0.177E+01 0.265E+01 0.490E+03   -.181E-01 -.629E-02 0.359E-01
   -.278E+02 -.780E+01 -.940E+03   0.278E+02 0.752E+01 0.939E+03   0.153E+00 0.708E-01 0.135E+00
   -.174E+01 -.134E+01 -.981E+03   0.175E+01 0.129E+01 0.981E+03   -.364E-01 -.655E-02 0.660E+00
   -.108E+00 -.414E-01 0.968E+03   0.106E+00 0.422E-01 -.971E+03   -.201E-03 0.497E-03 -.124E+01
   -.297E-01 -.144E-02 0.104E+04   0.308E-01 0.166E-02 -.104E+04   0.331E-03 0.100E-03 -.184E+01
   -.523E-01 -.395E-01 0.501E+03   0.566E-01 0.393E-01 -.500E+03   0.147E-02 -.300E-04 0.182E+00
   -.139E+00 -.483E-02 0.497E+03   0.133E+00 0.467E-02 -.498E+03   -.158E-02 -.975E-04 -.168E+00
   -.529E+00 -.219E+00 0.204E+01   0.508E+00 0.239E+00 -.161E+01   -.525E-02 0.117E-01 0.169E+00
   -.180E+00 -.105E-01 0.206E+01   0.192E+00 0.904E-02 -.267E+01   0.221E-02 0.135E-03 -.757E-01
   -.802E+00 -.636E+00 -.487E+03   0.779E+00 0.641E+00 0.488E+03   0.381E-02 -.472E-02 -.530E-01
   -.123E+01 0.909E-01 -.496E+03   0.124E+01 -.978E-01 0.495E+03   -.151E-01 0.166E-03 0.425E-01
   -.614E+01 -.621E+01 -.952E+03   0.614E+01 0.616E+01 0.951E+03   0.166E-01 0.105E-01 0.370E-01
   -.135E+01 0.903E-01 -.982E+03   0.132E+01 -.931E-01 0.983E+03   0.144E-01 -.192E-02 0.690E+00
   -.108E+00 0.389E-01 0.968E+03   0.106E+00 -.392E-01 -.971E+03   -.211E-03 -.197E-03 -.124E+01
   -.320E-01 0.495E-01 0.104E+04   0.332E-01 -.499E-01 -.104E+04   0.339E-03 -.174E-03 -.184E+01
   -.522E-01 0.363E-01 0.501E+03   0.566E-01 -.362E-01 -.500E+03   0.148E-02 -.106E-04 0.182E+00
   -.116E+00 0.432E-01 0.497E+03   0.111E+00 -.436E-01 -.498E+03   -.142E-02 -.351E-03 -.168E+00
   -.513E+00 0.191E+00 0.204E+01   0.492E+00 -.213E+00 -.161E+01   -.455E-02 -.127E-01 0.168E+00
   -.263E+00 0.274E+00 0.243E+01   0.277E+00 -.276E+00 -.305E+01   0.212E-02 0.155E-02 -.765E-01
   -.525E+00 0.649E+00 -.487E+03   0.488E+00 -.657E+00 0.488E+03   0.555E-02 0.557E-02 -.555E-01
   -.193E+01 0.261E+01 -.491E+03   0.194E+01 -.260E+01 0.490E+03   -.185E-01 0.308E-02 0.304E-01
   -.612E+01 0.617E+01 -.952E+03   0.612E+01 -.612E+01 0.951E+03   0.187E-01 -.665E-02 0.322E-01
   -.160E+01 0.131E+01 -.981E+03   0.161E+01 -.125E+01 0.981E+03   -.330E-01 0.560E-02 0.659E+00
   -.114E+00 0.416E-01 0.968E+03   0.112E+00 -.423E-01 -.971E+03   -.190E-03 -.469E-03 -.124E+01
   -.341E-01 0.144E-02 0.104E+04   0.353E-01 -.167E-02 -.104E+04   0.344E-03 -.100E-03 -.184E+01
   -.627E-01 0.388E-01 0.501E+03   0.674E-01 -.386E-01 -.500E+03   0.156E-02 -.364E-04 0.182E+00
   -.999E-01 0.472E-02 0.497E+03   0.946E-01 -.457E-02 -.498E+03   -.143E-02 0.694E-04 -.168E+00
   -.231E+00 0.188E+00 0.251E+01   0.201E+00 -.176E+00 -.209E+01   -.957E-02 0.658E-02 0.164E+00
   -.333E+00 0.716E-03 0.276E+01   0.348E+00 -.837E-03 -.339E+01   0.192E-02 -.814E-04 -.792E-01
   -.155E+01 0.696E+00 -.486E+03   0.154E+01 -.703E+00 0.486E+03   0.419E-02 0.510E-02 -.535E-01
   -.217E+01 -.561E-01 -.488E+03   0.217E+01 0.603E-01 0.487E+03   -.333E-01 0.410E-03 0.341E-01
   -.277E+02 0.751E+01 -.940E+03   0.277E+02 -.719E+01 0.939E+03   0.127E+00 -.854E-01 0.131E+00
   -.268E+01 -.329E-01 -.979E+03   0.264E+01 0.305E-01 0.980E+03   0.332E-01 0.234E-02 0.624E+00
   0.115E+00 -.356E-01 0.968E+03   -.113E+00 0.357E-01 -.971E+03   0.181E-03 0.577E-04 -.124E+01
   0.318E-01 -.595E-01 0.104E+04   -.330E-01 0.603E-01 -.104E+04   -.339E-03 0.307E-03 -.183E+01
   0.567E-01 0.616E-02 0.501E+03   -.612E-01 0.148E-02 -.500E+03   -.156E-02 0.216E-02 0.189E+00
   0.128E+00 -.278E-01 0.497E+03   -.122E+00 0.280E-01 -.498E+03   0.145E-02 0.951E-04 -.165E+00
   0.484E+00 -.743E-01 0.191E+01   -.453E+00 0.660E-01 -.145E+01   0.703E-02 -.446E-02 0.181E+00
   0.256E+00 -.295E+00 0.371E+01   -.265E+00 0.238E+00 -.422E+01   -.615E-02 0.116E-01 -.725E-01
   0.991E+00 -.336E+01 -.482E+03   -.101E+01 0.362E+01 0.482E+03   0.200E-01 -.100E+00 -.232E-01
   0.357E+01 -.201E+01 -.495E+03   -.360E+01 0.202E+01 0.494E+03   0.243E-03 0.586E-02 0.482E-01
   0.145E+02 -.554E+01 -.946E+03   -.145E+02 0.553E+01 0.945E+03   0.421E-01 0.222E-02 0.409E-02
   0.765E+01 -.220E+02 -.964E+03   -.765E+01 0.222E+02 0.965E+03   -.118E+00 -.298E-01 0.766E+00
   0.108E+00 -.382E-01 0.968E+03   -.106E+00 0.388E-01 -.971E+03   0.198E-03 0.406E-03 -.124E+01
   0.296E-01 -.241E-02 0.104E+04   -.308E-01 0.272E-02 -.104E+04   -.331E-03 0.132E-03 -.183E+01
   0.473E-01 -.107E-01 0.501E+03   -.515E-01 0.121E-01 -.500E+03   -.151E-02 -.337E-03 0.189E+00
   0.144E+00 -.535E-02 0.497E+03   -.138E+00 0.527E-02 -.498E+03   0.148E-02 -.931E-05 -.165E+00
   0.689E+00 -.992E-01 0.167E+01   -.671E+00 0.101E+00 -.121E+01   0.529E-02 0.648E-03 0.180E+00
   0.112E+00 -.410E-01 0.439E+01   -.120E+00 0.415E-01 -.509E+01   -.254E-02 -.182E-02 -.137E+00
   -.188E+00 -.388E+01 -.477E+03   0.191E+00 0.399E+01 0.478E+03   0.164E-01 -.203E-01 -.185E+00
[...]
   -.255E+02 0.247E-01 0.748E+03   0.299E+02 -.255E-01 -.748E+03   -.344E+01 0.927E-03 0.186E+00
   0.256E+02 0.358E-01 0.748E+03   -.300E+02 -.367E-01 -.748E+03   0.345E+01 0.129E-02 0.194E+00
   0.327E+00 0.245E-01 0.318E+03   -.308E+00 -.248E-01 -.323E+03   -.221E-01 0.646E-03 0.410E+01
   0.140E+01 0.166E+00 -.317E+03   -.136E+01 -.166E+00 0.325E+03   -.553E-01 -.172E-02 -.669E+01
   -.248E+02 -.834E-01 0.587E+01   0.300E+02 0.779E-01 -.606E+01   -.490E+01 0.248E-01 0.227E+00
   0.254E+02 -.135E+00 0.549E+01   -.306E+02 0.128E+00 -.567E+01   0.495E+01 0.267E-01 0.218E+00
   0.562E+00 0.129E+00 -.413E+03   -.527E+00 -.237E+00 0.405E+03   -.306E-01 0.962E-01 0.652E+01
   0.876E+01 -.989E+00 -.103E+04   -.926E+01 0.105E+01 0.103E+04   0.441E+00 -.516E-01 -.185E+01
   -.761E+01 0.206E+01 -.729E+03   0.112E+02 -.218E+01 0.727E+03   -.316E+01 0.110E+00 0.933E+00
   0.101E+02 0.292E+01 -.728E+03   -.136E+02 -.299E+01 0.727E+03   0.300E+01 0.586E-01 0.552E+00
   0.143E+02 -.568E+00 -.115E+04   -.144E+02 0.560E+00 0.115E+04   0.747E-01 0.583E-02 -.186E+01
   0.374E+02 0.928E+00 -.168E+04   -.372E+02 -.102E+01 0.170E+04   -.151E+00 0.755E-01 -.197E+02
   -.155E+02 0.472E+02 -.140E+04   0.222E+02 -.472E+02 0.141E+04   -.586E+01 -.422E-01 -.793E+00
   0.328E+02 0.322E+02 -.145E+04   -.398E+02 -.320E+02 0.146E+04   0.604E+01 -.130E+00 -.310E+01
   -.118E+02 -.261E+02 0.837E+02   -.284E-13 0.188E-11 -.155E-10   0.994E+01 0.223E+02 -.780E+02

 POSITION                                       TOTAL-FORCE (eV/Angst)
      6.58246      6.47560     22.89307        -0.008986     -0.007502      0.010844
      7.92150      5.84010     22.32938         0.011524      0.006740     -0.005114
      6.93676      5.80077     22.30543         0.016170     -0.005484      0.000418
      9.70478      7.35050      7.26518        -0.002031      0.000469     -3.961923
      0.00000      8.82060      7.26518         0.001477      0.000606      3.128177
      0.00000      7.35050     10.50011         0.006312     -0.000026      0.583119
      9.70478      8.82060     10.50011        -0.007625      0.000887     -0.866862
      9.70478      7.35050     13.73503        -0.039503     -0.016301      0.621970
      0.00000      8.82060     13.73503         0.016530      0.002918     -0.781632
      0.00252      7.35081     16.90653         0.001469      0.006547      0.000447
      9.70752      8.82236     17.07162        -0.001243     -0.001311      0.004563
      9.71227      7.36127     20.37429         0.008808      0.006447      0.003283
     -0.00409      8.82230     20.07347         0.005929      0.000222      0.001089
      9.70478     10.29069      7.26518        -0.002304      0.001287     -3.962525
      0.00000      0.00000      7.26518         0.001457      0.000331      3.127411
      0.00000     10.29069     10.50011         0.005977     -0.000209      0.583067
      9.70478      0.00000     10.50011        -0.008030     -0.000286     -0.866837
      9.70478     10.29069     13.73503        -0.026896      0.033888      0.634871
      0.00000      0.00000     13.73503         0.015031     -0.001491     -0.775104
      0.00147     10.29062     16.90946        -0.001532      0.004939     -0.003574
      9.70256      0.00035     17.08109        -0.006558     -0.001275      0.002059
      9.70056     10.29272     20.40566        -0.001589     -0.002818     -0.004559
      0.00111     -0.00033     20.07215        -0.005250     -0.002425     -0.000026
      9.70478      1.47010      7.26518        -0.002349     -0.000577     -3.963093
      0.00000      2.94020      7.26518         0.001491     -0.000628      3.127588
      0.00000      1.47010     10.50011         0.006069      0.000094      0.582841
      9.70478      2.94020     10.50011        -0.007372     -0.000880     -0.867588
      9.70478      1.47010     13.73503        -0.026404     -0.037157      0.632604
      0.00000      2.94020     13.73503         0.017433     -0.001312     -0.782806
      0.00207      1.47000     16.90877        -0.002733     -0.007438     -0.003805
      9.70662      2.93843     17.07141        -0.002220      0.000947      0.002658
      9.69931      1.46562     20.40535        -0.000990     -0.003755     -0.004625
     -0.00340      2.93782     20.07312         0.004152     -0.000045      0.001035
      9.70478      4.41030      7.26518        -0.002079     -0.001231     -3.962498
      0.00000      5.88040      7.26518         0.001570     -0.000354      3.128363
      0.00000      4.41030     10.50011         0.006415      0.000100      0.582992
      9.70478      5.88040     10.50011        -0.007074      0.000226     -0.867581
      9.70478      4.41030     13.73503        -0.040515      0.019456      0.620469
      0.00000      5.88040     13.73503         0.017805     -0.000187     -0.786997
      0.00254      4.41018     16.90675        -0.000209     -0.004148     -0.000887
      9.71428      5.88021     17.07668         0.001363      0.001032     -0.000158
      9.71705      4.39651     20.37649         0.010053     -0.001200      0.005614
      0.00893      5.88108     20.07150         0.002692      0.001652      0.002149
      3.23493      7.35050      7.26518         0.001823      0.000135     -3.959845
      6.46985      8.82060      7.26518        -0.001729      0.001069      3.135885
      6.46985      7.35050     10.50011        -0.006343      0.010608      0.604356
      3.23493      8.82060     10.50011         0.007280      0.000346     -0.848524
      3.23493      7.35050     13.73503         0.038596     -0.013553      0.684697
      6.46985      8.82060     13.73503        -0.013849     -0.049883     -0.645664
      6.47254      7.32485     16.94297         0.002949     -0.002534     -0.002084
      3.23837      8.81923     17.08094         0.003016     -0.000515     -0.000890
      3.23871      7.35251     20.40752         0.001483      0.002286     -0.006615
      6.46986      8.82594     20.03725         0.003857      0.010732      0.005491
      3.23493     10.29069      7.26518         0.002084      0.001013     -3.960585
      6.46985      0.00000      7.26518        -0.001657      0.000456      3.134982
      6.46985     10.29069     10.50011        -0.006008      0.001276      0.607728
      3.23493      0.00000     10.50011         0.007632     -0.000118     -0.849663
      3.23493     10.29069     13.73503         0.024458      0.002793      0.677754
      6.46985      0.00000     13.73503        -0.011538     -0.001083     -0.865377
      6.46654     10.28131     16.87877         0.002109     -0.009055     -0.001102
[...]
      6.46985      5.88040     11.76529         0.002175     -0.000817     -0.143763
      4.50011      4.41030     10.50011         0.475895      0.000270      0.057692
      8.43960      4.41030     10.50011        -0.469040      0.000555      0.060103
      3.23493      5.88040     12.46985        -0.006739      0.000416     -0.084069
      3.23493      5.88040     15.00021        -0.016244     -0.001860      0.052704
      7.73503      4.41030     13.73503        -0.438177      0.023761      0.072094
      5.20467      4.41030     13.73503         0.471310      0.024593      0.072720
      6.47268      5.87777     15.72615        -0.000520      0.001945      0.013018
      6.45638      5.88448     18.28157         0.005829     -0.000601     -0.017124
      4.52065      4.41079     16.99164         0.000391     -0.002684      0.000847
      8.41883      4.41162     17.00407        -0.001120     -0.003008     -0.001166
      3.22750      5.88518     18.95146         0.007182     -0.001294     -0.004382
      3.25270      5.87985     21.49379        -0.001192     -0.003054      0.007691
      7.71112      4.37029     20.25538         0.000423     -0.001770     -0.003546
      5.25988      4.39891     20.35922         0.001419      0.000169      0.003268
    total drift:                                0.023946      0.003213      0.013030

  FREE ENERGIE OF THE ION-ELECTRON SYSTEM (eV)
  free  energy   TOTEN  =     -2637.07652673 eV

  energy  without entropy=    -2637.07652673  energy(sigma->0) =    -2637.07652673

 d Force = 0.1866155E-03[ 0.972E-04, 0.276E-03]  d Energy = 0.1870164E-03-0.401E-06
 d Force =-0.1827690E+01[-0.183E+01,-0.183E+01]  d Ewald  =-0.1827690E+01 0.237E-06

 Conjugate gradient step on ions:
 trial-energy change:   -0.000187  1 .order   -0.000187   -0.000276   -0.000097
  (g-gl).g = 0.587E-03      g.g   = 0.595E-03  gl.gl    = 0.833E-03
 g(Force)  = 0.595E-03   g(Stress)= 0.000E+00 ortho     = 0.995E-06
 gamma     =   0.70443
 trial     =   0.46320
 opt step  =   0.71518  (harmonic =   0.71518) maximal distance =0.00176826
 next E    = -2637.076553   (d E  =  -0.00021)

 reached required accuracy - stopping structural energy minimisation