 vasp.6.3.0 20Jan22 (build Apr  1 2022 16:44:48) complex
 executed on        HPECrayEX_GCC date 2023.01.23  21:53:40

 INCAR:
   SYSTEM = MgO-rocksalt
   ISMEAR = 0
   SIGMA = 0.05
   EDIFF = 1E-8
   ALGO = ALL
   ISTART = 0
   IBRION = 5
   POTIM = 0.01
   NFREE = 2
   ISYM = 0
   DIPOL = 0.5 0.5 0.5
   IDIPOL = 3
   LDIPOL = .TRUE.
   GGA = RE
   AGGAC = 0.0
   LUSE_VDW = .TRUE.
   LASPH = .TRUE.
   ENCUT = 600
   PREC = Accurate
   LASPH = .TRUE.
   LREAL = .FALSE.
   ISPIN = 1
   NELM = 200
   NELMIN = 8
   NCORE = 8
   KPAR = 1
   LWAVE = .FALSE.
   LCHARG = .FALSE.

 POTCAR:    PAW_PBE C 08Apr2002
 POTCAR:    PAW_PBE O 08Apr2002
 POTCAR:    PAW_PBE Mg_pv 13Apr2007
 POTCAR:    PAW_PBE O 08Apr2002
|               ----> ADVICE to this user running VASP <----                  |
|     You have switched on vdW-DFT.                                           |
|     This routine was written and supplied by Jiri Klimes. We recommend      |
|     that you carefully read and cite the following publications:            |
|       J. Klimes, D.R. Bowler, A. Michelides                                 |
|          J. Phys.: Cond Matt. 22 022201 (2010)                              |
|       J. Klimes, D.R. Bowler, A. Michelides                                 |
|          Phys. Rev. B. 83, 195131 (2011)                                    |
|     and references therein.                                                 |

   TITEL  = PAW_PBE C 08Apr2002
   POMASS =   12.011; ZVAL   =    4.000    mass and valenz
   ENMAX  =  400.000; ENMIN  =  300.000 eV

[...]

   TITEL  = PAW_PBE Mg_pv 13Apr2007
   POMASS =   24.305; ZVAL   =    8.000    mass and valenz
   ENMAX  =  403.929; ENMIN  =  302.947 eV

   TITEL  = PAW_PBE O 08Apr2002
   POMASS =   16.000; ZVAL   =    6.000    mass and valenz
   ENMAX  =  400.000; ENMIN  =  300.000 eV

  PAW_PBE C 08Apr2002                   :
  PAW_PBE O 08Apr2002                   :
  PAW_PBE Mg_pv 13Apr2007               :
  PAW_PBE O 08Apr2002                   :

 POSCAR:  C  O Mg  O
  positions in direct lattice
 exchange correlation table for  LEXCH =       40
   RHO(1)=    0.500       N(1)  =     2000
   RHO(2)=  100.500       N(2)  =     4000

 ion  position               nearest neighbor table
   1  0.500  0.500  0.769-   2 1.14
   2  0.500  0.500  0.822-   1 1.14
   3  0.000  0.750  0.350-  35 2.14  37 2.14  38 2.14  45 2.14  54 2.14
   4  0.250  0.000  0.350-  36 2.14  37 2.14  38 2.14  46 2.14  53 2.14
   5  0.000  0.000  0.450-  37 2.14  36 2.14  35 2.14  43 2.14  52 2.14  41 2.14
   6  0.250  0.750  0.450-  38 2.14  36 2.14  35 2.14  44 2.14  51 2.14  42 2.14
   7  0.000  0.750  0.550-  49 2.14  42 2.14  58 2.14  41 2.14  35 2.14  39 2.17
   8  0.250  0.000  0.550-  57 2.14  50 2.14  42 2.14  41 2.14  36 2.14  40 2.17
   9  0.000  0.000  0.650-  41 2.13  40 2.13  39 2.13  47 2.13  56 2.13
  10  0.250  0.750  0.649-  42 2.12  40 2.13  39 2.13  48 2.14  55 2.14
  11  0.000  0.250  0.350-  43 2.14  37 2.14  45 2.14  46 2.14  62 2.14
  12  0.250  0.500  0.350-  44 2.14  38 2.14  45 2.14  46 2.14  61 2.14
  13  0.000  0.500  0.450-  45 2.14  43 2.14  44 2.14  35 2.14  60 2.14  49 2.14
  14  0.250  0.250  0.450-  46 2.14  43 2.14  44 2.14  36 2.14  59 2.14  50 2.14
  15  0.000  0.250  0.550-  49 2.14  50 2.14  66 2.14  41 2.14  43 2.14  47 2.17
  16  0.251  0.500  0.551-  65 2.13  50 2.14  42 2.14  49 2.14  44 2.15  48 2.16
  17  0.000  0.500  0.649-  48 2.13  64 2.13  49 2.13  47 2.14  39 2.14
  18  0.250  0.250  0.649-  50 2.12  47 2.13  40 2.13  48 2.14  63 2.14
  19  0.500  0.750  0.350-  51 2.14  38 2.14  53 2.14  54 2.14  61 2.14
  20  0.750  0.000  0.350-  52 2.14  37 2.14  53 2.14  54 2.14  62 2.14
  21  0.500  0.000  0.450-  53 2.14  51 2.14  52 2.14  36 2.14  59 2.14  57 2.14
  22  0.750  0.750  0.450-  54 2.14  51 2.14  52 2.14  35 2.14  60 2.14  58 2.14
  23  0.500  0.749  0.551-  65 2.13  58 2.14  42 2.14  57 2.14  51 2.15  55 2.16
  24  0.750  0.000  0.550-  57 2.14  58 2.14  66 2.14  41 2.14  52 2.14  56 2.17
  25  0.500  0.000  0.649-  55 2.13  63 2.13  57 2.13  40 2.14  56 2.14
  26  0.750  0.750  0.649-  58 2.12  56 2.13  39 2.13  55 2.14  64 2.14
  27  0.500  0.250  0.350-  59 2.14  53 2.14  46 2.14  61 2.14  62 2.14
  28  0.750  0.500  0.350-  60 2.14  54 2.14  45 2.14  61 2.14  62 2.14
  29  0.500  0.500  0.450-  61 2.14  51 2.14  59 2.14  60 2.14  44 2.14  65 2.15
  30  0.750  0.250  0.450-  62 2.14  52 2.14  59 2.14  60 2.14  43 2.14  66 2.14
  31  0.500  0.251  0.551-  65 2.13  50 2.14  66 2.14  57 2.14  59 2.15  63 2.16
  32  0.749  0.500  0.551-  65 2.13  58 2.14  66 2.14  49 2.14  60 2.15  64 2.16
  33  0.500  0.500  0.652-  48 2.15  55 2.15  63 2.15  64 2.15  65 2.18
  34  0.750  0.250  0.649-  66 2.12  56 2.13  47 2.13  64 2.14  63 2.14
  35  0.000  0.750  0.450-   3 2.14   5 2.14   6 2.14  13 2.14  22 2.14   7 2.14
  36  0.250  0.000  0.450-   4 2.14   5 2.14   6 2.14  14 2.14  21 2.14   8 2.14
  37  0.000  0.000  0.350-   5 2.14   4 2.14   3 2.14  11 2.14  20 2.14
  38  0.250  0.750  0.350-   6 2.14   4 2.14   3 2.14  12 2.14  19 2.14
  39  0.000  0.750  0.651-  10 2.13  26 2.13   9 2.13  17 2.14   7 2.17
  40  0.250  0.000  0.651-  10 2.13  18 2.13   9 2.13  25 2.14   8 2.17
  41  0.000  0.000  0.550-   9 2.13   8 2.14   7 2.14  15 2.14  24 2.14   5 2.14
  42  0.250  0.750  0.550-  10 2.12   8 2.14   7 2.14  16 2.14  23 2.14   6 2.14
  43  0.000  0.250  0.450-  11 2.14   5 2.14  13 2.14  14 2.14  30 2.14  15 2.14
  44  0.250  0.500  0.450-  12 2.14   6 2.14  13 2.14  14 2.14  29 2.14  16 2.15
  45  0.000  0.500  0.350-  13 2.14  11 2.14  12 2.14   3 2.14  28 2.14
  46  0.250  0.250  0.350-  14 2.14  11 2.14  12 2.14   4 2.14  27 2.14
  47  0.000  0.250  0.651-  18 2.13  34 2.13   9 2.13  17 2.14  15 2.17
  48  0.249  0.500  0.651-  17 2.13  10 2.14  18 2.14  33 2.15  16 2.16
  49  0.000  0.500  0.550-  17 2.13  15 2.14   7 2.14  13 2.14  16 2.14  32 2.14
  50  0.250  0.250  0.550-  18 2.12  15 2.14   8 2.14  16 2.14  31 2.14  14 2.14
  51  0.500  0.750  0.450-  19 2.14   6 2.14  21 2.14  22 2.14  29 2.14  23 2.15
  52  0.750  0.000  0.450-  20 2.14   5 2.14  21 2.14  22 2.14  30 2.14  24 2.14
  53  0.500  0.000  0.350-  21 2.14  19 2.14  20 2.14   4 2.14  27 2.14
  54  0.750  0.750  0.350-  22 2.14  19 2.14  20 2.14   3 2.14  28 2.14
  55  0.500  0.751  0.651-  25 2.13  10 2.14  26 2.14  33 2.15  23 2.16
  56  0.750  0.000  0.651-  26 2.13  34 2.13   9 2.13  25 2.14  24 2.17
  57  0.500  0.000  0.550-  25 2.13  24 2.14   8 2.14  21 2.14  23 2.14  31 2.14
  58  0.750  0.750  0.550-  26 2.12  24 2.14   7 2.14  23 2.14  32 2.14  22 2.14
  59  0.500  0.250  0.450-  27 2.14  21 2.14  14 2.14  29 2.14  30 2.14  31 2.15
  60  0.750  0.500  0.450-  28 2.14  22 2.14  13 2.14  29 2.14  30 2.14  32 2.15
  61  0.500  0.500  0.350-  29 2.14  19 2.14  27 2.14  28 2.14  12 2.14
  62  0.750  0.250  0.350-  30 2.14  20 2.14  27 2.14  28 2.14  11 2.14
  63  0.500  0.249  0.651-  25 2.13  18 2.14  34 2.14  33 2.15  31 2.16
  64  0.751  0.500  0.651-  17 2.13  26 2.14  34 2.14  33 2.15  32 2.16
  65  0.500  0.500  0.551-  16 2.13  23 2.13  31 2.13  32 2.13  29 2.15  33 2.18
  66  0.750  0.250  0.550-  34 2.12  24 2.14  15 2.14  32 2.14  31 2.14  30 2.14

IMPORTANT INFORMATION: All symmetrisations will be switched off!
NOSYMM: (Re-)initialisation of all symmetry stuff for point group C_1.

                                     Primitive cell

  volume of cell :    1563.6717

  direct lattice vectors                    reciprocal lattice vectors
     8.546113626  0.000000000  0.000000000     0.117012252  0.000000000  0.000000000
     0.000000000  8.546113626  0.000000000     0.000000000  0.117012252  0.000000000
     0.000000000  0.000000000 21.409585219     0.000000000  0.000000000  0.046708051

  length of vectors
     8.546113626  8.546113626 21.409585219     0.117012252  0.117012252  0.046708051

  position of ions in fractional coordinates (direct lattice)
     0.500000000  0.500000000  0.768736416
     0.500000000  0.500000000  0.822210893
     0.000000000  0.750000000  0.350310383
     0.250000000  0.000000000  0.350310383
     0.000000000  0.000000000  0.450103461
     0.250000000  0.750000000  0.450103461
     0.000000000  0.749911102  0.550256625
     0.250088898  0.000000000  0.550256625
     0.000000000  0.000000000  0.649548573
     0.249625761  0.750374239  0.649258508
     0.000000000  0.250000000  0.350310383
     0.250000000  0.500000000  0.350310383
     0.000000000  0.500000000  0.450103461
     0.250000000  0.250000000  0.450103461
     0.000000000  0.250088898  0.550256625
     0.250518455  0.500000000  0.550555343
     0.000000000  0.500000000  0.649424303
     0.249625761  0.249625761  0.649258508
     0.500000000  0.750000000  0.350310383
     0.750000000  0.000000000  0.350310383
     0.500000000  0.000000000  0.450103461
     0.750000000  0.750000000  0.450103461
     0.500000000  0.749481545  0.550555343
     0.749911102  0.000000000  0.550256625
     0.500000000  0.000000000  0.649424303
     0.750374239  0.750374239  0.649258508
     0.500000000  0.250000000  0.350310383
     0.750000000  0.500000000  0.350310383
     0.500000000  0.500000000  0.450103461
     0.750000000  0.250000000  0.450103461
     0.500000000  0.250518455  0.550555343
     0.749481545  0.500000000  0.550555343
     0.500000000  0.500000000  0.652187787
     0.750374239  0.249625761  0.649258508
     0.000000000  0.750000000  0.450103461
     0.250000000  0.000000000  0.450103461
     0.000000000  0.000000000  0.350310383
     0.250000000  0.750000000  0.350310383
     0.000000000  0.750299711  0.651447714
     0.249700289  0.000000000  0.651447714
     0.000000000  0.000000000  0.550054707
     0.249941515  0.750058485  0.550104933
     0.000000000  0.250000000  0.450103461
     0.250000000  0.500000000  0.450103461
     0.000000000  0.500000000  0.350310383
     0.250000000  0.250000000  0.350310383
     0.000000000  0.249700289  0.651447714
     0.248743428  0.500000000  0.651471990
     0.000000000  0.500000000  0.550039741
     0.249941515  0.249941515  0.550104933
     0.500000000  0.750000000  0.450103461
     0.750000000  0.000000000  0.450103461
     0.500000000  0.000000000  0.350310383
     0.750000000  0.750000000  0.350310383
     0.500000000  0.751256572  0.651471990
     0.750299711  0.000000000  0.651447714
     0.500000000  0.000000000  0.550039741
     0.750058485  0.750058485  0.550104933
     0.500000000  0.250000000  0.450103461
     0.750000000  0.500000000  0.450103461
     0.500000000  0.500000000  0.350310383
     0.750000000  0.250000000  0.350310383
     0.500000000  0.248743428  0.651471990
     0.751256572  0.500000000  0.651471990
     0.500000000  0.500000000  0.550568450
     0.750058485  0.249941515  0.550104933

  ion indices of the primitive-cell ions
   primitive index   ion index
                 1           1
                 2           2
                 3           3
                 4           4
                 5           5
                 6           6
                 7           7
                 8           8
                 9           9
                10          10
                11          11
[...]
      0.000000  6.412147 13.947225            0           0           0
      2.133967  0.000000 13.947225            0           0           0
      0.000000  0.000000 11.776443            0           0           0
      2.136029  6.410085 11.777518            0           0           0
      0.000000  2.136528  9.636528            0           0           0
      2.136528  4.273057  9.636528            0           0           0
      0.000000  4.273057  7.500000            0           0           0
      2.136528  2.136528  7.500000            0           0           0
      0.000000  2.133967 13.947225            0           0           0
      2.125790  4.273057 13.947745            0           0           0
      0.000000  4.273057 11.776123            0           0           0
      2.136029  2.136029 11.777518            0           0           0
      4.273057  6.409585  9.636528            0           0           0
      6.409585  0.000000  9.636528            0           0           0
      4.273057  0.000000  7.500000            0           0           0
      6.409585  6.409585  7.500000            0           0           0
      4.273057  6.420324 13.947745            0           0           0
      6.412147  0.000000 13.947225            0           0           0
      4.273057  0.000000 11.776123            0           0           0
      6.410085  6.410085 11.777518            0           0           0
      4.273057  2.136528  9.636528            0           0           0
      6.409585  4.273057  9.636528            0           0           0
      4.273057  4.273057  7.500000            0           0           0
      6.409585  2.136528  7.500000            0           0           0
      4.273057  2.125790 13.947745            0           0           0
      6.420324  4.273057 13.947745            0           0           0
      4.273057  4.273057 11.787442            0           0           0
      6.410085  2.136029 11.777518            0           0           0

[...]

   4 f  =    3.121990 THz    19.616041 2PiTHz  104.138375 cm-1    12.911507 meV
             X         Y         Z           dx          dy          dz
      4.273057  4.273057 16.458328    -0.000110   -0.001291   -0.654034
      4.273057  4.273057 17.603194     0.001938   -0.001908   -0.756459
      0.000000  6.409585  7.500000            0           0           0
      2.136528  0.000000  7.500000            0           0           0
      0.000000  0.000000  9.636528            0           0           0
      2.136528  6.409585  9.636528            0           0           0
      0.000000  6.408825 11.780766            0           0           0
      2.137288  0.000000 11.780766            0           0           0
      0.000000  0.000000 13.906566            0           0           0
      2.133330  6.412784 13.900355            0           0           0
      0.000000  2.136528  7.500000            0           0           0
      2.136528  4.273057  7.500000            0           0           0
      0.000000  4.273057  9.636528            0           0           0
      2.136528  2.136528  9.636528            0           0           0
      0.000000  2.137288 11.780766            0           0           0
      2.140959  4.273057 11.787162            0           0           0
      0.000000  4.273057 13.903905            0           0           0
      2.133330  2.133330 13.900355            0           0           0
      4.273057  6.409585  7.500000            0           0           0
      6.409585  0.000000  7.500000            0           0           0
      4.273057  0.000000  9.636528            0           0           0
      6.409585  6.409585  9.636528            0           0           0
      4.273057  6.405154 11.787162            0           0           0
      6.408825  0.000000 11.780766            0           0           0
      4.273057  0.000000 13.903905            0           0           0
      6.412784  6.412784 13.900355            0           0           0
      4.273057  2.136528  7.500000            0           0           0
      6.409585  4.273057  7.500000            0           0           0
      4.273057  4.273057  9.636528            0           0           0
      6.409585  2.136528  9.636528            0           0           0
      4.273057  2.140959 11.787162            0           0           0
      6.405154  4.273057 11.787162            0           0           0
      4.273057  4.273057 13.963070            0           0           0
      6.412784  2.133330 13.900355            0           0           0
      0.000000  6.409585  9.636528            0           0           0
      2.136528  0.000000  9.636528            0           0           0
      0.000000  0.000000  7.500000            0           0           0
      2.136528  6.409585  7.500000            0           0           0
      0.000000  6.412147 13.947225            0           0           0
      2.133967  0.000000 13.947225            0           0           0
      0.000000  0.000000 11.776443            0           0           0
      2.136029  6.410085 11.777518            0           0           0
      0.000000  2.136528  9.636528            0           0           0
      2.136528  4.273057  9.636528            0           0           0
      0.000000  4.273057  7.500000            0           0           0
      2.136528  2.136528  7.500000            0           0           0
      0.000000  2.133967 13.947225            0           0           0
      2.125790  4.273057 13.947745            0           0           0
      0.000000  4.273057 11.776123            0           0           0
      2.136029  2.136029 11.777518            0           0           0
      4.273057  6.409585  9.636528            0           0           0
      6.409585  0.000000  9.636528            0           0           0
      4.273057  0.000000  7.500000            0           0           0
      6.409585  6.409585  7.500000            0           0           0
      4.273057  6.420324 13.947745            0           0           0
      6.412147  0.000000 13.947225            0           0           0
      4.273057  0.000000 11.776123            0           0           0
      6.410085  6.410085 11.777518            0           0           0
      4.273057  2.136528  9.636528            0           0           0
      6.409585  4.273057  9.636528            0           0           0
      4.273057  4.273057  7.500000            0           0           0
      6.409585  2.136528  7.500000            0           0           0
      4.273057  2.125790 13.947745            0           0           0
      6.420324  4.273057 13.947745            0           0           0
      4.273057  4.273057 11.787442            0           0           0
      6.410085  2.136029 11.777518            0           0           0

   5 f/i=    1.058794 THz     6.652600 2PiTHz   35.317570 cm-1     4.378819 meV
             X         Y         Z           dx          dy          dz
      4.273057  4.273057 16.458328    -0.315209    0.150226   -0.001697
      4.273057  4.273057 17.603194    -0.844274    0.406535   -0.001932
      0.000000  6.409585  7.500000            0           0           0
      2.136528  0.000000  7.500000            0           0           0
      0.000000  0.000000  9.636528            0           0           0
      2.136528  6.409585  9.636528            0           0           0
      0.000000  6.408825 11.780766            0           0           0
      2.137288  0.000000 11.780766            0           0           0
      0.000000  0.000000 13.906566            0           0           0
      2.133330  6.412784 13.900355            0           0           0
      0.000000  2.136528  7.500000            0           0           0
      2.136528  4.273057  7.500000            0           0           0
      0.000000  4.273057  9.636528            0           0           0
      2.136528  2.136528  9.636528            0           0           0
      0.000000  2.137288 11.780766            0           0           0
      2.140959  4.273057 11.787162            0           0           0
      0.000000  4.273057 13.903905            0           0           0
      2.133330  2.133330 13.900355            0           0           0
      4.273057  6.409585  7.500000            0           0           0
      6.409585  0.000000  7.500000            0           0           0
      4.273057  0.000000  9.636528            0           0           0
      6.409585  6.409585  9.636528            0           0           0
      4.273057  6.405154 11.787162            0           0           0
      6.408825  0.000000 11.780766            0           0           0
      4.273057  0.000000 13.903905            0           0           0
      6.412784  6.412784 13.900355            0           0           0
      4.273057  2.136528  7.500000            0           0           0
      6.409585  4.273057  7.500000            0           0           0
      4.273057  4.273057  9.636528            0           0           0
      6.409585  2.136528  9.636528            0           0           0
      4.273057  2.140959 11.787162            0           0           0
      6.405154  4.273057 11.787162            0           0           0
      4.273057  4.273057 13.963070            0           0           0
      6.412784  2.133330 13.900355            0           0           0
      0.000000  6.409585  9.636528            0           0           0
      2.136528  0.000000  9.636528            0           0           0
      0.000000  0.000000  7.500000            0           0           0
      2.136528  6.409585  7.500000            0           0           0
      0.000000  6.412147 13.947225            0           0           0
      2.133967  0.000000 13.947225            0           0           0
      0.000000  0.000000 11.776443            0           0           0
      2.136029  6.410085 11.777518            0           0           0
      0.000000  2.136528  9.636528            0           0           0
      2.136528  4.273057  9.636528            0           0           0
      0.000000  4.273057  7.500000            0           0           0
      2.136528  2.136528  7.500000            0           0           0
      0.000000  2.133967 13.947225            0           0           0
      2.125790  4.273057 13.947745            0           0           0
      0.000000  4.273057 11.776123            0           0           0
      2.136029  2.136029 11.777518            0           0           0
      4.273057  6.409585  9.636528            0           0           0
      6.409585  0.000000  9.636528            0           0           0
      4.273057  0.000000  7.500000            0           0           0
      6.409585  6.409585  7.500000            0           0           0
      4.273057  6.420324 13.947745            0           0           0
      6.412147  0.000000 13.947225            0           0           0
      4.273057  0.000000 11.776123            0           0           0
      6.410085  6.410085 11.777518            0           0           0
      4.273057  2.136528  9.636528            0           0           0
      6.409585  4.273057  9.636528            0           0           0
      4.273057  4.273057  7.500000            0           0           0
      6.409585  2.136528  7.500000            0           0           0
      4.273057  2.125790 13.947745            0           0           0
      6.420324  4.273057 13.947745            0           0           0
      4.273057  4.273057 11.787442            0           0           0
      6.410085  2.136029 11.777518            0           0           0

   6 f/i=    1.112155 THz     6.987876 2PiTHz   37.097497 cm-1     4.599501 meV
             X         Y         Z           dx          dy          dz
      4.273057  4.273057 16.458328     0.152143    0.315117   -0.000832
      4.273057  4.273057 17.603194     0.405824    0.844310   -0.000931
      0.000000  6.409585  7.500000            0           0           0
      2.136528  0.000000  7.500000            0           0           0
      0.000000  0.000000  9.636528            0           0           0
      2.136528  6.409585  9.636528            0           0           0
      0.000000  6.408825 11.780766            0           0           0
      2.137288  0.000000 11.780766            0           0           0
      0.000000  0.000000 13.906566            0           0           0
      2.133330  6.412784 13.900355            0           0           0
      0.000000  2.136528  7.500000            0           0           0
      2.136528  4.273057  7.500000            0           0           0
      0.000000  4.273057  9.636528            0           0           0
      2.136528  2.136528  9.636528            0           0           0
      0.000000  2.137288 11.780766            0           0           0
      2.140959  4.273057 11.787162            0           0           0
      0.000000  4.273057 13.903905            0           0           0
      2.133330  2.133330 13.900355            0           0           0
      4.273057  6.409585  7.500000            0           0           0
      6.409585  0.000000  7.500000            0           0           0
      4.273057  0.000000  9.636528            0           0           0
      6.409585  6.409585  9.636528            0           0           0
      4.273057  6.405154 11.787162            0           0           0
      6.408825  0.000000 11.780766            0           0           0
      4.273057  0.000000 13.903905            0           0           0
      6.412784  6.412784 13.900355            0           0           0
      4.273057  2.136528  7.500000            0           0           0
      6.409585  4.273057  7.500000            0           0           0
      4.273057  4.273057  9.636528            0           0           0
      6.409585  2.136528  9.636528            0           0           0
      4.273057  2.140959 11.787162            0           0           0
      6.405154  4.273057 11.787162            0           0           0
      4.273057  4.273057 13.963070            0           0           0
      6.412784  2.133330 13.900355            0           0           0
      0.000000  6.409585  9.636528            0           0           0
      2.136528  0.000000  9.636528            0           0           0
      0.000000  0.000000  7.500000            0           0           0
      2.136528  6.409585  7.500000            0           0           0
      0.000000  6.412147 13.947225            0           0           0
      2.133967  0.000000 13.947225            0           0           0
      0.000000  0.000000 11.776443            0           0           0
      2.136029  6.410085 11.777518            0           0           0
      0.000000  2.136528  9.636528            0           0           0
      2.136528  4.273057  9.636528            0           0           0
      0.000000  4.273057  7.500000            0           0           0
      2.136528  2.136528  7.500000            0           0           0
      0.000000  2.133967 13.947225            0           0           0
      2.125790  4.273057 13.947745            0           0           0
      0.000000  4.273057 11.776123            0           0           0
      2.136029  2.136029 11.777518            0           0           0
      4.273057  6.409585  9.636528            0           0           0
      6.409585  0.000000  9.636528            0           0           0
      4.273057  0.000000  7.500000            0           0           0
      6.409585  6.409585  7.500000            0           0           0
      4.273057  6.420324 13.947745            0           0           0
      6.412147  0.000000 13.947225            0           0           0
      4.273057  0.000000 11.776123            0           0           0
      6.410085  6.410085 11.777518            0           0           0
      4.273057  2.136528  9.636528            0           0           0
      6.409585  4.273057  9.636528            0           0           0
      4.273057  4.273057  7.500000            0           0           0
      6.409585  2.136528  7.500000            0           0           0
      4.273057  2.125790 13.947745            0           0           0
      6.420324  4.273057 13.947745            0           0           0
      4.273057  4.273057 11.787442            0           0           0
      6.410085  2.136029 11.777518            0           0           0

 Finite differences POTIM=   1.0000000000000000E-002