 vasp.6.3.0 20Jan22 (build Apr  1 2022 16:44:48) complex
 executed on        HPECrayEX_GCC date 2022.10.25  00:59:47

 INCAR:
   SYSTEM = MgO-rocksalt
   ISMEAR = 0
   SIGMA = 0.05
   EDIFF = 1E-6
   ALGO = ALL
   ISTART = 0
   IBRION = -1
   NSW = 0
   ISYM = 0
   DIPOL = 0.5 0.5 0.5
   IDIPOL = 3
   LDIPOL = .TRUE.
   LHFCALC = .TRUE.
   GGA = B5
   AEXX = 0.2
   AGGAX = 0.72
   AGGAC = 0.81
   ALDAC = 0.19
   IVDW = 1
   VDW_S6 = 1.05
   VDW_C6 = 0.63 0.70
   VDW_R0 = 1.243 1.342
   ENCUT = 600
   PREC = Accurate
   LASPH = .TRUE.
   LREAL = .FALSE.
   ISPIN = 1
   NELM = 200
   NELMIN = 8
   NCORE = 8
   KPAR = 1
   LWAVE = .FALSE.
   LCHARG = .FALSE.

 POTCAR:    PAW_PBE Mg_pv 13Apr2007
 POTCAR:    PAW_PBE O 08Apr2002
 POTCAR:    PAW_PBE Mg_pv 13Apr2007
   VRHFIN =Mg: p6s2

   TITEL  = PAW_PBE Mg_pv 13Apr2007
   POMASS =   24.305; ZVAL   =    8.000    mass and valenz
   ENMAX  =  403.929; ENMIN  =  302.947 eV

   TITEL  = PAW_PBE O 08Apr2002
   POMASS =   16.000; ZVAL   =    6.000    mass and valenz
   ENMAX  =  400.000; ENMIN  =  300.000 eV

  PAW_PBE Mg_pv 13Apr2007               :
  PAW_PBE O 08Apr2002                   :

 POSCAR: Mg  O
  positions in direct lattice
 exchange correlation table for  LEXCH =       12
   RHO(1)=    0.500       N(1)  =     2000
   RHO(2)=  100.500       N(2)  =     4000

 ion  position               nearest neighbor table
   1  0.250  0.000  0.351-  33 2.12  35 2.12  36 2.12  43 2.12  52 2.12
   2  0.500  0.250  0.351-  34 2.12  35 2.12  36 2.12  44 2.12  51 2.12
   3  0.250  0.250  0.450-  35 2.12  34 2.12  33 2.12  41 2.12  50 2.12  39 2.12
   4  0.500  0.000  0.450-  36 2.12  34 2.12  33 2.12  42 2.12  49 2.12  40 2.12
   5  0.250  1.000  0.550-  47 2.12  39 2.12  40 2.12  56 2.12  33 2.13  37 2.15
   6  0.500  0.250  0.550-  48 2.12  55 2.12  39 2.12  40 2.12  34 2.13  38 2.15
   7  0.250  0.250  0.648-  39 2.10  54 2.12  45 2.12  37 2.12  38 2.12
   8  0.500  1.000  0.648-  40 2.11  38 2.11  46 2.11  37 2.12  53 2.12
   9  0.250  0.500  0.351-  41 2.12  35 2.12  43 2.12  44 2.12  60 2.12
  10  0.500  0.750  0.351-  42 2.12  36 2.12  43 2.12  44 2.12  59 2.12
  11  0.250  0.750  0.450-  43 2.12  41 2.12  42 2.12  33 2.12  58 2.12  47 2.12
  12  0.500  0.500  0.450-  44 2.12  41 2.12  42 2.12  34 2.12  57 2.12  48 2.13
  13  0.250  0.500  0.550-  48 2.12  39 2.12  47 2.12  64 2.12  41 2.13  45 2.14
  14  0.500  0.750  0.550-  48 2.12  63 2.12  47 2.12  40 2.12  42 2.13  46 2.15
  15  0.250  0.750  0.648-  47 2.10  62 2.12  45 2.12  37 2.12  46 2.12
  16  0.500  0.500  0.649-  45 2.12  38 2.12  46 2.12  61 2.12  48 2.12
  17  0.750  0.000  0.351-  49 2.12  36 2.12  51 2.12  52 2.12  59 2.12
  18  0.000  0.250  0.351-  50 2.12  35 2.12  51 2.12  52 2.12  60 2.12
  19  0.750  0.250  0.450-  51 2.12  49 2.12  50 2.12  34 2.12  57 2.12  55 2.12
  20  0.000  0.000  0.450-  52 2.12  49 2.12  50 2.12  33 2.12  58 2.12  56 2.12
  21  0.750  1.000  0.550-  40 2.12  63 2.12  55 2.12  56 2.12  49 2.13  53 2.15
  22  0.000  0.250  0.550-  64 2.12  39 2.12  55 2.12  56 2.12  50 2.13  54 2.15
  23  0.750  0.250  0.648-  55 2.10  54 2.12  53 2.12  61 2.12  38 2.12
  24  0.000  1.000  0.649-  56 2.11  37 2.12  53 2.12  62 2.12  54 2.12
  25  0.750  0.500  0.351-  57 2.12  51 2.12  44 2.12  59 2.12  60 2.12
  26  0.000  0.750  0.351-  58 2.12  52 2.12  43 2.12  59 2.12  60 2.12
  27  0.750  0.750  0.450-  59 2.12  49 2.12  57 2.12  58 2.12  42 2.12  63 2.12
  28  0.000  0.500  0.450-  60 2.12  50 2.12  57 2.12  58 2.12  41 2.12  64 2.12
  29  0.750  0.500  0.550-  48 2.11  55 2.12  63 2.12  64 2.12  57 2.13  61 2.15
  30  0.000  0.750  0.550-  64 2.12  47 2.12  63 2.12  56 2.12  58 2.13  62 2.15
  31  0.750  0.750  0.648-  63 2.10  62 2.12  53 2.12  61 2.12  46 2.12
  32  0.000  0.500  0.648-  64 2.11  45 2.11  61 2.12  54 2.12  62 2.12
  33  0.250  0.000  0.450-   1 2.12   3 2.12   4 2.12  11 2.12  20 2.12   5 2.13
  34  0.500  0.250  0.450-   2 2.12   3 2.12   4 2.12  12 2.12  19 2.12   6 2.13
  35  0.250  0.250  0.351-   3 2.12   2 2.12   1 2.12   9 2.12  18 2.12
  36  0.500  0.000  0.351-   4 2.12   2 2.12   1 2.12  10 2.12  17 2.12
  37  0.250  1.000  0.651-  24 2.12   7 2.12  15 2.12   8 2.12   5 2.15
  38  0.500  0.249  0.651-   8 2.11  23 2.12   7 2.12  16 2.12   6 2.15
  39  0.250  0.250  0.550-   7 2.10   5 2.12   6 2.12  22 2.12  13 2.12   3 2.12
  40  0.500  1.000  0.550-   8 2.11  21 2.12   5 2.12   6 2.12  14 2.12   4 2.12
  41  0.250  0.500  0.450-   9 2.12   3 2.12  11 2.12  12 2.12  28 2.12  13 2.13
  42  0.500  0.750  0.450-  10 2.12   4 2.12  11 2.12  12 2.12  27 2.12  14 2.13
  43  0.250  0.750  0.351-  11 2.12   9 2.12  10 2.12   1 2.12  26 2.12
  44  0.500  0.500  0.351-  12 2.12   9 2.12  10 2.12   2 2.12  25 2.12
  45  0.250  0.500  0.651-  32 2.11  15 2.12   7 2.12  16 2.12  13 2.14
  46  0.500  0.750  0.651-   8 2.11  31 2.12  15 2.12  16 2.12  14 2.15
  47  0.250  0.750  0.550-  15 2.10   5 2.12  14 2.12  30 2.12  13 2.12  11 2.12
  48  0.500  0.500  0.550-  29 2.11  14 2.12   6 2.12  13 2.12  16 2.12  12 2.13
  49  0.750  0.000  0.450-  17 2.12   4 2.12  19 2.12  20 2.12  27 2.12  21 2.13
  50  0.000  0.250  0.450-  18 2.12   3 2.12  19 2.12  20 2.12  28 2.12  22 2.13
  51  0.750  0.250  0.351-  19 2.12  17 2.12  18 2.12   2 2.12  25 2.12
  52  0.000  0.000  0.351-  20 2.12  17 2.12  18 2.12   1 2.12  26 2.12
  53  0.750  1.000  0.651-  23 2.12  31 2.12  24 2.12   8 2.12  21 2.15
  54  1.000  0.250  0.651-  23 2.12   7 2.12  24 2.12  32 2.12  22 2.15
  55  0.750  0.250  0.550-  23 2.10  21 2.12   6 2.12  22 2.12  29 2.12  19 2.12
  56  0.000  1.000  0.550-  24 2.11  21 2.12  22 2.12  30 2.12   5 2.12  20 2.12
  57  0.750  0.500  0.450-  25 2.12  19 2.12  12 2.12  27 2.12  28 2.12  29 2.13
  58  0.000  0.750  0.450-  26 2.12  20 2.12  11 2.12  27 2.12  28 2.12  30 2.13
  59  0.750  0.750  0.351-  27 2.12  17 2.12  25 2.12  26 2.12  10 2.12
  60  0.000  0.500  0.351-  28 2.12  18 2.12  25 2.12  26 2.12   9 2.12
  61  0.750  0.500  0.651-  32 2.12  31 2.12  23 2.12  16 2.12  29 2.15
  62  1.000  0.750  0.651-  31 2.12  15 2.12  24 2.12  32 2.12  30 2.15
  63  0.750  0.750  0.550-  31 2.10  21 2.12  14 2.12  30 2.12  29 2.12  27 2.12
  64  1.000  0.500  0.550-  32 2.11  30 2.12  22 2.12  29 2.12  13 2.12  28 2.12

IMPORTANT INFORMATION: All symmetrisations will be switched off!
NOSYMM: (Re-)initialisation of all symmetry stuff for point group C_1.

                                     Primitive cell

  volume of cell :    1530.6606

  direct lattice vectors                    reciprocal lattice vectors
     8.467142631  0.000000000  0.000000000     0.118103597  0.000000000  0.000000000
     0.000000000  8.467142631  0.000000000     0.000000000  0.118103597  0.000000000
     0.000000000  0.000000000 21.350356973     0.000000000  0.000000000  0.046837624

  length of vectors
     8.467142631  8.467142631 21.350356973     0.118103597  0.118103597  0.046837624

  position of ions in fractional coordinates (direct lattice)
     0.250000000  0.000000000  0.351282183
     0.500000000  0.250000000  0.351282183
     0.250000000  0.250000000  0.450427394
     0.500000000  0.000000000  0.450427394
     0.250049000  0.999887428  0.550151639
     0.500012513  0.250069060  0.550241086
     0.249787297  0.249828199  0.648392770
     0.499996862  0.999810731  0.648426058
     0.250000000  0.500000000  0.351282183
     0.500000000  0.750000000  0.351282183
     0.250000000  0.750000000  0.450427394
     0.500000000  0.500000000  0.450427394
     0.250216504  0.499890100  0.550243113
     0.500011341  0.749693425  0.550245816
     0.249798205  0.749812471  0.648400545
     0.499798726  0.499801381  0.649485401
     0.750000000  0.000000000  0.351282183
     0.000000000  0.250000000  0.351282183
     0.750000000  0.250000000  0.450427394
     0.000000000  0.000000000  0.450427394
     0.749984589  0.999884396  0.550151503
     0.000011226  0.249921298  0.550133235
     0.750210093  0.249708964  0.648404737
     0.000041669  0.999826289  0.648515201
     0.750000000  0.500000000  0.351282183
     0.000000000  0.750000000  0.351282183
     0.750000000  0.750000000  0.450427394
     0.000000000  0.500000000  0.450427394
     0.749818155  0.499891841  0.550266190
     0.000007036  0.749859813  0.550137394
     0.750186713  0.749927601  0.648423583
     0.000241808  0.499823122  0.648373294
     0.250000000  0.000000000  0.450427394
     0.500000000  0.250000000  0.450427394
     0.250000000  0.250000000  0.351282183
     0.500000000  0.000000000  0.351282183
     0.249933235  0.999834510  0.650793397
     0.500005916  0.249355663  0.650868571
     0.250013524  0.249825482  0.549813547
     0.500022240  0.999883916  0.549822989
     0.250000000  0.500000000  0.450427394
     0.500000000  0.750000000  0.450427394
     0.250000000  0.750000000  0.351282183
     0.500000000  0.500000000  0.351282183
     0.249638996  0.499822187  0.650564612
     0.499994737  0.750254119  0.650899720
     0.250013251  0.749962470  0.549816648
     0.500062765  0.499891633  0.550037196
     0.750000000  0.000000000  0.450427394
     0.000000000  0.250000000  0.450427394
     0.750000000  0.250000000  0.351282183
     0.000000000  0.000000000  0.351282183
     0.750092408  0.999833081  0.650791825
     0.999984034  0.249782676  0.650786259
     0.750003455  0.249866832  0.549840873
     0.000003734  0.999891798  0.549844087
     0.750000000  0.500000000  0.450427394
     0.000000000  0.750000000  0.450427394
     0.750000000  0.750000000  0.351282183
     0.000000000  0.500000000  0.351282183
     0.750381654  0.499820036  0.650790948
     0.999982401  0.749877133  0.650794216
     0.749998824  0.749919167  0.549846441
     0.999966446  0.499896093  0.549769574

  ion indices of the primitive-cell ions
   primitive index   ion index
                 1           1
                 2           2
                 3           3
                 4           4
                 5           5
                 6           6
                 7           7
                 8           8
                 9           9
                10          10
                11          11
                12          12
                13          13
                14          14
                15          15
                16          16
                17          17
                18          18
                19          19
                20          20
                21          21
                22          22
                23          23
                24          24
                25          25
                26          26
                27          27
                28          28
                29          29
                30          30
                31          31
                32          32
                33          33
                34          34
                35          35
                36          36
                37          37
                38          38
                39          39
                40          40
                41          41
                42          42
                43          43
                44          44
[...]
   0.50000000  0.75000000  0.45042739
   0.25000000  0.75000000  0.35128218
   0.50000000  0.50000000  0.35128218
   0.24963900  0.49982219  0.65056461
   0.49999474  0.75025412  0.65089972
   0.25001325  0.74996247  0.54981665
   0.50006276  0.49989163  0.55003720
   0.75000000  0.00000000  0.45042739
   0.00000000  0.25000000  0.45042739
   0.75000000  0.25000000  0.35128218
   0.00000000  0.00000000  0.35128218
   0.75009241  0.99983308  0.65079182
   0.99998403  0.24978268  0.65078626
   0.75000345  0.24986683  0.54984087
   0.00000373  0.99989180  0.54984409
   0.75000000  0.50000000  0.45042739
   0.00000000  0.75000000  0.45042739
   0.75000000  0.75000000  0.35128218
   0.00000000  0.50000000  0.35128218
   0.75038165  0.49982004  0.65079095
   0.99998240  0.74987713  0.65079422
   0.74999882  0.74991917  0.54984644
   0.99996645  0.49989609  0.54976957

 position of ions in cartesian coordinates  (Angst):
   2.11678566  0.00000000  7.50000000
   4.23357132  2.11678566  7.50000000
   2.11678566  2.11678566  9.61678566
   4.23357132  0.00000000  9.61678566
   2.11720055  8.46618946 11.74593387
   4.23367727  2.11737039 11.74784360
   2.11498467  2.11533099 13.84341709
   4.23354475  8.46554006 13.84412780
   2.11678566  4.23357132  7.50000000
   4.23357132  6.35035697  7.50000000
   2.11678566  6.35035697  9.61678566
   4.23357132  4.23357132  9.61678566
   2.11861883  4.23264077 11.74788689
   4.23366735  6.34776116 11.74794460
   2.11507703  6.34876914 13.84358309
   4.23186710  4.23188958 13.86674515
   6.35035697  0.00000000  7.50000000
   0.00000000  2.11678566  7.50000000
   6.35035697  2.11678566  9.61678566
   0.00000000  0.00000000  9.61678566
   6.35022648  8.46616379 11.74593097
   0.00009505  2.11611927 11.74554095
   6.35213586  2.11432142 13.84367260
   0.00035282  8.46567179 13.84603103
   6.35035697  4.23357132  7.50000000
   0.00000000  6.35035697  7.50000000
   6.35035697  6.35035697  9.61678566
   0.00000000  4.23357132  9.61678566
   6.34881727  4.23265552 11.74837958
   0.00005957  6.34916999 11.74562975
   6.35193790  6.34974396 13.84407497
   0.00204743  4.23207366 13.84300127
   2.11678566  0.00000000  9.61678566
   4.23357132  2.11678566  9.61678566
   2.11678566  2.11678566  7.50000000
   4.23357132  0.00000000  7.50000000
   2.11622035  8.46574141 13.89467133
   4.23362141  2.11132996 13.89627634
   2.11690016  2.11530799 11.73871549
   4.23375962  8.46615973 11.73891709
   2.11678566  4.23357132  9.61678566
   4.23357132  6.35035697  9.61678566
   2.11678566  6.35035697  7.50000000
   4.23357132  4.23357132  7.50000000
   2.11372898  4.23206575 13.88978670
   4.23352675  6.35250864 13.89694137
   2.11689785  6.35003920 11.73878170
   4.23410275  4.23265376 11.74349048
   6.35035697  0.00000000  9.61678566
   0.00000000  2.11678566  9.61678566
   6.35035697  2.11678566  7.50000000
   0.00000000  0.00000000  7.50000000
   6.35113941  8.46572930 13.89463777
   8.46700744  2.11494554 13.89451894
   6.35038623  2.11565811 11.73929892
   0.00003162  8.46622647 11.73936754
   6.35035697  4.23357132  9.61678566
   0.00000000  6.35035697  9.61678566
   6.35035697  6.35035697  7.50000000
   0.00000000  4.23357132  7.50000000
   6.35358850  4.23204753 13.89461905
   8.46699362  6.34931664 13.89468883
   6.35034702  6.34967255 11.73941779
   8.46685852  4.23269152 11.73777666

--------------------------------------- Iteration      FINAL  ---------------------------------------

--------------------OUTCAR has been truncated-------------------------

[...]

--------------------OUTCAR has been truncated-------------------------

  DFT-D2 method for vdW energy calculation

  Parameters of vdW forcefield:
         C6(Jnm^6/mol)     R0(A)
   Mg       0.630          1.243
   O        0.700          1.342

  vdW correction parametrized for the method ý      

  IVDW =   1
  VDW_RADIUS =    50.000 A
  VDW_S6 =     1.050
  VDW_SR =     1.000
  VDW_D =    20.000
  LVDW_EWALD = F

  Number of pair interactions contributing to vdW energy:  719007
  Edisp (eV):   -5.01476

 VOLUME and BASIS-vectors are now :
  energy-cutoff  :      600.00
  volume of cell :     1530.66
      direct lattice vectors                 reciprocal lattice vectors
     8.467142631  0.000000000  0.000000000     0.118103597  0.000000000  0.000000000
     0.000000000  8.467142631  0.000000000     0.000000000  0.118103597  0.000000000
     0.000000000  0.000000000 21.350356973     0.000000000  0.000000000  0.046837624

  length of vectors
     8.467142631  8.467142631 21.350356973     0.118103597  0.118103597  0.046837624

 FORCES acting on ions:
    Electron-Ion                     Ewald-Force                    Non-Local-Force
   -.499E-01 0.191E-02 0.205E+04   0.507E-01 -.217E-02 -.205E+04   -.487E-03 0.181E-03 -.638E+01
   -.118E-01 -.564E-01 0.205E+04   0.120E-01 0.576E-01 -.205E+04   -.124E-03 -.808E-03 -.638E+01
   -.276E+00 -.226E+00 0.680E+03   0.284E+00 0.224E+00 -.680E+03   -.528E-02 0.118E-02 0.425E+00
   -.362E-01 0.230E-03 0.679E+03   0.358E-01 -.580E-02 -.680E+03   0.363E-03 0.337E-02 0.416E+00
   -.206E+00 0.154E-01 -.685E+03   0.207E+00 -.152E-01 0.685E+03   -.361E-02 0.241E-03 -.219E+00
   -.105E+00 -.705E+00 -.686E+03   0.112E+00 0.766E+00 0.686E+03   -.467E-02 -.526E-01 -.231E+00
   -.896E+00 -.141E+00 -.204E+04   0.840E+00 0.412E-01 0.203E+04   0.572E-01 0.666E-01 0.540E+01
   0.309E-02 0.262E-01 -.204E+04   -.128E-01 -.178E-01 0.203E+04   0.745E-02 -.576E-02 0.534E+01
   -.724E-01 -.256E-02 0.205E+04   0.739E-01 0.237E-02 -.205E+04   -.102E-02 0.140E-03 -.638E+01
   -.119E-01 0.556E-01 0.205E+04   0.121E-01 -.573E-01 -.205E+04   -.116E-03 0.118E-02 -.638E+01
   -.275E+00 0.207E+00 0.680E+03   0.283E+00 -.214E+00 -.680E+03   -.547E-02 0.425E-02 0.426E+00
   -.505E-01 -.177E-01 0.679E+03   0.569E-01 0.134E-01 -.679E+03   -.414E-02 0.250E-02 0.470E+00
   -.838E+00 -.214E-01 -.685E+03   0.913E+00 0.219E-01 0.685E+03   -.631E-01 -.815E-04 -.291E+00
   -.109E+00 0.685E+00 -.686E+03   0.117E+00 -.745E+00 0.686E+03   -.513E-02 0.528E-01 -.223E+00
   -.843E+00 0.113E+00 -.204E+04   0.789E+00 -.124E-01 0.203E+04   0.544E-01 -.658E-01 0.540E+01
   -.726E+00 0.178E-01 -.205E+04   0.752E+00 -.147E-01 0.204E+04   0.145E-02 -.174E-02 0.554E+01
   0.501E-01 0.202E-02 0.205E+04   -.507E-01 -.229E-02 -.205E+04   0.425E-03 0.192E-03 -.638E+01
   0.119E-01 -.338E-01 0.205E+04   -.120E-01 0.343E-01 -.205E+04   0.951E-04 -.287E-03 -.638E+01
   0.276E+00 -.239E+00 0.679E+03   -.284E+00 0.245E+00 -.680E+03   0.492E-02 -.336E-02 0.431E+00
   0.367E-01 0.491E-03 0.680E+03   -.349E-01 -.529E-02 -.680E+03   -.110E-02 0.287E-02 0.426E+00
   0.211E+00 0.185E-01 -.684E+03   -.213E+00 -.189E-01 0.685E+03   0.338E-02 0.805E-03 -.222E+00
   0.119E+00 -.282E-01 -.684E+03   -.126E+00 0.206E-01 0.684E+03   0.415E-02 0.257E-02 -.200E+00
   0.906E+00 -.746E+00 -.204E+04   -.844E+00 0.697E+00 0.203E+04   -.613E-01 0.446E-01 0.538E+01
   0.207E-01 0.183E-01 -.204E+04   -.130E-01 -.173E-01 0.203E+04   -.787E-02 -.352E-03 0.539E+01
   0.725E-01 -.268E-02 0.205E+04   -.740E-01 0.250E-02 -.205E+04   0.996E-03 0.134E-03 -.638E+01
   0.120E-01 0.332E-01 0.205E+04   -.121E-01 -.341E-01 -.205E+04   0.108E-03 0.613E-03 -.638E+01
   0.275E+00 0.220E+00 0.679E+03   -.284E+00 -.235E+00 -.680E+03   0.525E-02 0.885E-02 0.433E+00
   0.519E-01 -.198E-01 0.680E+03   -.568E-01 0.156E-01 -.680E+03   0.327E-02 0.255E-02 0.403E+00
   0.828E+00 -.218E-01 -.686E+03   -.905E+00 0.232E-01 0.686E+03   0.637E-01 -.858E-03 -.268E+00
   0.123E+00 0.283E-01 -.684E+03   -.130E+00 -.189E-01 0.685E+03   0.452E-02 -.343E-02 -.200E+00
   0.856E+00 0.717E+00 -.204E+04   -.794E+00 -.667E+00 0.203E+04   -.596E-01 -.440E-01 0.538E+01
   0.786E+00 -.214E-01 -.204E+04   -.811E+00 0.230E-01 0.203E+04   -.513E-02 -.389E-03 0.536E+01
   -.119E+00 -.264E-02 0.509E+03   0.121E+00 0.828E-02 -.509E+03   -.235E-02 -.666E-02 -.927E-01
   -.403E-01 -.207E+00 0.509E+03   0.396E-01 0.202E+00 -.509E+03   0.882E-03 0.569E-02 -.105E+00
   -.463E-01 -.335E-01 0.154E+04   0.474E-01 0.343E-01 -.155E+04   -.138E-02 -.102E-02 0.313E+01
   -.787E-02 0.193E-02 0.154E+04   0.774E-02 -.183E-02 -.155E+04   0.176E-03 -.128E-03 0.313E+01
   -.292E+00 0.305E-01 -.155E+04   0.332E+00 -.346E-01 0.156E+04   -.392E-01 0.389E-02 -.476E+01
   -.939E-01 -.101E+01 -.155E+04   0.113E+00 0.969E+00 0.156E+04   -.224E-01 0.878E-01 -.464E+01
   -.432E+00 -.214E+00 -.507E+03   0.437E+00 0.208E+00 0.506E+03   -.470E-02 0.103E-01 0.369E+00
   -.320E-01 0.303E-01 -.507E+03   0.330E-01 -.321E-01 0.506E+03   -.149E-02 0.172E-02 0.358E+00
   -.254E+00 -.167E-01 0.509E+03   0.241E+00 0.221E-01 -.509E+03   0.159E-01 -.640E-02 -.104E+00
   -.413E-01 0.185E+00 0.509E+03   0.407E-01 -.169E+00 -.509E+03   0.859E-03 -.199E-01 -.106E+00
   -.462E-01 0.339E-01 0.154E+04   0.473E-01 -.344E-01 -.155E+04   -.143E-02 0.649E-03 0.313E+01
   -.946E-02 -.145E-02 0.154E+04   0.100E-01 0.167E-02 -.155E+04   -.724E-03 -.287E-03 0.313E+01
   -.104E+01 0.846E-02 -.155E+04   0.103E+01 -.111E-01 0.155E+04   0.425E-01 0.306E-02 -.457E+01
   -.101E+00 0.101E+01 -.155E+04   0.118E+00 -.980E+00 0.156E+04   -.206E-01 -.725E-01 -.465E+01
   -.428E+00 0.229E+00 -.507E+03   0.431E+00 -.229E+00 0.506E+03   -.258E-02 -.556E-02 0.370E+00
   -.182E+00 0.109E-02 -.511E+03   0.191E+00 -.577E-02 0.511E+03   -.137E-01 0.481E-02 0.131E+00
   0.123E+00 -.209E-02 0.509E+03   -.126E+00 0.794E-02 -.509E+03   0.432E-02 -.692E-02 -.898E-01
   0.433E-01 -.687E-01 0.509E+03   -.435E-01 0.782E-01 -.509E+03   0.132E-03 -.117E-01 -.852E-01
   0.462E-01 -.351E-01 0.154E+04   -.473E-01 0.366E-01 -.155E+04   0.140E-02 -.193E-02 0.313E+01
   0.777E-02 0.194E-02 0.154E+04   -.768E-02 -.182E-02 -.155E+04   -.110E-03 -.147E-03 0.313E+01
   0.261E+00 0.331E-01 -.155E+04   -.293E+00 -.369E-01 0.156E+04   0.307E-01 0.344E-02 -.475E+01
   0.994E-01 -.117E+00 -.155E+04   -.123E+00 0.113E+00 0.156E+04   0.292E-01 0.953E-02 -.475E+01
   0.418E+00 -.349E+00 -.507E+03   -.420E+00 0.350E+00 0.507E+03   0.248E-02 0.798E-03 0.363E+00
   0.192E-01 0.197E-01 -.507E+03   -.170E-01 -.217E-01 0.507E+03   -.181E-02 0.225E-02 0.306E+00
   0.257E+00 -.172E-01 0.509E+03   -.246E+00 0.225E-01 -.509E+03   -.138E-01 -.626E-02 -.114E+00
   0.437E-01 0.501E-01 0.509E+03   -.436E-01 -.486E-01 -.509E+03   -.249E-03 -.132E-02 -.858E-01
   0.462E-01 0.355E-01 0.154E+04   -.473E-01 -.367E-01 -.155E+04   0.144E-02 0.155E-02 0.313E+01
   0.937E-02 -.157E-02 0.154E+04   -.100E-01 0.174E-02 -.155E+04   0.786E-03 -.228E-03 0.313E+01
   0.979E+00 0.819E-02 -.155E+04   -.957E+00 -.120E-01 0.155E+04   -.521E-01 0.432E-02 -.464E+01
   0.108E+00 0.138E+00 -.155E+04   -.133E+00 -.140E+00 0.156E+04   0.300E-01 -.226E-02 -.475E+01
   0.415E+00 0.363E+00 -.507E+03   -.416E+00 -.369E+00 0.507E+03   0.851E-03 0.406E-02 0.361E+00
   0.179E+00 -.718E-02 -.506E+03   -.186E+00 0.444E-02 0.506E+03   0.101E-01 0.285E-02 0.376E+00
   0.254E-01 -.251E-01 0.192E+02   -.514E-12 0.191E-13 -.114E-11   -.232E-01 0.197E-01 -.169E+02

 POSITION                                       TOTAL-FORCE (eV/Angst)
      2.11679      0.00000      7.50000         0.000198      0.000001      0.511652
      4.23357      2.11679      7.50000         0.000046      0.000375      0.512112
      2.11679      2.11679      9.61679         0.002452     -0.000372      0.029568
      4.23357      0.00000      9.61679        -0.000051     -0.001683      0.034357
      2.11720      8.46619     11.74593        -0.002281      0.000533     -0.006368
      4.23368      2.11737     11.74784         0.001528      0.003536     -0.007921
      2.11498      2.11533     13.84342         0.005777     -0.025006     -0.052777
      4.23354      8.46554     13.84413        -0.001433      0.002012     -0.037531
      2.11679      4.23357      7.50000         0.000388      0.000016      0.511915
      4.23357      6.35036      7.50000         0.000058     -0.000341      0.512188
      2.11679      6.35036      9.61679         0.002487     -0.002405      0.029682
      4.23357      4.23357      9.61679         0.001702     -0.001389      0.036881
      2.11862      4.23264     11.74789         0.005529      0.000423     -0.027395
      4.23367      6.34776     11.74794         0.001598     -0.002100     -0.008494
      2.11508      6.34877     13.84358         0.004674      0.026929     -0.052649
      4.23187      4.23189     13.86675         0.025679      0.001154     -0.210017
      6.35036      0.00000      7.50000        -0.000195     -0.000005      0.511362
      0.00000      2.11679      7.50000        -0.000040      0.000199      0.511260
      6.35036      2.11679      9.61679        -0.002254      0.001412      0.031118
      0.00000      0.00000      9.61679         0.000536     -0.001470      0.030405
      6.35023      8.46616     11.74593         0.001449      0.000512     -0.005699
      0.00010      2.11612     11.74554        -0.002243     -0.004284     -0.009931
      6.35214      2.11432     13.84367        -0.004304     -0.000587     -0.045713
      0.00035      8.46567     13.84603        -0.000751      0.000675     -0.061662
      6.35036      4.23357      7.50000        -0.000348      0.000017      0.512690
      0.00000      6.35036      7.50000        -0.000049     -0.000179      0.511284
      6.35036      6.35036      9.61679        -0.002400     -0.004217      0.031176
      0.00000      4.23357      9.61679        -0.001239     -0.001290      0.032266
      6.34882      4.23266     11.74838        -0.006232      0.000431     -0.011626
      0.00006      6.34917     11.74563        -0.002223      0.005205     -0.009741
      6.35194      6.34974     13.84407        -0.002631      0.002749     -0.047522
      0.00205      4.23207     13.84300        -0.028706      0.001183     -0.044393
      2.11679      0.00000      9.61679        -0.000944     -0.001894      0.050116
      4.23357      2.11679      9.61679         0.000329      0.001868      0.055245
      2.11679      2.11679      7.50000        -0.000473     -0.000290     -0.392424
      4.23357      0.00000      7.50000         0.000069      0.000003     -0.392496
      2.11622      8.46574     13.89467        -0.004684      0.000293     -0.155328
      4.23362      2.11133     13.89628        -0.006912      0.056742     -0.127722
      2.11690      2.11531     11.73872        -0.001094      0.006541      0.014024
      4.23376      8.46616     11.73892        -0.000663      0.000232      0.011893
      2.11679      4.23357      9.61679         0.004938     -0.001810      0.055852
      4.23357      6.35036      9.61679         0.000331     -0.005904      0.055324
      2.11679      6.35036      7.50000        -0.000487      0.000257     -0.392418
      4.23357      4.23357      7.50000        -0.000252     -0.000056     -0.393288
      2.11373      4.23207     13.88979         0.038980      0.000845     -0.089001
      4.23353      6.35251     13.89694        -0.006084     -0.051640     -0.131030
      2.11690      6.35004     11.73878        -0.000600     -0.005714      0.014513
      4.23410      4.23265     11.74349        -0.006126      0.000833      0.007509
      6.35036      0.00000      9.61679         0.001493     -0.001981      0.051267
      0.00000      2.11679      9.61679        -0.000058     -0.003812      0.050894
      6.35036      2.11679      7.50000         0.000468     -0.000593     -0.392523
      0.00000      0.00000      7.50000        -0.000039      0.000007     -0.392085
      6.35114      8.46573     13.89464         0.003103      0.000141     -0.154042
      8.46701      2.11495     13.89452         0.009315      0.006975     -0.153348
      6.35039      2.11566     11.73930         0.000883      0.001567      0.008710
      0.00003      8.46623     11.73937         0.000173      0.000618      0.002745
      6.35036      4.23357      9.61679        -0.004352     -0.001758      0.054531
      0.00000      6.35036      9.61679        -0.000181      0.000100      0.051130
      6.35036      6.35036      7.50000         0.000477      0.000560     -0.392521
      0.00000      4.23357      7.50000         0.000271     -0.000034     -0.392497
      6.35359      4.23205     13.89462        -0.039608      0.001202     -0.120103
      8.46699      6.34932     13.89469         0.009268     -0.005247     -0.153568
      6.35035      6.34967     11.73942         0.000504     -0.000643      0.009019
      8.46686      4.23269     11.73778         0.005236      0.000559      0.021145
    total drift:                                0.000113     -0.003485      0.022023

  FREE ENERGIE OF THE ION-ELECTRON SYSTEM (eV)
  free  energy   TOTEN  =      -438.18864139 eV

  energy  without entropy=     -438.18864139  energy(sigma->0) =     -438.18864139