 vasp.6.3.0 20Jan22 (build Apr  1 2022 16:44:48) complex
 executed on        HPECrayEX_GCC date 2022.11.13  17:29:31

 INCAR:
   SYSTEM = MgO-rocksalt
   ISMEAR = 0
   SIGMA = 0.05
   EDIFF = 1E-6
   ALGO = ALL
   ISTART = 0
   IBRION = -1
   NSW = 0
   ISYM = 0
   DIPOL = 0.5 0.5 0.5
   IDIPOL = 3
   LDIPOL = .TRUE.
   LHFCALC = .TRUE.
   GGA = PE
   IVDW = 13
   VDW_S8 = 1.2007
   VDW_A1 = 0.4009
   VDW_A2 = 5.0293
   ENCUT = 600
   PREC = Accurate
   LASPH = .TRUE.
   LREAL = .FALSE.
   ISPIN = 2
   MAGMOM = 0.0 0.0 0.0 0.0 0.0 0.0 0.0 0.0 0.0 0.0 0.0 0.0 0.0 0.0 0.0 0.0 0.0 0.0 0.0 0.0 0.0 0.0 0.0 0.0 0.0 0.0 0.0 0.0 0.0 0.0 0.0 0.0 0.0 0.0 0.0 0.0 0.0 0.0 0.0 0.0 0.0 0.0 0.0 0.0 0.0 0.0 0.0 0.0 0.0 0.0 0.0 0.0 0.0 0.0 0.0 0.0 0.0 0.0 0.0 0.0 0.0 0.0 0.0 0.0
   NELM = 200
   NELMIN = 8
   NCORE = 8
   KPAR = 1
   LWAVE = .FALSE.
   LCHARG = .FALSE.

 POTCAR:    PAW_PBE Mg_pv 13Apr2007
 POTCAR:    PAW_PBE O 08Apr2002
 POTCAR:    PAW_PBE Mg_pv 13Apr2007
   VRHFIN =Mg: p6s2

   TITEL  = PAW_PBE Mg_pv 13Apr2007
   POMASS =   24.305; ZVAL   =    8.000    mass and valenz
   ENMAX  =  403.929; ENMIN  =  302.947 eV

   TITEL  = PAW_PBE O 08Apr2002
   POMASS =   16.000; ZVAL   =    6.000    mass and valenz
   ENMAX  =  400.000; ENMIN  =  300.000 eV

  PAW_PBE Mg_pv 13Apr2007               :
  PAW_PBE O 08Apr2002                   :

 POSCAR: Mg  O
  positions in direct lattice
|           W    W    AA    RRRRR   N    N  II  N    N   GGGG   !!!           |
|           W    W   A  A   R    R  NN   N  II  NN   N  G    G  !!!           |
|           W    W  A    A  R    R  N N  N  II  N N  N  G       !!!           |
|           W WW W  AAAAAA  RRRRR   N  N N  II  N  N N  G  GGG   !            |
|           WW  WW  A    A  R   R   N   NN  II  N   NN  G    G                |
|           W    W  A    A  R    R  N    N  II  N    N   GGGG   !!!           |
|     Specifying the vdW parameters                                           |
|     VDW_S8 = 1.201                                                          |
|     VDW_A1 = 0.401                                                          |
|     VDW_A2 = 5.029                                                          |
|     in the INCAR file will overwrite the defaults for pbe0. Please make     |
|     sure that is what you intended.                                         |

 ion  position               nearest neighbor table
   1  0.250  0.000  0.351-  33 2.12  35 2.12  36 2.12  43 2.12  52 2.12
   2  0.500  0.250  0.351-  34 2.12  35 2.12  36 2.12  44 2.12  51 2.12
   3  0.250  0.250  0.450-  35 2.12  34 2.12  33 2.12  41 2.12  50 2.12  39 2.12
   4  0.500  0.000  0.450-  36 2.12  34 2.12  33 2.12  42 2.12  49 2.12  40 2.12
   5  0.250  0.000  0.550-  40 2.12  39 2.12  47 2.12  56 2.12  33 2.13  37 2.15
   6  0.500  0.250  0.550-  48 2.12  38 2.12  55 2.12  39 2.12  40 2.12  34 2.14
   7  0.250  0.249  0.648-  39 2.11  38 2.11  37 2.11  54 2.12  45 2.12
   8  0.499  0.000  0.648-  38 2.11  40 2.11  46 2.11  37 2.12  53 2.12
   9  0.250  0.500  0.351-  41 2.12  35 2.12  43 2.12  44 2.12  60 2.12
  10  0.500  0.750  0.351-  42 2.12  36 2.12  43 2.12  44 2.12  59 2.12
  11  0.250  0.750  0.450-  43 2.12  41 2.12  42 2.12  33 2.12  58 2.12  47 2.12
  12  0.500  0.500  0.450-  44 2.12  41 2.12  42 2.12  34 2.12  57 2.12  48 2.13
  13  0.251  0.500  0.550-  48 2.12  39 2.12  47 2.12  64 2.13  41 2.13  45 2.15
  14  0.500  0.750  0.550-  48 2.11  47 2.12  40 2.12  63 2.12  46 2.13  42 2.13
  15  0.250  0.751  0.649-  47 2.11  37 2.11  46 2.12  62 2.12  45 2.12
  16  0.497  0.500  0.651-  45 2.10  38 2.12  46 2.13  48 2.15  61 2.16
  17  0.750  0.000  0.351-  49 2.12  36 2.12  51 2.12  52 2.12  59 2.12
  18  0.000  0.250  0.351-  50 2.12  35 2.12  51 2.12  52 2.12  60 2.12
  19  0.750  0.250  0.450-  51 2.12  49 2.12  50 2.12  34 2.12  57 2.12  55 2.13
  20  0.000  0.000  0.450-  52 2.12  49 2.12  50 2.12  33 2.12  58 2.12  56 2.12
  21  0.750  0.000  0.550-  40 2.12  56 2.12  55 2.12  63 2.12  49 2.13  53 2.15
  22  1.000  0.250  0.550-  55 2.11  39 2.11  64 2.12  56 2.12  50 2.13  54 2.15
  23  0.749  0.248  0.649-  53 2.10  38 2.11  55 2.12  54 2.12  61 2.14
  24  0.000  0.000  0.649-  56 2.11  37 2.11  54 2.12  62 2.12  53 2.12
  25  0.750  0.500  0.351-  57 2.12  51 2.12  44 2.12  59 2.12  60 2.12
  26  0.000  0.750  0.351-  58 2.12  52 2.12  43 2.12  59 2.12  60 2.12
  27  0.750  0.750  0.450-  59 2.12  49 2.12  57 2.12  58 2.12  42 2.12  63 2.12
  28  0.000  0.500  0.450-  60 2.12  50 2.12  57 2.12  58 2.12  41 2.12  64 2.13
  29  0.749  0.500  0.550-  48 2.11  55 2.11  63 2.11  57 2.12  64 2.12  61 2.17
  30  0.000  0.750  0.550-  47 2.11  63 2.12  56 2.12  64 2.12  58 2.13  62 2.15
  31  0.750  0.753  0.648-  53 2.09  63 2.10  46 2.11  62 2.12  61 2.14
  32  0.003  0.500  0.649-  45 2.09  64 2.11  54 2.12  62 2.12  61 2.12
  33  0.250  0.000  0.450-   1 2.12   3 2.12   4 2.12  11 2.12  20 2.12   5 2.13
  34  0.500  0.250  0.450-   2 2.12   3 2.12   4 2.12  12 2.12  19 2.12   6 2.14
  35  0.250  0.250  0.351-   3 2.12   2 2.12   1 2.12   9 2.12  18 2.12
  36  0.500  0.000  0.351-   4 2.12   2 2.12   1 2.12  10 2.12  17 2.12
  37  0.250  1.000  0.651-  24 2.11  15 2.11   7 2.11   8 2.12   5 2.15
  38  0.500  0.249  0.650-   8 2.11   7 2.11  23 2.11   6 2.12  16 2.12
  39  0.249  0.250  0.550-   7 2.11  22 2.11  13 2.12   5 2.12   3 2.12   6 2.12
  40  0.500  1.000  0.550-   8 2.11  21 2.12   5 2.12   4 2.12  14 2.12   6 2.12
  41  0.250  0.500  0.450-   9 2.12   3 2.12  11 2.12  12 2.12  28 2.12  13 2.13
  42  0.500  0.750  0.450-  10 2.12   4 2.12  11 2.12  12 2.12  27 2.12  14 2.13
  43  0.250  0.750  0.351-  11 2.12   9 2.12  10 2.12   1 2.12  26 2.12
  44  0.500  0.500  0.351-  12 2.12   9 2.12  10 2.12   2 2.12  25 2.12
  45  0.250  0.500  0.651-  32 2.09  16 2.10  15 2.12   7 2.12  13 2.15
  46  0.500  0.751  0.650-   8 2.11  31 2.11  15 2.12  16 2.13  14 2.13
  47  0.250  0.750  0.550-  15 2.11  30 2.11  13 2.12  14 2.12   5 2.12  11 2.12
  48  0.500  0.500  0.550-  29 2.11  14 2.11   6 2.12  13 2.12  12 2.13  16 2.15
  49  0.750  0.000  0.450-  17 2.12   4 2.12  19 2.12  20 2.12  27 2.12  21 2.13
  50  0.000  0.250  0.450-  18 2.12   3 2.12  19 2.12  20 2.12  28 2.12  22 2.13
  51  0.750  0.250  0.351-  19 2.12  17 2.12  18 2.12   2 2.12  25 2.12
  52  0.000  0.000  0.351-  20 2.12  17 2.12  18 2.12   1 2.12  26 2.12
  53  0.750  0.000  0.651-  31 2.09  23 2.10  24 2.12   8 2.12  21 2.15
  54  1.000  0.250  0.651-  32 2.12  24 2.12  23 2.12   7 2.12  22 2.15
  55  0.750  0.251  0.550-  29 2.11  22 2.11  23 2.12  21 2.12   6 2.12  19 2.13
  56  1.000  0.000  0.550-  24 2.11  21 2.12  30 2.12  22 2.12   5 2.12  20 2.12
  57  0.750  0.500  0.450-  25 2.12  19 2.12  12 2.12  27 2.12  28 2.12  29 2.12
  58  0.000  0.750  0.450-  26 2.12  20 2.12  11 2.12  27 2.12  28 2.12  30 2.13
  59  0.750  0.750  0.351-  27 2.12  17 2.12  25 2.12  26 2.12  10 2.12
  60  0.000  0.500  0.351-  28 2.12  18 2.12  25 2.12  26 2.12   9 2.12
  61  0.752  0.501  0.651-  32 2.12  31 2.14  23 2.14  16 2.16  29 2.17
  62  1.000  0.750  0.651-  31 2.12  32 2.12  24 2.12  15 2.12  30 2.15
  63  0.750  0.750  0.550-  31 2.10  29 2.11  30 2.12  14 2.12  21 2.12  27 2.12
  64  0.999  0.500  0.550-  32 2.11  30 2.12  22 2.12  29 2.12  28 2.13  13 2.13

IMPORTANT INFORMATION: All symmetrisations will be switched off!
NOSYMM: (Re-)initialisation of all symmetry stuff for point group C_1.

                                     Primitive cell

  volume of cell :    1530.6606

  direct lattice vectors                    reciprocal lattice vectors
     8.467142631  0.000000000  0.000000000     0.118103597  0.000000000  0.000000000
     0.000000000  8.467142631  0.000000000     0.000000000  0.118103597  0.000000000
     0.000000000  0.000000000 21.350356973     0.000000000  0.000000000  0.046837624

  length of vectors
     8.467142631  8.467142631 21.350356973     0.118103597  0.118103597  0.046837624

  position of ions in fractional coordinates (direct lattice)
     0.250000000  0.000000000  0.351282183
     0.500000000  0.250000000  0.351282183
     0.250000000  0.250000000  0.450427394
     0.500000000  0.000000000  0.450427394
     0.249994189  0.000038498  0.550059457
     0.499865849  0.250274561  0.550426333
     0.250200922  0.249318378  0.648444818
     0.499451013  0.000153556  0.648347845
     0.250000000  0.500000000  0.351282183
     0.500000000  0.750000000  0.351282183
     0.250000000  0.750000000  0.450427394
     0.500000000  0.500000000  0.450427394
     0.250591829  0.499964044  0.550233449
     0.499842153  0.749572464  0.550412346
     0.250217814  0.750664754  0.648550983
     0.497292694  0.499644168  0.650901730
     0.750000000  0.000000000  0.351282183
     0.000000000  0.250000000  0.351282183
     0.750000000  0.250000000  0.450427394
     0.000000000  0.000000000  0.450427394
     0.749830653  0.000389041  0.550051103
     0.999750651  0.250046750  0.550330319
     0.749326459  0.248144603  0.649194989
     0.000377422  0.000206028  0.648631861
     0.750000000  0.500000000  0.351282183
     0.000000000  0.750000000  0.351282183
     0.750000000  0.750000000  0.450427394
     0.000000000  0.500000000  0.450427394
     0.749102685  0.499782279  0.549595095
     0.000014203  0.750046886  0.550262855
     0.749899213  0.753072152  0.648345012
     0.002912781  0.500038454  0.648626054
     0.250000000  0.000000000  0.450427394
     0.500000000  0.250000000  0.450427394
     0.250000000  0.250000000  0.351282183
     0.500000000  0.000000000  0.351282183
     0.249589783  0.999893872  0.650590383
     0.499571575  0.248824605  0.649635837
     0.249457448  0.250113299  0.549734442
     0.499983270  0.999742144  0.549595394
     0.250000000  0.500000000  0.450427394
     0.500000000  0.750000000  0.450427394
     0.250000000  0.750000000  0.351282183
     0.500000000  0.500000000  0.351282183
     0.249643718  0.500040756  0.650765042
     0.500317876  0.750649009  0.650343184
     0.249709261  0.749868087  0.549803576
     0.500427758  0.500084999  0.550242721
     0.750000000  0.000000000  0.450427394
     0.000000000  0.250000000  0.450427394
     0.750000000  0.250000000  0.351282183
     0.000000000  0.000000000  0.351282183
     0.750115623  0.000226859  0.650583810
     0.999774688  0.250221488  0.650878515
     0.750120547  0.250595458  0.550011592
     0.999802353  0.000018231  0.549797969
     0.750000000  0.500000000  0.450427394
     0.000000000  0.750000000  0.450427394
     0.750000000  0.750000000  0.351282183
     0.000000000  0.500000000  0.351282183
     0.752377861  0.500740553  0.651167790
     0.999774542  0.750020413  0.650779856
     0.750111337  0.749520086  0.549937664
     0.999337224  0.500065337  0.550036179

  ion indices of the primitive-cell ions
   primitive index   ion index
                 1           1
                 2           2
                 3           3
                 4           4
                 5           5
                 6           6
                 7           7
                 8           8
                 9           9
                10          10
                11          11
[...]
   0.00001420  0.75004689  0.55026285
   0.74989921  0.75307215  0.64834501
   0.00291278  0.50003845  0.64862605
   0.25000000  0.00000000  0.45042739
   0.50000000  0.25000000  0.45042739
   0.25000000  0.25000000  0.35128218
   0.50000000  0.00000000  0.35128218
   0.24958978  0.99989387  0.65059038
   0.49957157  0.24882461  0.64963584
   0.24945745  0.25011330  0.54973444
   0.49998327  0.99974214  0.54959539
   0.25000000  0.50000000  0.45042739
   0.50000000  0.75000000  0.45042739
   0.25000000  0.75000000  0.35128218
   0.50000000  0.50000000  0.35128218
   0.24964372  0.50004076  0.65076504
   0.50031788  0.75064901  0.65034318
   0.24970926  0.74986809  0.54980358
   0.50042776  0.50008500  0.55024272
   0.75000000  0.00000000  0.45042739
   0.00000000  0.25000000  0.45042739
   0.75000000  0.25000000  0.35128218
   0.00000000  0.00000000  0.35128218
   0.75011562  0.00022686  0.65058381
   0.99977469  0.25022149  0.65087851
   0.75012055  0.25059546  0.55001159
   0.99980235  0.00001823  0.54979797
   0.75000000  0.50000000  0.45042739
   0.00000000  0.75000000  0.45042739
   0.75000000  0.75000000  0.35128218
   0.00000000  0.50000000  0.35128218
   0.75237786  0.50074055  0.65116779
   0.99977454  0.75002041  0.65077986
   0.75011134  0.74952009  0.54993766
   0.99933722  0.50006534  0.55003618

 position of ions in cartesian coordinates  (Angst):
   2.11678566  0.00000000  7.50000000
   4.23357132  2.11678566  7.50000000
   2.11678566  2.11678566  9.61678566
   4.23357132  0.00000000  9.61678566
   2.11673646  0.00032597 11.74396577
   4.23243544  2.11911041 11.75179869
   2.11848690  2.11101427 13.84452835
   4.22892297  0.00130018 13.84245793
   2.11678566  4.23357132  7.50000000
   4.23357132  6.35035697  7.50000000
   2.11678566  6.35035697  9.61678566
   4.23357132  4.23357132  9.61678566
   2.12179676  4.23326687 11.74768056
   4.23223480  6.34673696 11.75150007
   2.11862992  6.35598554 13.84679501
   4.21064817  4.23055843 13.89698428
   6.35035697  0.00000000  7.50000000
   0.00000000  2.11678566  7.50000000
   6.35035697  2.11678566  9.61678566
   0.00000000  0.00000000  9.61678566
   6.34892309  0.00329407 11.74378741
   8.46503136  2.11718150 11.74974876
   6.34465400  2.10107575 13.86054477
   0.00319568  0.00174447 13.84852177
   6.35035697  4.23357132  7.50000000
   0.00000000  6.35035697  7.50000000
   6.35035697  6.35035697  9.61678566
   0.00000000  4.23357132  9.61678566
   6.34275928  4.23172784 11.73405146
   0.00012026  6.35075396 11.74830838
   6.34950359  6.37636932 13.84239745
   0.02466294  4.23389691 13.84839780
   2.11678566  0.00000000  9.61678566
   4.23357132  2.11678566  9.61678566
   2.11678566  2.11678566  7.50000000
   4.23357132  0.00000000  7.50000000
   2.11331229  8.46624403 13.89033691
   4.22994378  2.10683342 13.86995701
   2.11219180  2.11774497 11.73702659
   4.23342966  8.46495933 11.73405785
   2.11678566  4.23357132  9.61678566
   4.23357132  6.35035697  9.61678566
   2.11678566  6.35035697  7.50000000
   4.23357132  4.23357132  7.50000000
   2.11376897  4.23391641 13.89406594
   4.23626282  6.35585222 13.88505913
   2.11432393  6.34924004 11.73850261
   4.23719320  4.23429102 11.74787851
   6.35035697  0.00000000  9.61678566
   0.00000000  2.11678566  9.61678566
   6.35035697  2.11678566  7.50000000
   0.00000000  0.00000000  7.50000000
   6.35133597  0.00192085 13.89019658
   8.46523488  2.11866103 13.89648864
   6.35137766  2.12182749 11.74294382
   8.46546913  0.00015436 11.73838291
   6.35035697  4.23357132  9.61678566
   0.00000000  6.35035697  9.61678566
   6.35035697  6.35035697  7.50000000
   0.00000000  4.23357132  7.50000000
   6.37049066  4.23984168 13.90266477
   8.46523364  6.35052981 13.89438224
   6.35129968  6.34629347 11.74136543
   8.46153082  4.23412453 11.74346876

--------------------------------------- Iteration      FINAL  ---------------------------------------

--------------------OUTCAR has been truncated-------------------------

[...]

--------------------OUTCAR has been truncated-------------------------

 VOLUME and BASIS-vectors are now :
  energy-cutoff  :      600.00
  volume of cell :     1530.66
      direct lattice vectors                 reciprocal lattice vectors
     8.467142631  0.000000000  0.000000000     0.118103597  0.000000000  0.000000000
     0.000000000  8.467142631  0.000000000     0.000000000  0.118103597  0.000000000
     0.000000000  0.000000000 21.350356973     0.000000000  0.000000000  0.046837624

  length of vectors
     8.467142631  8.467142631 21.350356973     0.118103597  0.118103597  0.046837624

 FORCES acting on ions:
    Electron-Ion                     Ewald-Force                    Non-Local-Force
   -.957E-02 0.382E-02 0.205E+04   0.804E-02 -.430E-02 -.205E+04   0.991E-03 0.307E-03 -.674E+01
   -.702E-02 -.117E+00 0.205E+04   0.506E-02 0.117E+00 -.205E+04   0.124E-02 -.315E-03 -.676E+01
   -.203E+00 -.669E+00 0.680E+03   0.171E+00 0.690E+00 -.680E+03   0.199E-01 -.123E-01 0.441E+00
   -.225E+00 -.331E-01 0.680E+03   0.229E+00 0.127E-01 -.681E+03   -.274E-02 0.127E-01 0.387E+00
   0.379E+00 0.266E+00 -.682E+03   -.419E+00 -.280E+00 0.682E+03   0.165E-01 0.411E-02 -.110E+00
   -.122E+01 -.257E+01 -.684E+03   0.139E+01 0.280E+01 0.684E+03   -.112E+00 -.168E+00 -.540E+00
   0.103E+01 -.141E+01 -.204E+04   -.124E+01 0.109E+01 0.203E+04   0.916E-01 0.266E+00 0.598E+01
   -.650E+00 0.127E+01 -.204E+04   0.514E+00 -.130E+01 0.203E+04   0.121E+00 -.137E-01 0.596E+01
   -.196E-01 -.351E-02 0.205E+04   0.206E-01 0.399E-02 -.205E+04   -.752E-03 -.300E-03 -.675E+01
   -.642E-02 0.116E+00 0.205E+04   0.402E-02 -.117E+00 -.205E+04   0.156E-02 0.648E-03 -.676E+01
   -.184E+00 0.660E+00 0.679E+03   0.180E+00 -.680E+00 -.680E+03   0.263E-02 0.126E-01 0.461E+00
   0.485E+00 0.255E-01 0.678E+03   -.522E+00 -.149E-01 -.678E+03   0.207E-01 -.735E-02 0.522E+00
   -.153E+00 -.216E+00 -.684E+03   0.245E+00 0.229E+00 0.684E+03   -.109E+00 -.596E-02 -.723E-01
   -.907E+00 0.253E+01 -.686E+03   0.105E+01 -.275E+01 0.686E+03   -.825E-01 0.158E+00 -.382E+00
   -.222E+00 0.143E+01 -.204E+04   0.212E-01 -.109E+01 0.203E+04   0.116E+00 -.280E+00 0.596E+01
   -.133E+02 -.331E+00 -.206E+04   0.134E+02 0.534E+00 0.205E+04   0.294E+00 -.119E+00 0.631E+01
   0.930E-02 0.483E-02 0.205E+04   -.813E-02 -.416E-02 -.205E+04   -.731E-03 -.495E-03 -.675E+01
   0.583E-02 -.106E+00 0.205E+04   -.485E-02 0.105E+00 -.205E+04   -.579E-03 0.946E-03 -.677E+01
   0.158E+00 0.150E-01 0.679E+03   -.145E+00 -.310E-01 -.679E+03   -.932E-02 0.899E-02 0.463E+00
   0.193E+00 -.817E-02 0.680E+03   -.205E+00 0.164E-01 -.680E+03   0.724E-02 -.515E-02 0.442E+00
   -.314E+00 0.188E+00 -.682E+03   0.356E+00 -.135E+00 0.682E+03   -.217E-01 -.578E-01 -.905E-01
   0.121E+01 -.127E+01 -.686E+03   -.136E+01 0.144E+01 0.687E+03   0.924E-01 -.106E+00 -.268E+00
   0.253E+00 -.103E+02 -.204E+04   0.107E+00 0.105E+02 0.204E+04   -.200E+00 0.586E-01 0.605E+01
   0.885E+00 -.220E-01 -.204E+04   -.712E+00 0.556E-02 0.203E+04   -.157E+00 0.517E-02 0.589E+01
   0.180E-01 -.341E-02 0.205E+04   -.194E-01 0.322E-02 -.205E+04   0.104E-02 0.175E-03 -.674E+01
   0.658E-02 0.106E+00 0.205E+04   -.448E-02 -.104E+00 -.205E+04   -.135E-02 -.109E-02 -.676E+01
   0.153E+00 -.217E-01 0.679E+03   -.155E+00 0.476E-01 -.679E+03   0.585E-03 -.144E-01 0.433E+00
   -.479E+00 0.164E-01 0.678E+03   0.508E+00 -.207E-01 -.679E+03   -.171E-01 0.287E-02 0.427E+00
   0.564E+00 -.207E+00 -.686E+03   -.574E+00 0.190E+00 0.687E+03   0.702E-01 0.351E-01 -.280E+00
   0.912E+00 0.132E+01 -.685E+03   -.104E+01 -.149E+01 0.685E+03   0.691E-01 0.105E+00 -.293E+00
   0.911E+00 0.106E+02 -.204E+04   -.687E+00 -.110E+02 0.203E+04   -.133E+00 -.320E-01 0.590E+01
   0.814E+01 -.923E-01 -.204E+04   -.881E+01 0.125E+00 0.203E+04   0.233E+00 -.118E-01 0.584E+01
   0.417E-01 0.402E-01 0.510E+03   -.349E-01 -.397E-01 -.510E+03   -.856E-02 -.961E-03 -.581E-01
   -.109E+00 -.469E+00 0.508E+03   0.116E+00 0.447E+00 -.508E+03   -.730E-02 0.248E-01 -.139E+00
   -.151E-01 -.107E+00 0.154E+04   0.133E-01 0.108E+00 -.155E+04   0.217E-02 -.170E-02 0.303E+01
   -.278E-01 0.161E-02 0.154E+04   0.280E-01 -.292E-02 -.155E+04   -.215E-03 0.156E-02 0.303E+01
   -.220E+00 0.134E+00 -.155E+04   0.150E+00 -.162E+00 0.155E+04   0.104E+00 0.388E-01 -.439E+01
   -.265E+01 -.447E+01 -.154E+04   0.284E+01 0.459E+01 0.155E+04   -.198E+00 -.543E-01 -.378E+01
   -.269E-01 -.930E+00 -.505E+03   -.163E-01 0.940E+00 0.505E+03   0.683E-01 -.174E-01 0.484E+00
   -.365E+00 0.200E+00 -.504E+03   0.394E+00 -.219E+00 0.503E+03   -.362E-01 0.315E-01 0.484E+00
   0.139E-01 -.347E-01 0.508E+03   -.491E-01 0.343E-01 -.508E+03   0.388E-01 0.791E-03 -.975E-01
   -.101E+00 0.455E+00 0.508E+03   0.111E+00 -.422E+00 -.508E+03   -.120E-01 -.383E-01 -.159E+00
   -.157E-01 0.107E+00 0.154E+04   0.159E-01 -.108E+00 -.155E+04   -.177E-03 0.172E-02 0.303E+01
   0.324E-01 -.614E-03 0.154E+04   -.360E-01 0.234E-02 -.155E+04   0.426E-02 -.208E-02 0.303E+01
   -.124E+01 -.153E+00 -.155E+04   0.104E+01 0.184E+00 0.155E+04   0.263E+00 -.383E-01 -.408E+01
   -.177E+01 0.398E+01 -.155E+04   0.205E+01 -.419E+01 0.155E+04   -.320E+00 0.176E+00 -.409E+01
   -.289E+00 0.877E+00 -.506E+03   0.253E+00 -.881E+00 0.506E+03   0.533E-01 0.104E-01 0.445E+00
   -.116E+01 -.101E+00 -.517E+03   0.133E+01 0.103E+00 0.518E+03   -.228E+00 -.119E-01 -.213E+00
   -.493E-01 0.756E-01 0.509E+03   0.514E-01 -.964E-01 -.509E+03   -.158E-02 0.229E-01 -.701E-01
   0.863E-01 -.388E+00 0.509E+03   -.697E-01 0.392E+00 -.508E+03   -.192E-01 -.485E-02 -.161E+00
   0.159E-01 -.475E-01 0.154E+04   -.134E-01 0.450E-01 -.155E+04   -.305E-02 0.301E-02 0.303E+01
   0.279E-01 0.102E-02 0.154E+04   -.278E-01 -.358E-03 -.155E+04   -.527E-04 -.783E-03 0.303E+01
   0.281E-01 -.732E+00 -.155E+04   0.478E-01 0.770E+00 0.155E+04   -.101E+00 -.131E-01 -.430E+01
   0.192E+01 -.125E+01 -.155E+04   -.224E+01 0.154E+01 0.155E+04   0.355E+00 -.327E+00 -.441E+01
   0.136E+00 -.161E+01 -.511E+03   -.112E+00 0.179E+01 0.511E+03   -.449E-01 -.239E+00 0.964E-01
   0.314E+00 -.445E-01 -.506E+03   -.334E+00 0.305E-01 0.506E+03   0.287E-01 0.168E-01 0.368E+00
   -.626E-01 -.532E-01 0.510E+03   0.110E+00 0.628E-01 -.510E+03   -.514E-01 -.101E-01 -.236E-01
   0.977E-01 0.394E+00 0.509E+03   -.101E+00 -.404E+00 -.509E+03   0.391E-02 0.104E-01 -.143E+00
   0.155E-01 0.464E-01 0.154E+04   -.155E-01 -.443E-01 -.155E+04   -.584E-04 -.253E-02 0.303E+01
   -.314E-01 -.103E-02 0.154E+04   0.352E-01 0.246E-03 -.155E+04   -.452E-02 0.939E-03 0.303E+01
   0.485E+01 0.139E-01 -.155E+04   -.463E+01 0.198E+00 0.155E+04   -.408E+00 -.248E+00 -.393E+01
   0.126E+01 0.139E+01 -.155E+04   -.156E+01 -.170E+01 0.155E+04   0.358E+00 0.360E+00 -.447E+01
   0.336E+00 0.167E+01 -.508E+03   -.304E+00 -.187E+01 0.508E+03   -.460E-01 0.274E+00 0.270E+00
   0.105E+01 0.231E-01 -.509E+03   -.133E+01 -.548E-02 0.509E+03   0.351E+00 -.204E-01 0.191E+00
   -.510E+00 0.246E+00 0.147E+02   -.139E-12 0.131E-12 -.159E-11   0.453E+00 -.221E+00 -.125E+02

 POSITION                                       TOTAL-FORCE (eV/Angst)
      2.11679      0.00000      7.50000        -0.000344     -0.000121      0.628450
      4.23357      2.11679      7.50000        -0.000469      0.000002      0.630326
      2.11679      2.11679      9.61679        -0.008683      0.005745      0.037354
      4.23357      0.00000      9.61679         0.001184     -0.005669      0.038241
      2.11674      0.00033     11.74397        -0.019773     -0.008029     -0.067938
      4.23244      2.11911     11.75180         0.042485      0.039143     -0.109369
      2.11849      2.11101     13.84453        -0.095815     -0.026031     -0.263551
      4.22892      0.00130     13.84246         0.000175     -0.042409     -0.258197
      2.11679      4.23357      7.50000         0.000137      0.000139      0.630328
      4.23357      6.35036      7.50000        -0.000551     -0.000108      0.632480
      2.11679      6.35036      9.61679        -0.000939     -0.005700      0.038008
      4.23357      4.23357      9.61679        -0.012135      0.002152      0.050753
      2.12180      4.23327     11.74768        -0.028364      0.005600     -0.090073
      4.23223      6.34674     11.75150         0.044576     -0.035457     -0.073491
      2.11863      6.35599     13.84680        -0.065073      0.025474     -0.259889
      4.21065      4.23056     13.89698         0.362403      0.063537     -0.615823
      6.35036      0.00000      7.50000         0.000362      0.000105      0.629536
      0.00000      2.11679      7.50000         0.000335     -0.000357      0.633355
      6.35036      2.11679      9.61679         0.002478     -0.005508      0.051176
      0.00000      0.00000      9.61679        -0.003269      0.002265      0.040631
      6.34892      0.00329     11.74379         0.016404     -0.010239     -0.071751
      8.46503      2.11718     11.74975        -0.039106      0.047341     -0.035867
      6.34465      2.10108     13.86054         0.124147      0.286854     -0.360440
      0.00320      0.00174     13.84852        -0.002694     -0.009773     -0.246672
      6.35036      4.23357      7.50000        -0.000130      0.000014      0.626781
      0.00000      6.35036      7.50000         0.000573      0.000408      0.632205
      6.35036      6.35036      9.61679        -0.000576      0.008987      0.060340
      0.00000      4.23357      9.61679         0.009118     -0.000942      0.076656
      6.34276      4.23173     11.73405         0.063926      0.020770      0.277075
      0.00012      6.35075     11.74831        -0.044280     -0.048922     -0.027877
      6.34950      6.37637     13.84240         0.068669     -0.358966     -0.207526
      0.02466      4.23390     13.84840        -0.377066      0.017809     -0.221376
      2.11679      0.00000      9.61679        -0.003332     -0.000605      0.059404
      4.23357      2.11679      9.61679        -0.001949      0.008061      0.068573
      2.11679      2.11679      7.50000         0.000776     -0.000591     -0.373603
      4.23357      0.00000      7.50000        -0.000046      0.000539     -0.373312
      2.11331      8.46624     13.89034         0.055573      0.018102     -0.097669
      4.22994      2.10683     13.86996        -0.039056      0.067724      0.145765
      2.11219      2.11774     11.73703         0.038416     -0.010098      0.060195
      4.23343      8.46496     11.73406        -0.014383      0.017762      0.073155
      2.11679      4.23357      9.61679         0.010588      0.000497      0.064727
      4.23357      6.35036      9.61679        -0.003325     -0.012219      0.059543
      2.11679      6.35036      7.50000        -0.000020      0.000613     -0.373838
      4.23357      4.23357      7.50000         0.001501     -0.000720     -0.373083
      2.11377      4.23392     13.89407         0.114253     -0.014721     -0.022433
      4.23626      6.35585     13.88506        -0.106842     -0.006456      0.016168
      2.11432      6.34924     11.73850         0.027794      0.009389      0.048881
      4.23719      4.23429     11.74788        -0.105495     -0.012661     -0.009192
      6.35036      0.00000      9.61679         0.000331      0.006175      0.055514
      0.00000      2.11679      9.61679        -0.006044     -0.001148      0.050793
      6.35036      2.11679      7.50000        -0.001026      0.001042     -0.372673
      0.00000      0.00000      7.50000         0.000027     -0.000257     -0.373949
      6.35134      0.00192     13.89020        -0.044732      0.024414     -0.074639
      8.46523      2.11866     13.89649         0.104677     -0.103931     -0.107024
      6.35138      2.12183     11.74294        -0.029723     -0.105606     -0.029464
      8.46547      0.00015     11.73838         0.014216      0.005884      0.035003
      6.35036      4.23357      9.61679        -0.013508     -0.002318      0.025162
      0.00000      6.35036      9.61679         0.000935      0.002804      0.050643
      6.35036      6.35036      7.50000         0.000008     -0.000849     -0.372660
      0.00000      4.23357      7.50000        -0.001520      0.000328     -0.373054
      6.37049      4.23984     13.90266        -0.274908     -0.081883     -0.063515
      8.46523      6.35053     13.89438         0.123999      0.111824     -0.119760
      6.35130      6.34629     11.74137        -0.023150      0.117270     -0.045999
      8.46153      4.23412     11.74347         0.138261     -0.006478     -0.061513
    total drift:                               -0.002718     -0.000465      0.010361

  FREE ENERGIE OF THE ION-ELECTRON SYSTEM (eV)
  free  energy   TOTEN  =      -471.09562476 eV

  energy  without entropy=     -471.09562476  energy(sigma->0) =     -471.09562476