 vasp.6.3.0 20Jan22 (build Dec 25 2023 18:06:01) complex
 executed on        HPECrayEX_GCC date 2024.01.24  04:31:44

 INCAR:
   SYSTEM = MgO-rocksalt
   ISMEAR = 0
   SIGMA = 0.05
   EDIFF = 1E-8
   ALGO = ALL
   ISTART = 0
   IBRION = 5
   POTIM = 0.01
   NFREE = 2
   ISYM = 0
   DIPOL = 0.5 0.5 0.5
   IDIPOL = 3
   LDIPOL = .TRUE.
   GGA = RE
   IVDW = 13
   VDW_S8 = 1.7468
   VDW_A1 = 0.5363
   VDW_A2 = 3.0726
   ENCUT = 600
   PREC = Accurate
   LASPH = .TRUE.
   LREAL = .FALSE.
   ISPIN = 1
   NELM = 200
   NELMIN = 8
   NCORE = 8
   KPAR = 1
   LWAVE = .FALSE.
   LCHARG = .FALSE.

 POTCAR:    PAW_PBE C 08Apr2002
 POTCAR:    PAW_PBE H 15Jun2001
 POTCAR:    PAW_PBE Ti_pv 07Sep2000
 POTCAR:    PAW_PBE O 08Apr2002
 POTCAR:    PAW_PBE C 08Apr2002
   VRHFIN =C: s2p2

   TITEL  = PAW_PBE C 08Apr2002
   POMASS =   12.011; ZVAL   =    4.000    mass and valenz
   ENMAX  =  400.000; ENMIN  =  300.000 eV

   TITEL  = PAW_PBE H 15Jun2001
   POMASS =    1.000; ZVAL   =    1.000    mass and valenz
   ENMAX  =  250.000; ENMIN  =  200.000 eV

   TITEL  = PAW_PBE Ti_pv 07Sep2000
   POMASS =   47.880; ZVAL   =   10.000    mass and valenz
   ENMAX  =  222.335; ENMIN  =  166.751 eV

   TITEL  = PAW_PBE O 08Apr2002
   POMASS =   16.000; ZVAL   =    6.000    mass and valenz
   ENMAX  =  400.000; ENMIN  =  300.000 eV

  PAW_PBE C 08Apr2002                   :
  PAW_PBE H 15Jun2001                   :
  PAW_PBE Ti_pv 07Sep2000               :
  PAW_PBE O 08Apr2002                   :

 POSCAR:  C  H Ti  O
  positions in direct lattice
|           W    W    AA    RRRRR   N    N  II  N    N   GGGG   !!!           |
|           W    W   A  A   R    R  NN   N  II  NN   N  G    G  !!!           |
|           W    W  A    A  R    R  N N  N  II  N N  N  G       !!!           |
|           W WW W  AAAAAA  RRRRR   N  N N  II  N  N N  G  GGG   !            |
|           WW  WW  A    A  R   R   N   NN  II  N   NN  G    G                |
|           W    W  A    A  R    R  N    N  II  N    N   GGGG   !!!           |
|     Specifying the vdW parameters                                           |
|     VDW_S8 = 1.747                                                          |
|     VDW_A1 = 0.536                                                          |
|     VDW_A2 = 3.073                                                          |
|     in the INCAR file will overwrite the defaults for revpbe. Please        |
|     make sure that is what you intended.                                    |

 ion  position               nearest neighbor table
   1  0.500  0.500  0.813-   2 1.10   3 1.10   4 1.10   5 1.10
   2  0.496  0.576  0.833-   1 1.10
   3  0.504  0.424  0.833-   1 1.10
   4  0.571  0.504  0.793-   1 1.10
   5  0.430  0.496  0.793-   1 1.10
   6  0.750  0.625  0.287-  87 1.95 147 1.95 146 1.95  86 1.95  89 1.98 168 1.98  16 2.96  36 2.96

   7  0.000  0.750  0.287-  88 1.95  89 1.95 108 1.95 109 1.95  90 1.98  37 2.96  17 2.96
   8  0.000  0.625  0.394-  90 1.95 150 1.95  91 1.95 151 1.95  92 1.98  93 1.98  18 2.96  38 2.96

[...]

  85  0.500  0.500  0.709- 239 1.82 244 1.95 185 1.95 184 1.95 245 1.95  75 2.96  55 2.96
  86  0.750  0.750  0.245-   6 1.95  16 1.95
  87  0.750  0.750  0.329-   6 1.95  16 1.95   9 1.98
  88  0.098  0.625  0.287-   7 1.95  37 1.95  46 1.98
  89  0.902  0.625  0.287-   7 1.95  37 1.95   6 1.98
  90  0.000  0.750  0.352-   8 1.95  18 1.95   7 1.98
  91  0.000  0.750  0.435-   8 1.95  18 1.95  11 1.98
  92  0.848  0.625  0.394-   9 1.95  39 1.95   8 1.98
  93  0.152  0.625  0.394-  49 1.95  79 1.95   8 1.98
  94  0.750  0.750  0.458-  10 1.95  20 1.95   9 1.98
  95  0.750  0.750  0.542-  10 1.95  20 1.95  13 2.11
  96  0.098  0.625  0.500-  11 1.95  41 1.95  50 1.98
  97  0.902  0.625  0.500-  11 1.95  41 1.95  10 1.98
  98  0.000  0.750  0.565-  22 1.90  12 1.90  11 2.00
  99  0.000  0.750  0.649-  15 1.81  12 2.02  22 2.02
 100  0.850  0.625  0.607-  12 1.95  13 1.97  43 1.97
 101  0.150  0.625  0.607-  12 1.95  53 1.97  83 1.97
 102  0.750  0.750  0.672-  13 1.86  14 2.10  24 2.10
 103  0.750  0.750  0.756-  14 1.83  24 1.83
 104  0.094  0.625  0.719-  45 1.95  15 1.95  54 2.03
 105  0.906  0.625  0.719-  45 1.95  15 1.95  14 2.03
 106  0.750  0.000  0.245-  16 1.95  26 1.95
 107  0.750  0.000  0.329-  16 1.95  26 1.95  19 1.98
 108  0.098  0.875  0.287-   7 1.95  17 1.95  56 1.98
 109  0.902  0.875  0.287-   7 1.95  17 1.95  16 1.98
 110  0.000  0.000  0.352-  18 1.95  28 1.95  17 1.98
 111  0.000  0.000  0.435-  18 1.95  28 1.95  21 1.98
 112  0.848  0.875  0.394-   9 1.95  19 1.95  18 1.98
 113  0.152  0.875  0.394-  49 1.95  59 1.95  18 1.98
 114  0.750  0.000  0.458-  20 1.95  30 1.95  19 1.98
 115  0.750  0.000  0.542-  20 1.95  30 1.95  23 2.11
 116  0.098  0.875  0.500-  11 1.95  21 1.95  60 1.98
 117  0.902  0.875  0.500-  11 1.95  21 1.95  20 1.98
 118  0.000  0.000  0.565-  32 1.89  22 1.89  21 2.00
 119  1.000  0.000  0.649-  25 1.81  32 2.02  22 2.02
 120  0.850  0.875  0.607-  22 1.95  13 1.97  23 1.97
 121  0.150  0.875  0.607-  22 1.95  53 1.97  63 1.97
 122  0.750  0.000  0.672-  23 1.86  24 2.10  34 2.10
 123  0.750  0.000  0.756-  24 1.83  34 1.83
 124  0.094  0.875  0.719-  15 1.95  25 1.95  64 2.03
 125  0.906  0.875  0.719-  15 1.95  25 1.95  24 2.03
 126  0.750  0.250  0.245-  26 1.95  36 1.95
 127  0.750  0.250  0.329-  26 1.95  36 1.95  29 1.98
 128  0.098  0.125  0.287-  17 1.95  27 1.95  66 1.98
 129  0.902  0.125  0.287-  17 1.95  27 1.95  26 1.98
 130  0.000  0.250  0.352-  28 1.95  38 1.95  27 1.98
 131  0.000  0.250  0.435-  28 1.95  38 1.95  31 1.98
 132  0.848  0.125  0.394-  19 1.95  29 1.95  28 1.98
 133  0.152  0.125  0.394-  59 1.95  69 1.95  28 1.98
 134  0.750  0.250  0.458-  30 1.95  40 1.95  29 1.98
 135  0.750  0.250  0.542-  30 1.95  40 1.95  33 2.11
 136  0.098  0.125  0.500-  21 1.95  31 1.95  70 1.98
 137  0.902  0.125  0.500-  21 1.95  31 1.95  30 1.98
 138  0.000  0.250  0.565-  32 1.90  42 1.90  31 2.00
 139  1.000  0.250  0.649-  35 1.81  42 2.02  32 2.02
 140  0.850  0.125  0.607-  32 1.95  33 1.97  23 1.97
 141  0.150  0.125  0.607-  32 1.95  73 1.97  63 1.97
 142  0.750  0.250  0.672-  33 1.86  44 2.10  34 2.10
 143  0.750  0.250  0.756-  44 1.83  34 1.83
 144  0.094  0.125  0.719-  35 1.95  25 1.95  74 2.03
[...]
 231  0.500  0.500  0.435-  48 1.95  78 1.95  81 1.98
 232  0.348  0.375  0.394-  69 1.95  79 1.95  78 1.98
 233  0.652  0.375  0.394-  29 1.95  39 1.95  78 1.98
 234  0.250  0.500  0.458-  50 1.95  80 1.95  79 1.98
 235  0.250  0.500  0.542-  50 1.95  80 1.95  83 2.11
 236  0.598  0.375  0.500-  71 1.95  81 1.95  40 1.98
 237  0.402  0.375  0.500-  71 1.95  81 1.95  80 1.98
 238  0.500  0.500  0.565-  52 1.90  82 1.90  81 2.00
 239  0.500  0.500  0.649-  85 1.82  82 2.02  52 2.02
 240  0.350  0.375  0.607-  82 1.95  83 1.97  73 1.97
 241  0.650  0.375  0.607-  82 1.95  43 1.97  33 1.97
 242  0.249  0.500  0.672-  83 1.86  84 2.10  54 2.10
 243  0.251  0.500  0.756-  54 1.83  84 1.84
 244  0.594  0.374  0.718-  75 1.94  85 1.95  44 2.03
 245  0.406  0.374  0.718-  75 1.94  85 1.95  84 2.03

IMPORTANT INFORMATION: All symmetrisations will be switched off!
NOSYMM: (Re-)initialisation of all symmetry stuff for point group C_1.

                                     Primitive cell

  volume of cell :    4700.2961

  direct lattice vectors                    reciprocal lattice vectors
    13.003980404  0.000000000  0.000000000     0.076899531  0.000000000  0.000000000
     0.000000000 11.830378115  0.000000000     0.000000000  0.084528152  0.000000000
     0.000000000  0.000000000 30.552748813     0.000000000  0.000000000  0.032730279

  length of vectors
    13.003980404 11.830378115 30.552748813     0.076899531  0.084528152  0.032730279

  position of ions in fractional coordinates (direct lattice)
     0.500064745  0.500001964  0.812552324
     0.496116017  0.575765146  0.833149304
     0.504021047  0.424236385  0.833153143
     0.570575337  0.504286174  0.792850438
     0.429538212  0.495704170  0.792857062
     0.750000000  0.625000000  0.287188045
     0.000000000  0.750000000  0.287188045
     0.000000000  0.625000000  0.393594023
     0.750000000  0.750000000  0.393594023
     0.750000000  0.625000000  0.500000000
     0.000000000  0.750000000  0.500000000
     0.999998721  0.625016579  0.604133070
     0.750021371  0.750038293  0.610722288
     0.750117203  0.625133247  0.720287438
     0.000025088  0.750082327  0.708163002
     0.750000000  0.875000000  0.287188045
     0.000000000  0.000000000  0.287188045
     0.000000000  0.875000000  0.393594023
     0.750000000  0.000000000  0.393594023
     0.750000000  0.875000000  0.500000000
     0.000000000  0.000000000  0.500000000
     0.999995888  0.875019827  0.604149471
     0.749960154  0.000003634  0.610781080
     0.749868681  0.875032810  0.720490641
     0.999999839  0.999999986  0.708171277
     0.750000000  0.125000000  0.287188045
     0.000000000  0.250000000  0.287188045
     0.000000000  0.125000000  0.393594023
     0.750000000  0.250000000  0.393594023
     0.750000000  0.125000000  0.500000000
     0.000000000  0.250000000  0.500000000
     0.000004291  0.124980166  0.604149473
     0.750020909  0.249964332  0.610733868
     0.749849705  0.124984894  0.720495097
     0.999975957  0.249917704  0.708163011
     0.750000000  0.375000000  0.287188045
     0.000000000  0.500000000  0.287188045
     0.000000000  0.375000000  0.393594023
     0.750000000  0.500000000  0.393594023
     0.750000000  0.375000000  0.500000000
     0.000000000  0.500000000  0.500000000
     0.000001188  0.374983462  0.604133074
     0.750045959  0.499996868  0.610724841
     0.750061545  0.374909743  0.720323388
     0.000000688  0.500000006  0.708145396
     0.250000000  0.625000000  0.287188045
     0.500000000  0.750000000  0.287188045
     0.500000000  0.625000000  0.393594023
     0.250000000  0.750000000  0.393594023
     0.250000000  0.625000000  0.500000000
     0.500000000  0.750000000  0.500000000
     0.499999018  0.624688356  0.604436823
     0.249979186  0.750035519  0.610734113
     0.249940081  0.625089722  0.720324203
     0.500006823  0.749974613  0.708033504
     0.250000000  0.875000000  0.287188045
     0.500000000  0.000000000  0.287188045
     0.500000000  0.875000000  0.393594023
     0.250000000  0.000000000  0.393594023
     0.250000000  0.875000000  0.500000000
[...]
     0.500000000  0.500000000  0.435304973
     0.347999548  0.375000000  0.393594023
     0.652000452  0.375000000  0.393594023
     0.250000000  0.500000000  0.458289049
     0.250000000  0.500000000  0.541710951
     0.597999548  0.375000000  0.500000000
     0.402000452  0.375000000  0.500000000
     0.500000020  0.499999979  0.565493278
     0.499999656  0.499999897  0.649413088
     0.350129645  0.374998360  0.607239421
     0.649871015  0.375005158  0.607234445
     0.249491373  0.500022887  0.671594039
     0.250837245  0.499953273  0.755807071
     0.594288593  0.374432071  0.718293282
     0.405639334  0.374387977  0.718191698

  ion indices of the primitive-cell ions
   primitive index   ion index
                 1           1
                 2           2
[...]

 Eigenvectors and eigenvalues of the dynamical matrix

   1 f  =   92.702780 THz   582.468743 2PiTHz 3092.231881 cm-1   383.387718 meV
             X         Y         Z           dx          dy          dz
      6.502832  5.915212 24.825707    -0.026149    0.301742    0.004392
      6.451483  6.811519 25.455001     0.030822   -0.551258   -0.400418
      6.554280  5.018877 25.455119     0.030043   -0.536490    0.390699
      7.419751  5.965896 24.223760     0.019612    0.022058   -0.013885
      5.585706  5.864368 24.223963     0.010549    0.021536    0.008359
      9.752985  7.393986  8.774384            0           0           0
      0.000000  8.872784  8.774384            0           0           0
      0.000000  7.393986 12.025379            0           0           0
      9.752985  8.872784 12.025379            0           0           0
      9.752985  7.393986 15.276374            0           0           0
      0.000000  8.872784 15.276374            0           0           0
     13.003964  7.394182 18.457926            0           0           0
      9.753263  8.873237 18.659245            0           0           0
      9.754509  7.395563 22.006761            0           0           0
      0.000326  8.873758 21.636326            0           0           0
      9.752985 10.351581  8.774384            0           0           0
      0.000000  0.000000  8.774384            0           0           0
      0.000000 10.351581 12.025379            0           0           0
      9.752985  0.000000 12.025379            0           0           0
      9.752985 10.351581 15.276374            0           0           0
      0.000000  0.000000 15.276374            0           0           0
     13.003927 10.351815 18.458427            0           0           0
      9.752467  0.000043 18.661041            0           0           0
      9.751278 10.351969 22.012970            0           0           0
     13.003978 11.830378 21.636579            0           0           0
      9.752985  1.478797  8.774384            0           0           0
      0.000000  2.957595  8.774384            0           0           0
      0.000000  1.478797 12.025379            0           0           0
      9.752985  2.957595 12.025379            0           0           0
      9.752985  1.478797 15.276374            0           0           0
      0.000000  2.957595 15.276374            0           0           0
      0.000056  1.478563 18.458427            0           0           0
      9.753257  2.957173 18.659598            0           0           0
      9.751031  1.478619 22.013106            0           0           0
     13.003668  2.956621 21.636327            0           0           0
      9.752985  4.436392  8.774384            0           0           0
      0.000000  5.915189  8.774384            0           0           0
      0.000000  4.436392 12.025379            0           0           0
      9.752985  5.915189 12.025379            0           0           0
      9.752985  4.436392 15.276374            0           0           0
      0.000000  5.915189 15.276374            0           0           0
      0.000015  4.436196 18.457926            0           0           0
      9.753583  5.915152 18.659323            0           0           0
      9.753786  4.435324 22.007860            0           0           0
      0.000009  5.915189 21.635788            0           0           0
      3.250995  7.393986  8.774384            0           0           0
      6.501990  8.872784  8.774384            0           0           0
      6.501990  7.393986 12.025379            0           0           0
      3.250995  8.872784 12.025379            0           0           0
      3.250995  7.393986 15.276374            0           0           0
      6.501990  8.872784 15.276374            0           0           0
      6.501977  7.390299 18.467206            0           0           0
      3.250724  8.873204 18.659606            0           0           0
      3.250216  7.395048 22.007884            0           0           0
      6.502079  8.872483 21.632370            0           0           0
      3.250995 10.351581  8.774384            0           0           0
      6.501990  0.000000  8.774384            0           0           0
      6.501990 10.351581 12.025379            0           0           0
      3.250995  0.000000 12.025379            0           0           0
      3.250995 10.351581 15.276374            0           0           0
[...]
      6.501990  5.915189 13.299764            0           0           0
      4.525379  4.436392 12.025379            0           0           0
      8.478601  4.436392 12.025379            0           0           0
      3.250995  5.915189 14.001990            0           0           0
      3.250995  5.915189 16.550759            0           0           0
      7.776374  4.436392 15.276374            0           0           0
      5.227606  4.436392 15.276374            0           0           0
      6.501990  5.915189 17.277374            0           0           0
      6.501986  5.915188 19.841355            0           0           0
      4.553079  4.436372 18.552833            0           0           0
      8.450910  4.436453 18.552681            0           0           0
      3.244381  5.915460 20.519044            0           0           0
      3.261883  5.914636 23.091984            0           0           0
      7.728117  4.429673 21.945834            0           0           0
      5.274926  4.429151 21.942731            0           0           0

[...]

  14 f  =    2.287086 THz    14.370187 2PiTHz   76.288988 cm-1     9.458625 meV
             X         Y         Z           dx          dy          dz
      6.502832  5.915212 24.825707    -0.868012   -0.004066   -0.013107
      6.451483  6.811519 25.455001    -0.237441   -0.012069    0.012890
      6.554280  5.018877 25.455119    -0.275187   -0.014165   -0.020361
      7.419751  5.965896 24.223760    -0.235063   -0.006200    0.014526
      5.585706  5.864368 24.223963    -0.237472    0.031172   -0.021584
      9.752985  7.393986  8.774384            0           0           0
      0.000000  8.872784  8.774384            0           0           0
      0.000000  7.393986 12.025379            0           0           0
      9.752985  8.872784 12.025379            0           0           0
      9.752985  7.393986 15.276374            0           0           0
      0.000000  8.872784 15.276374            0           0           0
     13.003964  7.394182 18.457926            0           0           0
      9.753263  8.873237 18.659245            0           0           0
      9.754509  7.395563 22.006761            0           0           0
      0.000326  8.873758 21.636326            0           0           0
      9.752985 10.351581  8.774384            0           0           0
      0.000000  0.000000  8.774384            0           0           0
      0.000000 10.351581 12.025379            0           0           0
      9.752985  0.000000 12.025379            0           0           0
      9.752985 10.351581 15.276374            0           0           0
      0.000000  0.000000 15.276374            0           0           0
     13.003927 10.351815 18.458427            0           0           0
      9.752467  0.000043 18.661041            0           0           0
      9.751278 10.351969 22.012970            0           0           0
     13.003978 11.830378 21.636579            0           0           0
      9.752985  1.478797  8.774384            0           0           0
      0.000000  2.957595  8.774384            0           0           0
      0.000000  1.478797 12.025379            0           0           0
      9.752985  2.957595 12.025379            0           0           0
      9.752985  1.478797 15.276374            0           0           0
      0.000000  2.957595 15.276374            0           0           0
      0.000056  1.478563 18.458427            0           0           0
      9.753257  2.957173 18.659598            0           0           0
      9.751031  1.478619 22.013106            0           0           0
     13.003668  2.956621 21.636327            0           0           0
      9.752985  4.436392  8.774384            0           0           0
      0.000000  5.915189  8.774384            0           0           0
      0.000000  4.436392 12.025379            0           0           0
      9.752985  5.915189 12.025379            0           0           0
      9.752985  4.436392 15.276374            0           0           0
      0.000000  5.915189 15.276374            0           0           0
      0.000015  4.436196 18.457926            0           0           0
      9.753583  5.915152 18.659323            0           0           0
      9.753786  4.435324 22.007860            0           0           0
      0.000009  5.915189 21.635788            0           0           0
      3.250995  7.393986  8.774384            0           0           0
      6.501990  8.872784  8.774384            0           0           0
      6.501990  7.393986 12.025379            0           0           0
      3.250995  8.872784 12.025379            0           0           0
      3.250995  7.393986 15.276374            0           0           0
      6.501990  8.872784 15.276374            0           0           0
      6.501977  7.390299 18.467206            0           0           0
      3.250724  8.873204 18.659606            0           0           0
      3.250216  7.395048 22.007884            0           0           0
      6.502079  8.872483 21.632370            0           0           0
      3.250995 10.351581  8.774384            0           0           0
      6.501990  0.000000  8.774384            0           0           0
      6.501990 10.351581 12.025379            0           0           0
      3.250995  0.000000 12.025379            0           0           0
      3.250995 10.351581 15.276374            0           0           0
[...]
      6.501990  5.915189 13.299764            0           0           0
      4.525379  4.436392 12.025379            0           0           0
      8.478601  4.436392 12.025379            0           0           0
      3.250995  5.915189 14.001990            0           0           0
      3.250995  5.915189 16.550759            0           0           0
      7.776374  4.436392 15.276374            0           0           0
      5.227606  4.436392 15.276374            0           0           0
      6.501990  5.915189 17.277374            0           0           0
      6.501986  5.915188 19.841355            0           0           0
      4.553079  4.436372 18.552833            0           0           0
      8.450910  4.436453 18.552681            0           0           0
      3.244381  5.915460 20.519044            0           0           0
      3.261883  5.914636 23.091984            0           0           0
      7.728117  4.429673 21.945834            0           0           0
      5.274926  4.429151 21.942731            0           0           0

  15 f/i=    1.035345 THz     6.505265 2PiTHz   34.535397 cm-1     4.281842 meV
             X         Y         Z           dx          dy          dz
      6.502832  5.915212 24.825707    -0.023716    0.600230    0.002123
      6.451483  6.811519 25.455001    -0.024683    0.425433   -0.360952
      6.554280  5.018877 25.455119    -0.017686    0.425818    0.362078
      7.419751  5.965896 24.223760     0.006911   -0.081419    0.000111
      5.585706  5.864368 24.223963     0.007418   -0.088322    0.001008
      9.752985  7.393986  8.774384            0           0           0
      0.000000  8.872784  8.774384            0           0           0
      0.000000  7.393986 12.025379            0           0           0
      9.752985  8.872784 12.025379            0           0           0
      9.752985  7.393986 15.276374            0           0           0
      0.000000  8.872784 15.276374            0           0           0
     13.003964  7.394182 18.457926            0           0           0
      9.753263  8.873237 18.659245            0           0           0
      9.754509  7.395563 22.006761            0           0           0
      0.000326  8.873758 21.636326            0           0           0
      9.752985 10.351581  8.774384            0           0           0
      0.000000  0.000000  8.774384            0           0           0
      0.000000 10.351581 12.025379            0           0           0
      9.752985  0.000000 12.025379            0           0           0
      9.752985 10.351581 15.276374            0           0           0
      0.000000  0.000000 15.276374            0           0           0
     13.003927 10.351815 18.458427            0           0           0
      9.752467  0.000043 18.661041            0           0           0
      9.751278 10.351969 22.012970            0           0           0
     13.003978 11.830378 21.636579            0           0           0
      9.752985  1.478797  8.774384            0           0           0
      0.000000  2.957595  8.774384            0           0           0
      0.000000  1.478797 12.025379            0           0           0
      9.752985  2.957595 12.025379            0           0           0
      9.752985  1.478797 15.276374            0           0           0
      0.000000  2.957595 15.276374            0           0           0
      0.000056  1.478563 18.458427            0           0           0
      9.753257  2.957173 18.659598            0           0           0
      9.751031  1.478619 22.013106            0           0           0
     13.003668  2.956621 21.636327            0           0           0
      9.752985  4.436392  8.774384            0           0           0
      0.000000  5.915189  8.774384            0           0           0
      0.000000  4.436392 12.025379            0           0           0
      9.752985  5.915189 12.025379            0           0           0
      9.752985  4.436392 15.276374            0           0           0
      0.000000  5.915189 15.276374            0           0           0
      0.000015  4.436196 18.457926            0           0           0
      9.753583  5.915152 18.659323            0           0           0
      9.753786  4.435324 22.007860            0           0           0
      0.000009  5.915189 21.635788            0           0           0
      3.250995  7.393986  8.774384            0           0           0
      6.501990  8.872784  8.774384            0           0           0
      6.501990  7.393986 12.025379            0           0           0
      3.250995  8.872784 12.025379            0           0           0
      3.250995  7.393986 15.276374            0           0           0
      6.501990  8.872784 15.276374            0           0           0
      6.501977  7.390299 18.467206            0           0           0
      3.250724  8.873204 18.659606            0           0           0
      3.250216  7.395048 22.007884            0           0           0
      6.502079  8.872483 21.632370            0           0           0
      3.250995 10.351581  8.774384            0           0           0
      6.501990  0.000000  8.774384            0           0           0
      6.501990 10.351581 12.025379            0           0           0
      3.250995  0.000000 12.025379            0           0           0
      3.250995 10.351581 15.276374            0           0           0
[...]
      6.501990  5.915189 13.299764            0           0           0
      4.525379  4.436392 12.025379            0           0           0
      8.478601  4.436392 12.025379            0           0           0
      3.250995  5.915189 14.001990            0           0           0
      3.250995  5.915189 16.550759            0           0           0
      7.776374  4.436392 15.276374            0           0           0
      5.227606  4.436392 15.276374            0           0           0
      6.501990  5.915189 17.277374            0           0           0
      6.501986  5.915188 19.841355            0           0           0
      4.553079  4.436372 18.552833            0           0           0
      8.450910  4.436453 18.552681            0           0           0
      3.244381  5.915460 20.519044            0           0           0
      3.261883  5.914636 23.091984            0           0           0
      7.728117  4.429673 21.945834            0           0           0
      5.274926  4.429151 21.942731            0           0           0

 Finite differences POTIM=   1.0000000000000000E-002