 vasp.6.3.0 20Jan22 (build Mar 11 2022 13:48:16) complex

 executed on             LinuxIFC date 2024.01.23  01:36:20

 INCAR:
   SYSTEM = TiO2
   ISMEAR = 0
   SIGMA = 0.05
   EDIFF = 1E-5
   ALGO = ALL
   ISTART = 0
   IBRION = -1
   NSW = 0
   ISYM = 0
   ISIF = 2
   EDIFFG = -0.01
   DIPOL = 0.5 0.5 0.5
   IDIPOL = 3
   LDIPOL = .TRUE.
   GGA = PE
   IVDW = 21
   LDAU = .TRUE.
   LDAUTYPE = 2
   LDAUL = -1 -1 2 -1
   LDAUU = 0.0 0.0 4.2 0.0
   LDAUPRINT = 1
   LMAXMIX = 4
   ENCUT = 600
   PREC = Accurate
   LASPH = .TRUE.
   LREAL = .FALSE.
   ISPIN = 1
   NELM = 200
   NELMIN = 8
   NCORE = 2
   KPAR = 1
   LWAVE = .FALSE.
   LCHARG = .FALSE.

 POTCAR:    PAW_PBE C 08Apr2002
 POTCAR:    PAW_PBE O 08Apr2002
 POTCAR:    PAW_PBE Ti_pv 07Sep2000
 POTCAR:    PAW_PBE O 08Apr2002
|           W    W    AA    RRRRR   N    N  II  N    N   GGGG   !!!           |
|           W    W   A  A   R    R  NN   N  II  NN   N  G    G  !!!           |
|           W    W  A    A  R    R  N N  N  II  N N  N  G       !!!           |
|           W WW W  AAAAAA  RRRRR   N  N N  II  N  N N  G  GGG   !            |
|           WW  WW  A    A  R   R   N   NN  II  N   NN  G    G                |
|           W    W  A    A  R    R  N    N  II  N    N   GGGG   !!!           |
|     For optimal performance we recommend to set                             |
|       NCORE = 2 up to number-of-cores-per-socket                            |
|     This setting can greatly improve the performance of VASP for DFT.       |
|     The default, NCORE=1 might be grossly inefficient on modern             |
|     multi-core architectures or massively parallel machines. Do your        |
|     Unfortunately you need to use the default for GW and RPA                |
|     calculations (for HF NCORE is supported but not extensively tested      |
|     yet).                                                                   |

   TITEL  = PAW_PBE C 08Apr2002
   POMASS =   12.011; ZVAL   =    4.000    mass and valenz
   ENMAX  =  400.000; ENMIN  =  300.000 eV

[...]

   TITEL  = PAW_PBE Ti_pv 07Sep2000
   POMASS =   47.880; ZVAL   =   10.000    mass and valenz
   ENMAX  =  222.335; ENMIN  =  166.751 eV

   TITEL  = PAW_PBE O 08Apr2002
   POMASS =   16.000; ZVAL   =    6.000    mass and valenz
   ENMAX  =  400.000; ENMIN  =  300.000 eV

  PAW_PBE C 08Apr2002                   :
  PAW_PBE O 08Apr2002                   :
  PAW_PBE Ti_pv 07Sep2000               :
  PAW_PBE O 08Apr2002                   :

 POSCAR:  C  O Ti  O
  positions in direct lattice
 exchange correlation table for  LEXCH =        8
   RHO(1)=    0.500       N(1)  =     2000
   RHO(2)=  100.500       N(2)  =     4000

 ion  position               nearest neighbor table
   1  0.427  0.500  0.824-   2 1.17   3 1.19
   2  0.370  0.500  0.853-   1 1.17
   3  0.488  0.500  0.796-   1 1.19
   4  0.750  0.625  0.285-  85 1.98 145 1.98 144 1.98  84 1.98  87 2.02 166 2.02  14 3.00  34 3.00

   5  0.000  0.750  0.285-  86 1.98  87 1.98 106 1.98 107 1.98  88 2.02  35 3.00  15 3.00
   6  0.000  0.625  0.393-  88 1.98 148 1.98  89 1.98 149 1.98  90 2.02  91 2.02  16 3.00  36 3.00

[...]

  83  0.499  0.500  0.711- 237 1.86 183 1.97 243 1.97 242 1.98 182 1.98  53 3.00  73 3.00
  84  0.750  0.750  0.243-   4 1.98  14 1.98
  85  0.750  0.750  0.327-   4 1.98  14 1.98   7 2.02
  86  0.098  0.625  0.285-   5 1.98  35 1.98  44 2.02
  87  0.902  0.625  0.285-   5 1.98  35 1.98   4 2.02
  88  0.000  0.750  0.351-   6 1.98  16 1.98   5 2.02
  89  0.000  0.750  0.434-   6 1.98  16 1.98   9 2.02
  90  0.848  0.625  0.393-   7 1.98  37 1.98   6 2.02
  91  0.152  0.625  0.393-  47 1.98  77 1.98   6 2.02
  92  0.750  0.750  0.458-   8 1.98  18 1.98   7 2.02
  93  0.750  0.750  0.542-   8 1.98  18 1.98  11 2.17
  94  0.098  0.625  0.500-   9 1.98  39 1.98  48 2.02
  95  0.902  0.625  0.500-   9 1.98  39 1.98   8 2.02
  96  0.000  0.750  0.566-  10 1.92  20 1.92   9 2.05
  97  0.000  0.750  0.651-  13 1.83  10 2.05  20 2.05
  98  0.849  0.625  0.608-  11 1.93  41 1.93  10 2.12
  99  0.150  0.625  0.608-  10 1.87  51 2.07  81 2.07
 100  0.750  0.750  0.673-  11 1.88  22 2.13  12 2.13
 101  0.749  0.750  0.757-  12 1.85  22 1.85
 102  0.093  0.625  0.721-  43 1.98  13 1.98  52 2.06
 103  0.906  0.625  0.721-  43 1.97  13 1.97  12 2.08
 104  0.750  0.000  0.243-  14 1.98  24 1.98
 105  0.750  0.000  0.327-  14 1.98  24 1.98  17 2.02
 106  0.098  0.875  0.285-   5 1.98  15 1.98  54 2.02
 107  0.902  0.875  0.285-   5 1.98  15 1.98  14 2.02
 108  0.000  0.000  0.351-  16 1.98  26 1.98  15 2.02
 109  0.000  0.000  0.434-  16 1.98  26 1.98  19 2.02
 110  0.848  0.875  0.393-   7 1.98  17 1.98  16 2.02
 111  0.152  0.875  0.393-  47 1.98  57 1.98  16 2.02
 112  0.750  0.000  0.458-  18 1.98  28 1.98  17 2.02
 113  0.750  0.000  0.542-  18 1.98  28 1.98  21 2.17
 114  0.098  0.875  0.500-   9 1.98  19 1.98  58 2.02
 115  0.902  0.875  0.500-   9 1.98  19 1.98  18 2.02
 116  0.000  0.000  0.566-  30 1.92  20 1.92  19 2.05
 117  0.000  1.000  0.651-  23 1.83  20 2.05  30 2.05
 118  0.849  0.875  0.608-  11 1.93  21 1.93  20 2.13
 119  0.150  0.875  0.608-  20 1.87  51 2.07  61 2.07
 120  0.750  0.000  0.673-  21 1.88  32 2.13  22 2.13
 121  0.750  0.000  0.758-  32 1.85  22 1.85
 122  0.093  0.875  0.721-  13 1.97  23 1.97  62 2.07
 123  0.906  0.875  0.721-  13 1.97  23 1.97  22 2.08
 124  0.750  0.250  0.243-  24 1.98  34 1.98
 125  0.750  0.250  0.327-  24 1.98  34 1.98  27 2.02
 126  0.098  0.125  0.285-  15 1.98  25 1.98  64 2.02
 127  0.902  0.125  0.285-  15 1.98  25 1.98  24 2.02
 128  0.000  0.250  0.351-  26 1.98  36 1.98  25 2.02
 129  0.000  0.250  0.434-  26 1.98  36 1.98  29 2.02
 130  0.848  0.125  0.393-  17 1.98  27 1.98  26 2.02
 131  0.152  0.125  0.393-  57 1.98  67 1.98  26 2.02
 132  0.750  0.250  0.458-  28 1.98  38 1.98  27 2.02
 133  0.750  0.250  0.542-  28 1.98  38 1.98  31 2.17
 134  0.098  0.125  0.500-  19 1.98  29 1.98  68 2.02
 135  0.902  0.125  0.500-  19 1.98  29 1.98  28 2.02
 136  0.000  0.250  0.566-  40 1.92  30 1.92  29 2.05
 137  0.000  0.250  0.651-  33 1.83  40 2.05  30 2.05
 138  0.849  0.125  0.608-  31 1.93  21 1.93  30 2.13
 139  0.150  0.125  0.608-  30 1.87  71 2.07  61 2.07
 140  0.750  0.250  0.673-  31 1.88  32 2.13  42 2.13
 141  0.749  0.250  0.757-  42 1.85  32 1.85
 142  0.093  0.125  0.721-  33 1.97  23 1.97  72 2.07
[...]
 229  0.500  0.500  0.434-  46 1.98  76 1.98  79 2.02
 230  0.348  0.375  0.393-  67 1.98  77 1.98  76 2.02
 231  0.652  0.375  0.393-  27 1.98  37 1.98  76 2.02
 232  0.250  0.500  0.458-  48 1.98  78 1.98  77 2.02
 233  0.250  0.500  0.542-  48 1.98  78 1.98  81 2.16
 234  0.598  0.375  0.500-  69 1.98  79 1.98  38 2.02
 235  0.402  0.375  0.500-  69 1.98  79 1.98  78 2.02
 236  0.500  0.500  0.567-  80 1.92  50 1.92  79 2.05
 237  0.500  0.500  0.651-  83 1.86  50 2.05  80 2.05
 238  0.349  0.375  0.609-  71 1.93  81 1.93  80 2.13
 239  0.650  0.375  0.608-  80 1.87  41 2.06  31 2.07
 240  0.249  0.500  0.673-  81 1.89  82 2.13  52 2.13
 241  0.252  0.500  0.757-  82 1.86  52 1.86
 242  0.594  0.374  0.720-  73 1.97  83 1.98  42 2.06
 243  0.405  0.374  0.719-  73 1.96  83 1.97  82 2.08

IMPORTANT INFORMATION: All symmetrisations will be switched off!
NOSYMM: (Re-)initialisation of all symmetry stuff for point group C_1.

                                     Primitive cell

  volume of cell :    4895.9617

  direct lattice vectors                    reciprocal lattice vectors
    13.251680751  0.000000000  0.000000000     0.075462126  0.000000000  0.000000000
     0.000000000 11.981436613  0.000000000     0.000000000  0.083462445  0.000000000
     0.000000000  0.000000000 30.836008487     0.000000000  0.000000000  0.032429619

  length of vectors
    13.251680751 11.981436613 30.836008487     0.075462126  0.083462445  0.032429619

  position of ions in fractional coordinates (direct lattice)
     0.427483472  0.499999909  0.824362858
     0.369573468  0.499999693  0.853061714
     0.488301939  0.500000065  0.796178279
     0.750000000  0.625000000  0.285126523
     0.000000000  0.750000000  0.285126523
     0.000000000  0.625000000  0.392563261
     0.750000000  0.750000000  0.392563261
     0.750000000  0.625000000  0.500000000
     0.000000000  0.750000000  0.500000000
     0.009075638  0.625052193  0.605160000
     0.757185322  0.750084926  0.612090071
     0.749042545  0.625072216  0.722276537
     0.999301496  0.750227145  0.709981919
     0.750000000  0.875000000  0.285126523
     0.000000000  0.000000000  0.285126523
     0.000000000  0.875000000  0.392563261
     0.750000000  0.000000000  0.392563261
     0.750000000  0.875000000  0.500000000
     0.000000000  0.000000000  0.500000000
     0.009354858  0.875050438  0.605224046
     0.757165481  0.000000661  0.612103838
     0.749033861  0.875058827  0.722324437
     0.999711295  0.999999888  0.710013828
     0.750000000  0.125000000  0.285126523
     0.000000000  0.250000000  0.285126523
     0.000000000  0.125000000  0.392563261
     0.750000000  0.250000000  0.392563261
     0.750000000  0.125000000  0.500000000
     0.000000000  0.250000000  0.500000000
     0.009352100  0.124949501  0.605223013
     0.757185064  0.249917414  0.612090093
     0.749033740  0.124941346  0.722324392
     0.999300824  0.249774189  0.709982136
     0.750000000  0.375000000  0.285126523
     0.000000000  0.500000000  0.285126523
     0.000000000  0.375000000  0.392563261
     0.750000000  0.500000000  0.392563261
     0.750000000  0.375000000  0.500000000
     0.000000000  0.500000000  0.500000000
     0.009086671  0.374947591  0.605162148
     0.757180197  0.499996325  0.612105642
     0.749038646  0.374928270  0.722277662
     0.998906507  0.499999583  0.709948796
     0.250000000  0.625000000  0.285126523
     0.500000000  0.750000000  0.285126523
     0.500000000  0.625000000  0.392563261
     0.250000000  0.750000000  0.392563261
     0.250000000  0.625000000  0.500000000
     0.500000000  0.750000000  0.500000000
     0.509390696  0.624426701  0.605612781
     0.257065487  0.749990359  0.611950487
     0.248476367  0.625231643  0.721857747
     0.499432608  0.749940199  0.709571712
     0.250000000  0.875000000  0.285126523
     0.500000000  0.000000000  0.285126523
     0.500000000  0.875000000  0.392563261
     0.250000000  0.000000000  0.392563261
     0.250000000  0.875000000  0.500000000
     0.500000000  0.000000000  0.500000000
     0.509430517  0.874748797  0.604886106
[...]
     0.500000000  0.500000000  0.434467643
     0.347509432  0.375000000  0.392563261
     0.652490568  0.375000000  0.392563261
     0.250000000  0.500000000  0.458095618
     0.250000000  0.500000000  0.541904382
     0.597509432  0.375000000  0.500000000
     0.402490568  0.375000000  0.500000000
     0.500058984  0.500000793  0.566525061
     0.500343369  0.500003419  0.651088706
     0.348767189  0.375042218  0.608557285
     0.650254512  0.375084285  0.608151827
     0.248669331  0.499998475  0.672958522
     0.251941738  0.499999701  0.757254458
     0.593522209  0.374084589  0.720084803
     0.405275735  0.373728868  0.719493197

  ion indices of the primitive-cell ions
[...]
   O          58.349          3.979         10.443          1.93397977
   O          57.883          3.974         10.402          1.92624067
   O          57.913          3.974         10.404          1.92675005
   O          58.557          3.981         10.462          1.93743156
   O          56.923          3.963         10.315          1.91020029
   O          57.489          3.969         10.366          1.91968651
   O          58.769          3.984         10.481          1.94093668
   O          41.702          3.762          8.829          1.63498880
   O          57.181          3.966         10.338          1.91452598
   O          58.448          3.980         10.452          1.93562503

  vdW correction parametrized for the method pbe

  IVDW =  21
  VDW_RADIUS =    50.000 A
  VDW_IDAMPF =  0
  VDW_S6 =     1.000
  VDW_SR =     0.950
  VDW_D =    20.000
  LVDW_ONECELL = F F F
  LVDW_SAMETYPE T T T T
  LVDW_EWALD = F

  Number of pair interactions contributing to vdW energy: 3210438
  Edisp (eV):  -32.92294

  FORCE on cell =-STRESS in cart. coord.  units (eV):
  Direction    XX          YY          ZZ          XY          YZ          ZX
  Alpha Z  4533.07076  4533.07076  4533.07076
  Ewald  925574.27746943253.42744************    -0.00593    -0.00460  -311.47644
  Hartree966651.70774976259.71603************    -0.00351    -0.00270  -110.18528
  E(xc)   -8631.19921 -8614.96343 -8639.73464    -0.00001    -0.00001    -1.03985
  Local  ************************************     0.00947     0.00717   385.71211
  n-local -5277.82763 -5146.75807 -5313.52773    -0.00010    -0.00007     2.62312
  augment  5277.86457  5272.76891  5279.45432    -0.00001    -0.00000     1.32147
  Kinetic 28765.04115 28295.03897 28799.79807     0.00001     0.00029    33.87119
  Fock        0.00000     0.00000     0.00000     0.00000     0.00000     0.00000
  vdW       -48.34876   -34.41930   -41.21277     0.00000     0.00000    -0.02699
  Total     -16.03369    16.99977   -46.55050    -0.00007     0.00008     0.79932
  in kB      -5.24694     5.56308   -15.23340    -0.00002     0.00003     0.26157

 VOLUME and BASIS-vectors are now :
  energy-cutoff  :      600.00
  volume of cell :     4895.96
      direct lattice vectors                 reciprocal lattice vectors
    13.251680751  0.000000000  0.000000000     0.075462126  0.000000000  0.000000000
     0.000000000 11.981436613  0.000000000     0.000000000  0.083462445  0.000000000
     0.000000000  0.000000000 30.836008487     0.000000000  0.000000000  0.032429619

  length of vectors
    13.251680751 11.981436613 30.836008487     0.075462126  0.083462445  0.032429619

 FORCES acting on ions:
    Electron-Ion                     Ewald-Force                    Non-Local-Force
   -.176E+02 -.592E-03 -.139E+04   0.169E+02 0.593E-03 0.139E+04   0.693E+00 -.452E-05 0.206E-01
   0.163E+03 0.554E-04 -.199E+04   -.206E+03 -.203E-03 0.204E+04   0.432E+02 0.151E-03 -.489E+02
   -.191E+03 -.134E-02 -.218E+04   0.234E+03 0.147E-02 0.214E+04   -.426E+02 -.136E-03 0.412E+02
   -.251E+00 -.889E-01 0.363E+04   0.250E+00 0.890E-01 -.364E+04   0.213E-03 -.118E-04 0.766E+00
   0.149E+00 -.127E+00 0.381E+04   -.149E+00 0.127E+00 -.380E+04   0.137E-03 -.153E-04 -.466E+01
   0.263E+00 -.115E+00 0.186E+04   -.267E+00 0.115E+00 -.186E+04   0.900E-03 -.176E-04 -.116E+00
   -.406E+00 -.122E+00 0.185E+04   0.405E+00 0.123E+00 -.185E+04   0.825E-03 -.111E-03 0.275E+00
   -.272E+01 -.454E+00 0.121E+02   0.273E+01 0.452E+00 -.113E+02   -.198E-02 0.250E-03 -.192E+00
   0.347E+01 -.849E+00 0.213E+02   -.352E+01 0.855E+00 -.224E+02   0.150E-01 -.257E-02 0.468E+00
   0.349E+02 -.227E+01 -.177E+04   -.349E+02 0.227E+01 0.177E+04   -.749E+00 -.509E-02 0.622E+00
   0.336E+01 -.479E+01 -.183E+04   -.337E+01 0.479E+01 0.183E+04   -.593E+00 -.527E-02 -.914E+00
   -.476E+02 -.188E+02 -.357E+04   0.476E+02 0.188E+02 0.357E+04   0.723E-01 -.861E-02 -.123E+01
   0.912E+01 -.929E+01 -.361E+04   -.912E+01 0.929E+01 0.361E+04   0.271E-01 -.264E-01 0.199E+01
   -.242E+00 -.888E-01 0.363E+04   0.241E+00 0.889E-01 -.364E+04   0.269E-03 -.149E-04 0.766E+00
   0.141E+00 -.579E-04 0.381E+04   -.141E+00 0.553E-04 -.380E+04   0.128E-03 0.389E-06 -.466E+01
   0.247E+00 -.117E+00 0.186E+04   -.250E+00 0.117E+00 -.186E+04   0.751E-03 0.110E-04 -.116E+00
   -.439E+00 -.304E-03 0.185E+04   0.437E+00 0.303E-03 -.185E+04   0.944E-03 -.796E-07 0.275E+00
   -.315E+01 -.459E+00 0.112E+02   0.316E+01 0.461E+00 -.104E+02   -.334E-02 -.183E-03 -.192E+00
   0.346E+01 -.149E-02 0.204E+02   -.350E+01 0.146E-02 -.214E+02   0.132E-01 0.936E-05 0.469E+00
   0.343E+02 -.232E+01 -.177E+04   -.343E+02 0.232E+01 0.177E+04   -.759E+00 -.484E-02 0.620E+00
   0.465E+01 0.174E-02 -.184E+04   -.468E+01 -.180E-02 0.184E+04   -.579E+00 -.669E-04 -.908E+00
   -.199E+02 -.136E+02 -.360E+04   0.199E+02 0.136E+02 0.360E+04   0.726E-01 -.577E-03 -.123E+01
   0.644E+01 -.853E-02 -.362E+04   -.645E+01 0.853E-02 0.361E+04   0.116E-01 0.717E-04 0.201E+01
   -.242E+00 0.887E-01 0.363E+04   0.241E+00 -.888E-01 -.364E+04   0.273E-03 0.143E-04 0.766E+00
   0.149E+00 0.127E+00 0.381E+04   -.149E+00 -.127E+00 -.380E+04   0.138E-03 0.167E-04 -.466E+01
   0.247E+00 0.116E+00 0.186E+04   -.250E+00 -.116E+00 -.186E+04   0.750E-03 -.945E-05 -.116E+00
   -.407E+00 0.122E+00 0.185E+04   0.405E+00 -.123E+00 -.185E+04   0.824E-03 0.111E-03 0.275E+00
   -.315E+01 0.457E+00 0.112E+02   0.316E+01 -.458E+00 -.104E+02   -.333E-02 0.185E-03 -.192E+00
   0.347E+01 0.847E+00 0.213E+02   -.353E+01 -.854E+00 -.224E+02   0.149E-01 0.255E-02 0.468E+00
   0.343E+02 0.232E+01 -.177E+04   -.343E+02 -.232E+01 0.177E+04   -.759E+00 0.474E-02 0.621E+00
   0.335E+01 0.480E+01 -.183E+04   -.337E+01 -.480E+01 0.183E+04   -.593E+00 0.516E-02 -.914E+00
   -.199E+02 0.136E+02 -.360E+04   0.199E+02 -.136E+02 0.360E+04   0.726E-01 0.619E-03 -.123E+01
   0.912E+01 0.930E+01 -.361E+04   -.912E+01 -.930E+01 0.361E+04   0.273E-01 0.264E-01 0.199E+01
   -.251E+00 0.889E-01 0.363E+04   0.250E+00 -.890E-01 -.364E+04   0.212E-03 0.118E-04 0.766E+00
   0.157E+00 0.585E-04 0.381E+04   -.157E+00 -.558E-04 -.380E+04   0.141E-03 -.588E-06 -.466E+01
   0.263E+00 0.116E+00 0.186E+04   -.267E+00 -.116E+00 -.186E+04   0.899E-03 0.157E-04 -.116E+00
   -.374E+00 0.341E-03 0.185E+04   0.373E+00 -.335E-03 -.185E+04   0.676E-03 -.316E-05 0.275E+00
   -.272E+01 0.456E+00 0.121E+02   0.273E+01 -.455E+00 -.113E+02   -.200E-02 -.252E-03 -.192E+00
   0.346E+01 0.279E-02 0.222E+02   -.352E+01 -.285E-02 -.233E+02   0.167E-01 0.199E-04 0.467E+00
   0.349E+02 0.228E+01 -.177E+04   -.349E+02 -.228E+01 0.177E+04   -.749E+00 0.521E-02 0.622E+00
   0.884E+00 -.120E-01 -.182E+04   -.916E+00 0.122E-01 0.182E+04   -.572E+00 0.200E-03 -.921E+00
   -.476E+02 0.188E+02 -.357E+04   0.476E+02 -.188E+02 0.357E+04   0.727E-01 0.863E-02 -.123E+01
   0.126E+02 -.723E-03 -.360E+04   -.126E+02 0.804E-03 0.360E+04   0.241E-01 -.385E-04 0.197E+01
   0.243E+00 -.101E+00 0.363E+04   -.243E+00 0.101E+00 -.364E+04   -.184E-03 -.587E-04 0.767E+00
   -.141E+00 -.141E+00 0.381E+04   0.141E+00 0.142E+00 -.380E+04   -.133E-03 -.747E-04 -.466E+01
   -.661E-01 -.610E-01 0.186E+04   0.686E-01 0.665E-01 -.186E+04   -.680E-03 -.142E-02 -.117E+00
   0.212E+00 -.152E+00 0.185E+04   -.210E+00 0.153E+00 -.185E+04   -.278E-03 -.116E-03 0.278E+00
   -.507E+00 -.635E+00 0.138E+02   0.541E+00 0.642E+00 -.130E+02   -.810E-02 -.124E-02 -.184E+00
   0.232E+01 -.383E+00 0.240E+02   -.235E+01 0.358E+00 -.250E+02   0.925E-02 0.125E-01 0.443E+00
   0.288E+02 -.543E+01 -.176E+04   -.289E+02 0.547E+01 0.176E+04   -.775E+00 -.136E-02 0.586E+00
   0.174E+02 -.732E+01 -.182E+04   -.174E+02 0.733E+01 0.182E+04   -.579E+00 -.340E-02 -.905E+00
   0.627E+02 -.320E+02 -.353E+04   -.626E+02 0.320E+02 0.353E+04   0.177E-01 -.863E-02 -.117E+01
   -.127E+02 -.583E+02 -.356E+04   0.127E+02 0.583E+02 0.356E+04   0.329E-01 0.487E-01 0.205E+01
   0.234E+00 -.101E+00 0.363E+04   -.233E+00 0.101E+00 -.364E+04   -.239E-03 -.614E-04 0.767E+00
   -.133E+00 -.551E-04 0.381E+04   0.133E+00 0.491E-04 -.380E+04   -.128E-03 0.236E-06 -.466E+01
   -.461E-01 -.644E-01 0.186E+04   0.480E-01 0.669E-01 -.186E+04   -.509E-03 -.745E-03 -.117E+00
   0.242E+00 -.266E-03 0.185E+04   -.239E+00 0.267E-03 -.185E+04   -.373E-03 0.127E-05 0.277E+00
   -.183E+00 -.690E+00 0.122E+02   0.215E+00 0.711E+00 -.114E+02   -.790E-02 -.329E-02 -.189E+00
   0.240E+01 -.253E-02 0.247E+02   -.245E+01 0.251E-02 -.257E+02   0.127E-01 0.623E-05 0.432E+00
   0.296E+02 -.734E+01 -.176E+04   -.296E+02 0.732E+01 0.176E+04   -.774E+00 0.385E-01 0.565E+00
[...]
   -.557E+02 0.534E-01 0.111E+04   0.602E+02 -.543E-01 -.111E+04   -.402E+01 0.143E-02 0.180E+00
   0.555E+02 0.430E-01 0.111E+04   -.600E+02 -.436E-01 -.111E+04   0.402E+01 0.848E-03 0.177E+00
   0.145E-01 0.311E-03 0.494E+03   0.773E-03 -.302E-03 -.499E+03   -.217E-01 -.202E-04 0.467E+01
   0.175E+01 0.841E-03 -.492E+03   -.211E+01 -.975E-03 0.500E+03   0.388E+00 0.150E-03 -.772E+01
   -.578E+02 0.565E-01 0.155E+02   0.631E+02 -.615E-01 -.158E+02   -.573E+01 0.162E-01 0.413E+00
   0.574E+02 0.150E+00 0.128E+02   -.627E+02 -.155E+00 -.130E+02   0.568E+01 0.154E-01 0.310E+00
   0.179E+02 -.552E-02 -.582E+03   -.200E+02 0.649E-02 0.575E+03   0.209E+01 -.974E-03 0.692E+01
   0.593E+01 0.824E-02 -.150E+04   -.714E+01 -.858E-02 0.150E+04   0.124E+01 0.790E-04 0.152E+01
   -.665E+02 0.301E+01 -.106E+04   0.747E+02 -.299E+01 0.106E+04   -.767E+01 -.901E-02 0.132E+01
   -.135E+02 0.323E+01 -.107E+04   0.154E+02 -.331E+01 0.107E+04   -.127E+01 0.715E-01 0.827E+00
   0.258E+02 0.961E-03 -.170E+04   -.266E+02 -.105E-02 0.171E+04   0.855E+00 0.190E-03 -.213E+01
   0.766E+02 -.360E-02 -.254E+04   -.763E+02 0.400E-02 0.256E+04   -.279E+00 -.310E-03 -.207E+02
   -.624E+02 0.321E+02 -.219E+04   0.685E+02 -.319E+02 0.219E+04   -.616E+01 -.152E+00 -.398E+01
   0.458E+02 0.426E+02 -.216E+04   -.525E+02 -.426E+02 0.216E+04   0.668E+01 -.212E-01 -.355E+01
   0.412E+02 0.568E-03 0.110E+03   0.654E-12 -.194E-11 -.177E-10   -.412E+02 -.640E-03 -.110E+03

 POSITION                                       TOTAL-FORCE (eV/Angst)
      5.66487      5.99072     25.42006        -0.034528     -0.000004     -0.024103
      4.89747      5.99071     26.30502         0.217539      0.000004     -0.220878
      6.47082      5.99072     24.55096        -0.188076     -0.000006      0.130796
      9.93876      7.48840      8.79216        -0.000363      0.000055     -3.181681
      0.00000      8.98608      8.79216        -0.000380      0.000087      2.735391
      0.00000      7.48840     12.10508        -0.003153      0.000236      0.450808
      9.93876      8.98608     12.10508        -0.001151      0.000427     -0.664791
      9.93876      7.48840     15.41800         0.009597     -0.001100      0.638759
      0.00000      8.98608     15.41800        -0.035697      0.004183     -0.606104
      0.12027      7.48902     18.66072        -0.657405     -0.005015      0.493300
     10.03398      8.98709     18.87441        -0.550602     -0.009119     -0.586699
      9.92607      7.48926     22.27213         0.037579     -0.003539     -0.825650
     13.24242      8.98880     21.89301         0.024009     -0.027685      0.571260
      9.93876     10.48376      8.79216        -0.000463      0.000100     -3.181665
      0.00000      0.00000      8.79216        -0.000351     -0.000002      2.735394
      0.00000     10.48376     12.10508        -0.002796      0.000102      0.451142
      9.93876      0.00000     12.10508        -0.001408     -0.000001     -0.664861
      9.93876     10.48376     15.41800         0.013788      0.001092      0.637917
      0.00000      0.00000     15.41800        -0.033725     -0.000027     -0.603436
      0.12397     10.48436     18.66269        -0.672202     -0.005171      0.484155
     10.03372      0.00001     18.87484        -0.545854     -0.000111     -0.587125
      9.92596     10.48446     22.27360         0.048061     -0.004517     -0.821102
     13.24785     11.98144     21.89399         0.005169      0.000075      0.563906
      9.93876      1.49768      8.79216        -0.000448     -0.000095     -3.181692
      0.00000      2.99536      8.79216        -0.000378     -0.000085      2.735396
      0.00000      1.49768     12.10508        -0.002798     -0.000116      0.451132
      9.93876      2.99536     12.10508        -0.001149     -0.000433     -0.664801
      9.93876      1.49768     15.41800         0.013792     -0.001094      0.637918
      0.00000      2.99536     15.41800        -0.035674     -0.004119     -0.606004
      0.12393      1.49707     18.66266        -0.671409      0.005184      0.484489
     10.03397      2.99437     18.87442        -0.550297      0.008878     -0.586677
      9.92596      1.49698     22.27360         0.048143      0.004576     -0.821085
     13.24242      2.99265     21.89302         0.024180      0.027533      0.571346
      9.93876      4.49304      8.79216        -0.000355     -0.000068     -3.181693
      0.00000      5.99072      8.79216        -0.000389      0.000002      2.735367
      0.00000      4.49304     12.10508        -0.003158     -0.000218      0.450807
      9.93876      5.99072     12.10508        -0.000859      0.000003     -0.664505
      9.93876      4.49304     15.41800         0.009614      0.001102      0.638747
      0.00000      5.99072     15.41800        -0.037488     -0.000041     -0.608100
      0.12041      4.49241     18.66079        -0.658202      0.005026      0.492692
     10.03391      5.99067     18.87489        -0.548796      0.000436     -0.580486
      9.92602      4.49218     22.27216         0.037999      0.003520     -0.825876
     13.23719      5.99071     21.89199         0.037353      0.000054      0.574794
      3.31292      7.48840      8.79216         0.000391      0.000239     -3.183129
      6.62584      8.98608      8.79216         0.000429      0.000225      2.736876
      6.62584      7.48840     12.10508         0.001856      0.004154      0.454285
      3.31292      8.98608     12.10508         0.001939      0.000945     -0.672169
      3.31292      7.48840     15.41800         0.026865      0.005937      0.610418
      6.62584      8.98608     15.41800        -0.022851     -0.012458     -0.573976
      6.75028      7.48153     18.67468        -0.674431      0.041671      0.467945
      3.40655      8.98596     18.87011        -0.548953      0.000672     -0.569066
      3.29273      7.49117     22.25921         0.071383     -0.009998     -0.812982
      6.61832      8.98536     21.88036         0.021845      0.036496      0.568999
      3.31292     10.48376      8.79216         0.000490      0.000293     -3.182809
      6.62584      0.00000      8.79216         0.000417     -0.000005      2.737188
      6.62584     10.48376     12.10508         0.001431      0.001794      0.456818
      3.31292      0.00000     12.10508         0.002216      0.000003     -0.670459
      3.31292     10.48376     15.41800         0.025043      0.018079      0.626105
      6.62584      0.00000     15.41800        -0.027126     -0.000014     -0.628720
      6.75081     10.48075     18.65227        -0.666012      0.020512      0.497549
[...]
      6.62584      5.99072     13.39725         0.000560     -0.000009     -0.035691
      4.60508      4.49304     12.10508         0.453557      0.000581      0.059438
      8.64660      4.49304     12.10508        -0.456506      0.000261      0.058486
      3.31292      5.99072     14.12584        -0.006514     -0.000012     -0.142284
      3.31292      5.99072     16.71017         0.021501      0.000015      0.207574
      7.91800      4.49304     15.41800        -0.395524      0.011106      0.093423
      5.33368      4.49304     15.41800         0.390439      0.010128      0.096430
      6.62662      5.99073     17.46937         0.014711      0.000003     -0.367872
      6.63039      5.99076     20.07698         0.043293     -0.000266     -0.674820
      4.62175      4.49354     18.76548         0.515438      0.004638     -0.010177
      8.61697      4.49405     18.75297         0.613513     -0.006653      0.047670
      3.29529      5.99070     20.75135        -0.006498      0.000099      0.544859
      3.33865      5.99071     23.35070        -0.000570      0.000089      0.443601
      7.86517      4.48207     22.20454        -0.007266      0.012703     -0.043327
      5.37058      4.47781     22.18630        -0.051720      0.007356     -0.045067
    total drift:                               -0.001055     -0.000072     -0.061634

  FREE ENERGIE OF THE ION-ELECTRON SYSTEM (eV)
  free  energy   TOTEN  =     -1935.47199557 eV

  energy  without entropy=    -1935.47199557  energy(sigma->0) =    -1935.47199557