 vasp.6.3.0 20Jan22 (build Apr  1 2022 16:44:48) complex
 executed on        HPECrayEX_GCC date 2022.10.10  23:30:29

 INCAR:
   SYSTEM = MgO-rocksalt
   ISMEAR = 0
   SIGMA = 0.05
   EDIFF = 1E-6
   ALGO = ALL
   ISTART = 0
   IBRION = -1
   NSW = 0
   ISYM = 0
   DIPOL = 0.5 0.5 0.5
   IDIPOL = 3
   LDIPOL = .TRUE.
   LHFCALC = .TRUE.
   GGA = B5
   AEXX = 0.2
   AGGAX = 0.72
   AGGAC = 0.81
   ALDAC = 0.19
   IVDW = 1
   VDW_S6 = 1.05
   VDW_C6 = 0.63 0.70
   VDW_R0 = 1.243 1.342
   ENCUT = 600
   PREC = Accurate
   LASPH = .TRUE.
   LREAL = .FALSE.
   ISPIN = 1
   NELM = 200
   NELMIN = 8
   NCORE = 8
   KPAR = 1
   LWAVE = .FALSE.
   LCHARG = .FALSE.

 POTCAR:    PAW_PBE Mg_pv 13Apr2007
 POTCAR:    PAW_PBE O 08Apr2002
 POTCAR:    PAW_PBE Mg_pv 13Apr2007
   VRHFIN =Mg: p6s2

   TITEL  = PAW_PBE Mg_pv 13Apr2007
   POMASS =   24.305; ZVAL   =    8.000    mass and valenz
   ENMAX  =  403.929; ENMIN  =  302.947 eV

   TITEL  = PAW_PBE O 08Apr2002
   POMASS =   16.000; ZVAL   =    6.000    mass and valenz
   ENMAX  =  400.000; ENMIN  =  300.000 eV

  PAW_PBE Mg_pv 13Apr2007               :
  PAW_PBE O 08Apr2002                   :

 POSCAR: Mg  O
  positions in direct lattice
 exchange correlation table for  LEXCH =       12
   RHO(1)=    0.500       N(1)  =     2000
   RHO(2)=  100.500       N(2)  =     4000

 ion  position               nearest neighbor table
   1  0.000  0.750  0.352-  33 2.11  35 2.11  36 2.11  43 2.11  52 2.11
   2  0.250  0.000  0.352-  34 2.11  35 2.11  36 2.11  44 2.11  51 2.11
   3  0.000  0.000  0.451-  35 2.11  34 2.11  33 2.11  41 2.11  50 2.11  39 2.12
   4  0.250  0.750  0.451-  36 2.11  34 2.11  33 2.11  42 2.11  49 2.11  40 2.12
   5  0.000  0.750  0.550-  56 2.11  40 2.11  39 2.11  47 2.11  33 2.12  37 2.15
   6  0.250  1.000  0.550-  48 2.11  40 2.11  39 2.11  55 2.11  34 2.12  38 2.15
   7  0.000  1.000  0.649-  39 2.11  54 2.11  38 2.11  37 2.11  45 2.11
   8  0.250  0.750  0.649-  40 2.11  53 2.11  38 2.11  46 2.11  37 2.11
   9  0.000  0.250  0.352-  41 2.11  35 2.11  43 2.11  44 2.11  60 2.11
  10  0.250  0.500  0.352-  42 2.11  36 2.11  43 2.11  44 2.11  59 2.11
  11  0.000  0.500  0.451-  43 2.11  41 2.11  42 2.11  33 2.11  58 2.11  47 2.12
  12  0.250  0.250  0.451-  44 2.11  41 2.11  42 2.11  34 2.11  57 2.11  48 2.12
  13  0.000  0.250  0.550-  48 2.11  64 2.11  39 2.11  47 2.11  41 2.12  45 2.15
  14  0.250  0.500  0.550-  63 2.11  40 2.11  48 2.11  47 2.11  42 2.12  46 2.15
  15  0.000  0.500  0.649-  47 2.11  62 2.11  46 2.11  37 2.11  45 2.11
  16  0.250  0.250  0.649-  48 2.11  61 2.11  38 2.11  46 2.11  45 2.11
  17  0.500  0.750  0.352-  49 2.11  36 2.11  51 2.11  52 2.11  59 2.11
  18  0.750  0.000  0.352-  50 2.11  35 2.11  51 2.11  52 2.11  60 2.11
  19  0.500  0.000  0.451-  51 2.11  49 2.11  50 2.11  34 2.11  57 2.11  55 2.12
  20  0.750  0.750  0.451-  52 2.11  49 2.11  50 2.11  33 2.11  58 2.11  56 2.12
  21  0.500  0.750  0.550-  63 2.11  40 2.11  56 2.11  55 2.11  49 2.13  53 2.15
  22  0.750  0.000  0.550-  64 2.11  56 2.11  39 2.11  55 2.11  50 2.12  54 2.15
  23  0.500  1.000  0.649-  61 2.11  53 2.11  55 2.11  38 2.11  54 2.11
  24  0.750  0.750  0.649-  56 2.11  53 2.11  54 2.11  62 2.11  37 2.11
  25  0.500  0.250  0.352-  57 2.11  51 2.11  44 2.11  59 2.11  60 2.11
  26  0.750  0.500  0.352-  58 2.11  52 2.11  43 2.11  59 2.11  60 2.11
  27  0.500  0.500  0.451-  59 2.11  49 2.11  57 2.11  58 2.11  42 2.11  63 2.12
  28  0.750  0.250  0.451-  60 2.11  50 2.11  57 2.11  58 2.11  41 2.11  64 2.12
  29  0.500  0.250  0.550-  63 2.11  48 2.11  64 2.11  55 2.11  57 2.13  61 2.15
  30  0.750  0.500  0.550-  63 2.11  56 2.11  64 2.11  47 2.11  58 2.12  62 2.15
  31  0.500  0.500  0.649-  61 2.11  53 2.11  46 2.11  62 2.11  63 2.12
  32  0.750  0.250  0.649-  64 2.11  61 2.11  54 2.11  62 2.11  45 2.11
  33  0.000  0.750  0.451-   1 2.11   3 2.11   4 2.11  11 2.11  20 2.11   5 2.12
  34  0.250  0.000  0.451-   2 2.11   3 2.11   4 2.11  12 2.11  19 2.11   6 2.12
  35  0.000  0.000  0.352-   3 2.11   2 2.11   1 2.11   9 2.11  18 2.11
  36  0.250  0.750  0.352-   4 2.11   2 2.11   1 2.11  10 2.11  17 2.11
  37  0.000  0.750  0.651-   7 2.11  15 2.11  24 2.11   8 2.11   5 2.15
  38  0.250  0.000  0.651-  16 2.11   8 2.11   7 2.11  23 2.11   6 2.15
  39  0.000  1.000  0.550-   5 2.11  13 2.11   7 2.11   6 2.11  22 2.11   3 2.12
  40  0.250  0.750  0.550-   8 2.11   5 2.11   6 2.11  14 2.11  21 2.11   4 2.12
  41  0.000  0.250  0.451-   9 2.11   3 2.11  11 2.11  12 2.11  28 2.11  13 2.12
  42  0.250  0.500  0.451-  10 2.11   4 2.11  11 2.11  12 2.11  27 2.11  14 2.12
  43  0.000  0.500  0.352-  11 2.11   9 2.11  10 2.11   1 2.11  26 2.11
  44  0.250  0.250  0.352-  12 2.11   9 2.11  10 2.11   2 2.11  25 2.11
  45  0.000  0.250  0.651-   7 2.11  15 2.11  16 2.11  32 2.11  13 2.15
  46  0.250  0.500  0.651-  15 2.11  16 2.11   8 2.11  31 2.11  14 2.15
  47  0.000  0.500  0.550-  15 2.11   5 2.11  13 2.11  14 2.11  30 2.11  11 2.12
  48  0.250  0.250  0.550-  16 2.11  13 2.11   6 2.11  14 2.11  29 2.11  12 2.12
  49  0.500  0.750  0.451-  17 2.11   4 2.11  19 2.11  20 2.11  27 2.11  21 2.13
  50  0.750  0.000  0.451-  18 2.11   3 2.11  19 2.11  20 2.11  28 2.11  22 2.12
  51  0.500  0.000  0.352-  19 2.11  17 2.11  18 2.11   2 2.11  25 2.11
  52  0.750  0.750  0.352-  20 2.11  17 2.11  18 2.11   1 2.11  26 2.11
  53  0.500  0.750  0.651-  23 2.11   8 2.11  24 2.11  31 2.11  21 2.15
  54  0.750  0.000  0.651-  32 2.11  24 2.11   7 2.11  23 2.11  22 2.15
  55  0.500  1.000  0.550-  23 2.11  22 2.11   6 2.11  21 2.11  29 2.11  19 2.12
  56  0.750  0.750  0.550-  24 2.11   5 2.11  22 2.11  30 2.11  21 2.11  20 2.12
  57  0.500  0.250  0.451-  25 2.11  19 2.11  12 2.11  27 2.11  28 2.11  29 2.13
  58  0.750  0.500  0.451-  26 2.11  20 2.11  11 2.11  27 2.11  28 2.11  30 2.12
  59  0.500  0.500  0.352-  27 2.11  17 2.11  25 2.11  26 2.11  10 2.11
  60  0.750  0.250  0.352-  28 2.11  18 2.11  25 2.11  26 2.11   9 2.11
  61  0.500  0.250  0.651-  23 2.11  16 2.11  32 2.11  31 2.11  29 2.15
  62  0.750  0.500  0.651-  15 2.11  24 2.11  32 2.11  31 2.11  30 2.15
  63  0.500  0.500  0.550-  30 2.11  14 2.11  29 2.11  21 2.11  31 2.12  27 2.12
  64  0.750  0.250  0.550-  32 2.11  13 2.11  22 2.11  30 2.11  29 2.11  28 2.12

IMPORTANT INFORMATION: All symmetrisations will be switched off!
NOSYMM: (Re-)initialisation of all symmetry stuff for point group C_1.

                                     Primitive cell

  volume of cell :    1519.8199

  direct lattice vectors                    reciprocal lattice vectors
     8.440984654  0.000000000  0.000000000     0.118469591  0.000000000  0.000000000
     0.000000000  8.440984654  0.000000000     0.000000000  0.118469591  0.000000000
     0.000000000  0.000000000 21.330738491     0.000000000  0.000000000  0.046880702

  length of vectors
     8.440984654  8.440984654 21.330738491     0.118469591  0.118469591  0.046880702

  position of ions in fractional coordinates (direct lattice)
     0.000000000  0.750000000  0.351605267
     0.250000000  0.000000000  0.351605267
     0.000000000  0.000000000  0.450535089
     0.250000000  0.750000000  0.450535089
     0.000000003  0.750032167  0.550141647
     0.249992769  0.999999998  0.550135640
     0.000000010  0.999999991  0.648847037
     0.250116514  0.750097339  0.648710816
     0.000000000  0.250000000  0.351605267
     0.250000000  0.500000000  0.351605267
     0.000000000  0.500000000  0.450535089
     0.250000000  0.250000000  0.450535089
     0.000000007  0.249967822  0.550141651
     0.250108445  0.500000001  0.550153757
     0.000000011  0.499999994  0.648675549
     0.250116504  0.249902631  0.648710813
     0.500000000  0.750000000  0.351605267
     0.750000000  0.000000000  0.351605267
     0.500000000  0.000000000  0.450535089
     0.750000000  0.750000000  0.450535089
     0.499999994  0.749901112  0.550182719
     0.750007254  0.000000005  0.550135636
     0.500000006  0.999999998  0.648747779
     0.749883526  0.750097344  0.648710829
     0.500000000  0.250000000  0.351605267
     0.750000000  0.500000000  0.351605267
     0.500000000  0.500000000  0.450535089
     0.750000000  0.250000000  0.450535089
     0.500000001  0.250098874  0.550182703
     0.749891587  0.499999991  0.550153763
     0.500000014  0.499999988  0.649279172
     0.749883523  0.249902625  0.648710829
     0.000000000  0.750000000  0.450535089
     0.250000000  0.000000000  0.450535089
     0.000000000  0.000000000  0.351605267
     0.250000000  0.750000000  0.351605267
     0.000000011  0.750041776  0.650981394
     0.249939864  0.000000003  0.651016895
     0.000000015  0.999999981  0.549923091
     0.249924098  0.750012792  0.549866046
     0.000000000  0.250000000  0.450535089
     0.250000000  0.500000000  0.450535089
     0.000000000  0.500000000  0.351605267
     0.250000000  0.250000000  0.351605267
     0.000000016  0.249958209  0.650981374
     0.249749451  0.499999982  0.651002082
     0.000000017  0.500000002  0.549828664
     0.249924102  0.249987198  0.549866042
     0.500000000  0.750000000  0.450535089
     0.750000000  0.000000000  0.450535089
     0.500000000  0.000000000  0.351605267
     0.750000000  0.750000000  0.351605267
     0.500000003  0.750141602  0.650762171
     0.750060174  0.000000004  0.651016901
     0.500000013  0.999999987  0.549819177
     0.750075914  0.750012790  0.549866047
     0.500000000  0.250000000  0.450535089
     0.750000000  0.500000000  0.450535089
     0.500000000  0.500000000  0.351605267
     0.750000000  0.250000000  0.351605267
     0.500000004  0.249858388  0.650762164
     0.750250597  0.499999987  0.651002086
     0.500000017  0.499999992  0.549996743
     0.750075901  0.249987189  0.549866047

  ion indices of the primitive-cell ions
   primitive index   ion index
                 1           1
                 2           2
                 3           3
                 4           4
                 5           5
                 6           6
                 7           7
                 8           8
                 9           9
                10          10
                11          11
                12          12
                13          13
                14          14
                15          15
                16          16
                17          17
                18          18
                19          19
                20          20
                21          21
                22          22
                23          23
                24          24
                25          25
                26          26
                27          27
                28          28
                29          29
                30          30
                31          31
                32          32
                33          33
                34          34
                35          35
                36          36
                37          37
                38          38
                39          39
                40          40
                41          41
                42          42
                43          43
                44          44
[...]
   0.25000000  0.50000000  0.45053509
   0.00000000  0.50000000  0.35160527
   0.25000000  0.25000000  0.35160527
   0.00000002  0.24995821  0.65098137
   0.24974945  0.49999998  0.65100208
   0.00000002  0.50000000  0.54982866
   0.24992410  0.24998720  0.54986604
   0.50000000  0.75000000  0.45053509
   0.75000000  0.00000000  0.45053509
   0.50000000  0.00000000  0.35160527
   0.75000000  0.75000000  0.35160527
   0.50000000  0.75014160  0.65076217
   0.75006017  0.00000000  0.65101690
   0.50000001  0.99999999  0.54981918
   0.75007591  0.75001279  0.54986605
   0.50000000  0.25000000  0.45053509
   0.75000000  0.50000000  0.45053509
   0.50000000  0.50000000  0.35160527
   0.75000000  0.25000000  0.35160527
   0.50000000  0.24985839  0.65076216
   0.75025060  0.49999999  0.65100209
   0.50000002  0.49999999  0.54999674
   0.75007590  0.24998719  0.54986605

 position of ions in cartesian coordinates  (Angst):
   0.00000000  6.33073849  7.50000000
   2.11024616  0.00000000  7.50000000
   0.00000000  0.00000000  9.61024616
   2.11024616  6.33073849  9.61024616
   0.00000002  6.33101002 11.73492761
   2.11018512  8.44098464 11.73479947
   0.00000009  8.44098458 13.84038647
   2.11122966  6.33156013 13.83748077
   0.00000000  2.11024616  7.50000000
   2.11024616  4.22049233  7.50000000
   0.00000000  4.22049233  9.61024616
   2.11024616  2.11024616  9.61024616
   0.00000006  2.10997455 11.73492769
   2.11116154  4.22049233 11.73518592
   0.00000009  4.22049228 13.83672850
   2.11122957  2.10942427 13.83748070
   4.22049233  6.33073849  7.50000000
   6.33073849  0.00000000  7.50000000
   4.22049233  0.00000000  9.61024616
   6.33073849  6.33073849  9.61024616
   4.22049228  6.32990378 11.73580370
   6.33079972  0.00000005 11.73479938
   4.22049238  8.44098463 13.83826923
   6.32975533  6.33156017 13.83748104
   4.22049233  2.11024616  7.50000000
   6.33073849  4.22049233  7.50000000
   4.22049233  4.22049233  9.61024616
   6.33073849  2.11024616  9.61024616
   4.22049233  2.11108076 11.73580336
   6.32982338  4.22049225 11.73518604
   4.22049245  4.22049223 13.84960423
   6.32975531  2.10942422 13.83748104
   0.00000000  6.33073849  9.61024616
   2.11024616  0.00000000  9.61024616
   0.00000000  0.00000000  7.50000000
   2.11024616  6.33073849  7.50000000
   0.00000009  6.33109112 13.88591387
   2.10973855  0.00000002 13.88667115
   0.00000012  8.44098449 11.73026565
   2.10960548  6.33084647 11.72904882
   0.00000000  2.11024616  9.61024616
   2.11024616  4.22049233  9.61024616
   0.00000000  4.22049233  7.50000000
   2.11024616  2.11024616  7.50000000
   0.00000014  2.10989341 13.88591345
   2.10813128  4.22049217 13.88635517
   0.00000014  4.22049235 11.72825144
   2.10960551  2.11013810 11.72904875
   4.22049233  6.33073849  9.61024616
   6.33073849  0.00000000  9.61024616
   4.22049233  0.00000000  7.50000000
   6.33073849  6.33073849  7.50000000
   4.22049236  6.33193375 13.88123768
   6.33124642  0.00000003 13.88667128
   4.22049244  8.44098455 11.72804908
   6.33137928  6.33084645 11.72904886
   4.22049233  2.11024616  9.61024616
   6.33073849  4.22049233  9.61024616
   4.22049233  4.22049233  7.50000000
   6.33073849  2.11024616  7.50000000
   4.22049236  2.10905082 13.88123754
   6.33285378  4.22049222 13.88635524
   4.22049247  4.22049226 11.73183669
   6.33137917  2.11013802 11.72904886

--------------------------------------- Iteration      FINAL  ---------------------------------------

--------------------OUTCAR has been truncated-------------------------

[...]

--------------------OUTCAR has been truncated-------------------------

  DFT-D2 method for vdW energy calculation

  Parameters of vdW forcefield:
         C6(Jnm^6/mol)     R0(A)
   Mg       0.630          1.243
   O        0.700          1.342

  vdW correction parametrized for the method Å¿ý      

  IVDW =   1
  VDW_RADIUS =    50.000 A
  VDW_S6 =     1.050
  VDW_SR =     1.000
  VDW_D =    20.000
  LVDW_EWALD = F

  Number of pair interactions contributing to vdW energy:  723304
  Edisp (eV):   -5.06828

 VOLUME and BASIS-vectors are now :
  energy-cutoff  :      600.00
  volume of cell :     1519.82
      direct lattice vectors                 reciprocal lattice vectors
     8.440984654  0.000000000  0.000000000     0.118469591  0.000000000  0.000000000
     0.000000000  8.440984654  0.000000000     0.000000000  0.118469591  0.000000000
     0.000000000  0.000000000 21.330738491     0.000000000  0.000000000  0.046880702

  length of vectors
     8.440984654  8.440984654 21.330738491     0.118469591  0.118469591  0.046880702

 FORCES acting on ions:
    Electron-Ion                     Ewald-Force                    Non-Local-Force
   0.815E-05 0.116E-01 0.207E+04   -.250E-05 -.112E-01 -.206E+04   -.323E-05 -.225E-03 -.639E+01
   -.103E-01 -.102E-05 0.207E+04   0.996E-02 -.194E-05 -.206E+04   0.223E-03 0.141E-05 -.639E+01
   0.133E-04 -.869E-05 0.683E+03   -.607E-05 0.485E-05 -.684E+03   -.146E-05 0.279E-05 0.464E+00
   -.108E+00 0.932E-01 0.683E+03   0.106E+00 -.933E-01 -.684E+03   0.111E-02 -.209E-04 0.450E+00
   0.551E-04 0.158E+00 -.690E+03   -.191E-04 -.151E+00 0.691E+03   -.244E-04 -.769E-02 -.160E+00
   -.311E-01 -.145E-04 -.690E+03   0.190E-01 -.193E-04 0.691E+03   0.864E-02 0.283E-04 -.128E+00
   0.228E-03 -.229E-03 -.205E+04   0.202E-04 -.182E-04 0.205E+04   -.178E-03 0.175E-03 0.531E+01
   0.201E+00 0.465E+00 -.205E+04   -.254E+00 -.443E+00 0.204E+04   0.253E-01 -.243E-01 0.532E+01
   0.325E-05 -.116E-01 0.207E+04   -.233E-05 0.112E-01 -.206E+04   -.724E-06 0.229E-03 -.639E+01
   -.279E-01 0.364E-05 0.207E+04   0.284E-01 0.183E-05 -.206E+04   -.318E-03 -.564E-05 -.639E+01
   0.222E-04 0.118E-04 0.683E+03   -.154E-04 -.470E-05 -.684E+03   0.210E-05 -.359E-05 0.430E+00
   -.108E+00 -.932E-01 0.683E+03   0.106E+00 0.933E-01 -.684E+03   0.110E-02 0.157E-04 0.450E+00
   0.700E-04 -.158E+00 -.690E+03   -.345E-04 0.151E+00 0.691E+03   -.238E-04 0.769E-02 -.160E+00
   -.235E+00 0.440E-04 -.691E+03   0.261E+00 -.596E-05 0.691E+03   -.249E-01 -.197E-04 -.149E+00
   -.450E-04 0.247E-03 -.205E+04   0.360E-04 0.200E-05 0.204E+04   0.103E-05 -.177E-03 0.526E+01
   0.201E+00 -.465E+00 -.205E+04   -.254E+00 0.443E+00 0.204E+04   0.251E-01 0.244E-01 0.532E+01
   -.782E-05 0.292E-01 0.207E+04   0.273E-05 -.296E-01 -.206E+04   0.165E-06 0.326E-03 -.639E+01
   0.103E-01 0.564E-05 0.207E+04   -.996E-02 -.227E-05 -.206E+04   -.223E-03 -.507E-05 -.639E+01
   -.930E-05 0.132E-04 0.683E+03   0.533E-05 -.213E-04 -.684E+03   0.378E-05 0.130E-04 0.430E+00
   0.108E+00 0.932E-01 0.683E+03   -.106E+00 -.933E-01 -.684E+03   -.111E-02 -.228E-04 0.450E+00
   -.999E-04 0.316E+00 -.690E+03   0.684E-04 -.351E+00 0.690E+03   0.246E-04 0.305E-01 -.214E+00
   0.311E-01 0.210E-04 -.690E+03   -.190E-01 -.560E-04 0.691E+03   -.864E-02 0.243E-04 -.128E+00
   -.304E-03 0.197E-04 -.205E+04   0.485E-04 -.143E-04 0.204E+04   0.187E-03 -.143E-07 0.532E+01
   -.200E+00 0.464E+00 -.205E+04   0.254E+00 -.443E+00 0.204E+04   -.252E-01 -.242E-01 0.532E+01
   -.928E-06 -.292E-01 0.207E+04   0.234E-05 0.296E-01 -.206E+04   -.450E-05 -.330E-03 -.639E+01
   0.279E-01 -.280E-05 0.207E+04   -.284E-01 0.209E-05 -.206E+04   0.319E-03 -.989E-06 -.639E+01
   -.107E-04 -.118E-04 0.683E+03   0.162E-04 0.218E-04 -.683E+03   -.103E-04 -.279E-05 0.480E+00
   0.108E+00 -.932E-01 0.683E+03   -.106E+00 0.933E-01 -.684E+03   -.110E-02 0.238E-04 0.450E+00
   -.543E-04 -.316E+00 -.690E+03   0.280E-04 0.351E+00 0.690E+03   0.217E-04 -.305E-01 -.214E+00
   0.235E+00 0.313E-04 -.691E+03   -.261E+00 0.619E-05 0.691E+03   0.249E-01 -.227E-04 -.149E+00
   -.284E-04 -.162E-04 -.206E+04   0.415E-04 0.898E-05 0.205E+04   -.827E-05 0.556E-05 0.543E+01
   -.201E+00 -.464E+00 -.205E+04   0.254E+00 0.443E+00 0.204E+04   -.251E-01 0.242E-01 0.532E+01
   0.155E-04 0.135E-01 0.512E+03   -.829E-05 -.193E-01 -.512E+03   -.703E-05 0.713E-02 -.106E+00
   0.443E-03 0.150E-05 0.512E+03   0.421E-02 -.597E-05 -.512E+03   -.593E-02 0.615E-05 -.998E-01
   0.552E-05 -.173E-05 0.155E+04   -.130E-05 -.435E-06 -.156E+04   -.660E-07 0.268E-05 0.313E+01
   -.150E-01 0.153E-01 0.155E+04   0.150E-01 -.153E-01 -.156E+04   0.883E-04 0.368E-04 0.313E+01
   0.292E-05 0.263E+00 -.156E+04   0.291E-04 -.282E+00 0.156E+04   -.463E-04 0.182E-01 -.464E+01
   -.848E-01 0.863E-05 -.156E+04   0.562E-01 -.442E-04 0.156E+04   0.396E-01 0.426E-04 -.463E+01
   0.756E-04 -.712E-04 -.513E+03   -.147E-04 0.937E-05 0.512E+03   -.826E-04 0.741E-04 0.222E+00
   -.895E-01 0.193E+00 -.512E+03   0.871E-01 -.198E+00 0.512E+03   0.775E-02 0.471E-02 0.273E+00
   0.120E-04 -.135E-01 0.512E+03   -.939E-05 0.193E-01 -.512E+03   -.659E-05 -.713E-02 -.106E+00
   -.108E+00 0.179E-05 0.512E+03   0.983E-01 0.417E-05 -.512E+03   0.125E-01 -.490E-05 -.102E+00
   0.405E-05 -.226E-05 0.155E+04   -.223E-05 0.359E-06 -.156E+04   0.194E-06 -.923E-06 0.313E+01
   -.150E-01 -.153E-01 0.155E+04   0.150E-01 0.153E-01 -.156E+04   0.904E-04 -.364E-04 0.313E+01
   0.319E-04 -.263E+00 -.156E+04   0.491E-06 0.282E+00 0.156E+04   -.397E-04 -.182E-01 -.464E+01
   -.340E+00 0.254E-04 -.156E+04   0.298E+00 0.308E-05 0.156E+04   0.688E-01 -.351E-04 -.457E+01
   0.206E-04 0.716E-04 -.512E+03   -.914E-05 -.986E-05 0.511E+03   -.152E-04 -.721E-04 0.282E+00
   -.895E-01 -.193E+00 -.512E+03   0.871E-01 0.198E+00 0.512E+03   0.768E-02 -.472E-02 0.273E+00
   -.186E-04 0.119E+00 0.512E+03   0.129E-04 -.110E+00 -.512E+03   0.672E-05 -.117E-01 -.108E+00
   -.445E-03 0.710E-05 0.512E+03   -.422E-02 -.104E-04 -.512E+03   0.593E-02 0.652E-05 -.998E-01
   -.517E-06 -.130E-06 0.155E+04   0.137E-05 -.274E-05 -.156E+04   0.107E-05 0.246E-05 0.313E+01
   0.150E-01 0.153E-01 0.155E+04   -.150E-01 -.153E-01 -.156E+04   -.920E-04 0.364E-04 0.313E+01
   -.782E-04 0.387E+00 -.156E+04   0.531E-04 -.381E+00 0.156E+04   0.439E-04 -.178E-01 -.451E+01
   0.848E-01 0.191E-04 -.156E+04   -.563E-01 -.537E-04 0.156E+04   -.396E-01 0.368E-04 -.463E+01
   -.844E-04 0.813E-05 -.512E+03   0.243E-04 -.146E-04 0.511E+03   0.793E-04 0.985E-05 0.278E+00
   0.896E-01 0.193E+00 -.512E+03   -.872E-01 -.198E+00 0.512E+03   -.774E-02 0.478E-02 0.273E+00
   -.990E-05 -.119E+00 0.512E+03   0.799E-05 0.110E+00 -.512E+03   0.877E-05 0.117E-01 -.108E+00
   0.108E+00 0.818E-06 0.512E+03   -.983E-01 0.693E-05 -.512E+03   -.125E-01 -.813E-05 -.102E+00
   -.500E-05 0.914E-07 0.155E+04   0.235E-05 0.266E-05 -.156E+04   0.999E-07 -.195E-05 0.313E+01
   0.150E-01 -.153E-01 0.155E+04   -.150E-01 0.153E-01 -.156E+04   -.911E-04 -.373E-04 0.313E+01
   -.595E-04 -.387E+00 -.156E+04   0.280E-04 0.381E+00 0.156E+04   0.405E-04 0.178E-01 -.451E+01
   0.340E+00 0.339E-04 -.156E+04   -.298E+00 -.496E-05 0.156E+04   -.688E-01 -.343E-04 -.457E+01
   -.343E-04 -.626E-05 -.514E+03   0.311E-04 0.138E-04 0.514E+03   0.113E-04 -.730E-05 0.133E+00
   0.895E-01 -.193E+00 -.512E+03   -.871E-01 0.198E+00 0.512E+03   -.768E-02 -.478E-02 0.273E+00
   -.168E-04 -.266E-04 0.191E+02   -.211E-12 -.184E-12 -.273E-11   -.139E-04 0.406E-04 -.168E+02

 POSITION                                       TOTAL-FORCE (eV/Angst)
      0.00000      6.33074      7.50000         0.000003      0.000068      0.467983
      2.11025      0.00000      7.50000        -0.000077     -0.000002      0.467704
      0.00000      0.00000      9.61025         0.000006     -0.000001      0.044994
      2.11025      6.33074      9.61025        -0.000160     -0.000089      0.044091
      0.00000      6.33101     11.73493         0.000009     -0.001060      0.030516
      2.11019      8.44098     11.73480        -0.002398     -0.000002      0.025151
      0.00000      8.44098     13.84039         0.000049     -0.000055     -0.071106
      2.11123      6.33156     13.83748        -0.024232     -0.004022     -0.063536
      0.00000      2.11025      7.50000         0.000001     -0.000068      0.467975
      2.11025      4.22049      7.50000         0.000077      0.000000      0.467627
      0.00000      4.22049      9.61025         0.000011      0.000004      0.046673
      2.11025      2.11025      9.61025        -0.000173      0.000080      0.044088
      0.00000      2.10997     11.73493         0.000009      0.001063      0.030412
      2.11116      4.22049     11.73519        -0.001182      0.000016      0.030384
      0.00000      4.22049     13.83673        -0.000007      0.000055     -0.046713
      2.11123      2.10942     13.83748        -0.024183      0.004024     -0.063510
      4.22049      6.33074      7.50000        -0.000005     -0.000083      0.467787
      6.33074      0.00000      7.50000         0.000074     -0.000002      0.467649
      4.22049      0.00000      9.61025         0.000000      0.000006      0.045545
      6.33074      6.33074      9.61025         0.000154     -0.000093      0.044092
      4.22049      6.32990     11.73580        -0.000002     -0.002047      0.015620
      6.33080      0.00000     11.73480         0.002391     -0.000008      0.025045
      4.22049      8.44098     13.83827        -0.000047      0.000004     -0.072972
      6.32976      6.33156     13.83748         0.024246     -0.004078     -0.063517
      4.22049      2.11025      7.50000        -0.000003      0.000081      0.467771
      6.33074      4.22049      7.50000        -0.000076     -0.000001      0.467661
      4.22049      4.22049      9.61025        -0.000002      0.000007      0.047056
      6.33074      2.11025      9.61025         0.000166      0.000087      0.044079
      4.22049      2.11108     11.73580         0.000000      0.002042      0.015626
      6.32982      4.22049     11.73519         0.001168      0.000012      0.030396
      4.22049      4.22049     13.84960         0.000005      0.000001     -0.153804
      6.32976      2.10942     13.83748         0.024181      0.004083     -0.063471
      0.00000      6.33074      9.61025        -0.000000      0.002420      0.059330
      2.11025      0.00000      9.61025        -0.002159      0.000002      0.060846
      0.00000      0.00000      7.50000         0.000005      0.000001     -0.434133
      2.11025      6.33074      7.50000         0.000022      0.000025     -0.434033
      0.00000      6.33109     13.88591        -0.000020      0.000860     -0.130094
      2.10974      0.00000     13.88667         0.016858      0.000012     -0.128164
      0.00000      8.44098     11.73027        -0.000033      0.000022      0.010728
      2.10961      6.33085     11.72905         0.006552      0.000390      0.022578
      0.00000      2.11025      9.61025        -0.000004     -0.002429      0.059325
      2.11025      4.22049      9.61025         0.004032      0.000000      0.062215
      0.00000      4.22049      7.50000         0.000002     -0.000003     -0.433988
      2.11025      2.11025      7.50000         0.000020     -0.000027     -0.434021
      0.00000      2.10989     13.88591        -0.000012     -0.000859     -0.129992
      2.10813      4.22049     13.88636         0.036576     -0.000011     -0.113088
      0.00000      4.22049     11.72825        -0.000005     -0.000020      0.029079
      2.10961      2.11014     11.72905         0.006531     -0.000396      0.022589
      4.22049      6.33074      9.61025         0.000003     -0.003823      0.063201
      6.33074      0.00000      9.61025         0.002154      0.000004      0.060840
      4.22049      0.00000      7.50000         0.000002     -0.000001     -0.434015
      6.33074      6.33074      7.50000        -0.000025      0.000021     -0.434044
      4.22049      6.33193     13.88124         0.000026     -0.014716     -0.080063
      6.33125      0.00000     13.88667        -0.016860      0.000006     -0.128012
      4.22049      8.44098     11.72805         0.000031      0.000004      0.035436
      6.33138      6.33085     11.72905        -0.006554      0.000413      0.022603
      4.22049      2.11025      9.61025         0.000009      0.003822      0.063214
      6.33074      4.22049      9.61025        -0.004032     -0.000001      0.062225
      4.22049      4.22049      7.50000        -0.000002      0.000001     -0.434179
      6.33074      2.11025      7.50000        -0.000026     -0.000024     -0.434025
      4.22049      2.10905     13.88124         0.000015      0.014713     -0.080055
      6.33285      4.22049     13.88636        -0.036583     -0.000009     -0.113103
      4.22049      4.22049     11.73184         0.000011     -0.000001      0.010903
      6.33138      2.11014     11.72905        -0.006536     -0.000415      0.022603
    total drift:                               -0.000031      0.000019      0.006624

  FREE ENERGIE OF THE ION-ELECTRON SYSTEM (eV)
  free  energy   TOTEN  =      -438.43585298 eV

  energy  without entropy=     -438.43585298  energy(sigma->0) =     -438.43585298