 vasp.6.3.0 20Jan22 (build Apr  1 2022 16:44:48) complex
 executed on        HPECrayEX_GCC date 2023.02.23  15:21:47

 INCAR:
   SYSTEM = MgO-rocksalt
   ISMEAR = 0
   SIGMA = 0.05
   EDIFF = 1E-8
   ALGO = ALL
   ISTART = 0
   IBRION = 5
   POTIM = 0.01
   NFREE = 2
   ISYM = 0
   DIPOL = 0.5 0.5 0.5
   IDIPOL = 3
   LDIPOL = .TRUE.
   GGA = RE
   AGGAC = 0.0
   LUSE_VDW = .TRUE.
   LASPH = .TRUE.
   ENCUT = 600
   PREC = Accurate
   LASPH = .TRUE.
   LREAL = .FALSE.
   ISPIN = 1
   NELM = 200
   NELMIN = 8
   NCORE = 8
   KPAR = 1
   LWAVE = .FALSE.
   LCHARG = .FALSE.

 POTCAR:    PAW_PBE N 08Apr2002
 POTCAR:    PAW_PBE H 15Jun2001
 POTCAR:    PAW_PBE Mg_pv 13Apr2007
 POTCAR:    PAW_PBE O 08Apr2002
|               ----> ADVICE to this user running VASP <----                  |
|     You have switched on vdW-DFT.                                           |
|     This routine was written and supplied by Jiri Klimes. We recommend      |
|     that you carefully read and cite the following publications:            |
|       J. Klimes, D.R. Bowler, A. Michelides                                 |
|          J. Phys.: Cond Matt. 22 022201 (2010)                              |
|       J. Klimes, D.R. Bowler, A. Michelides                                 |
|          Phys. Rev. B. 83, 195131 (2011)                                    |
|     and references therein.                                                 |

   TITEL  = PAW_PBE N 08Apr2002
   POMASS =   14.001; ZVAL   =    5.000    mass and valenz
   ENMAX  =  400.000; ENMIN  =  300.000 eV

   TITEL  = PAW_PBE H 15Jun2001
   POMASS =    1.000; ZVAL   =    1.000    mass and valenz
   ENMAX  =  250.000; ENMIN  =  200.000 eV

   TITEL  = PAW_PBE Mg_pv 13Apr2007
   POMASS =   24.305; ZVAL   =    8.000    mass and valenz
   ENMAX  =  403.929; ENMIN  =  302.947 eV

   TITEL  = PAW_PBE O 08Apr2002
   POMASS =   16.000; ZVAL   =    6.000    mass and valenz
   ENMAX  =  400.000; ENMIN  =  300.000 eV

  PAW_PBE N 08Apr2002                   :
  PAW_PBE H 15Jun2001                   :
  PAW_PBE Mg_pv 13Apr2007               :
  PAW_PBE O 08Apr2002                   :

 POSCAR:  N  H Mg  O
  positions in direct lattice
 exchange correlation table for  LEXCH =       40
   RHO(1)=    0.500       N(1)  =     2000
   RHO(2)=  100.500       N(2)  =     4000

 ion  position               nearest neighbor table
   1  0.500  0.503  0.764-   4 1.02   3 1.02   2 1.02
   2  0.500  0.617  0.779-   1 1.02
   3  0.404  0.450  0.782-   1 1.02
   4  0.596  0.450  0.782-   1 1.02
   5  0.000  0.750  0.350-  37 2.14  39 2.14  40 2.14  47 2.14  56 2.14
   6  0.250  0.000  0.350-  38 2.14  39 2.14  40 2.14  48 2.14  55 2.14
   7  0.000  0.000  0.450-  39 2.14  38 2.14  37 2.14  45 2.14  54 2.14  43 2.14
   8  0.250  0.750  0.450-  40 2.14  38 2.14  37 2.14  46 2.14  53 2.14  44 2.14
   9  1.000  0.750  0.550-  51 2.13  44 2.14  60 2.14  43 2.14  37 2.14  41 2.17
  10  0.250  1.000  0.550-  59 2.13  44 2.14  52 2.14  43 2.14  38 2.14  42 2.17
  11  1.000  1.000  0.649-  43 2.12  58 2.13  42 2.13  41 2.13  49 2.13
  12  0.250  0.750  0.649-  44 2.11  41 2.13  42 2.13  50 2.14  57 2.14
  13  0.000  0.250  0.350-  45 2.14  39 2.14  47 2.14  48 2.14  64 2.14
  14  0.250  0.500  0.350-  46 2.14  40 2.14  47 2.14  48 2.14  63 2.14
  15  0.000  0.500  0.450-  47 2.14  45 2.14  46 2.14  37 2.14  62 2.14  51 2.14
  16  0.250  0.250  0.450-  48 2.14  45 2.14  46 2.14  38 2.14  61 2.14  52 2.14
  17  1.000  0.250  0.550-  51 2.13  52 2.14  68 2.14  43 2.14  45 2.14  49 2.17
  18  0.252  0.500  0.551-  67 2.12  44 2.14  52 2.14  51 2.15  46 2.16  50 2.16
  19  0.000  0.500  0.649-  66 2.11  50 2.11  51 2.12  49 2.14  41 2.14
  20  0.250  0.249  0.649-  52 2.11  42 2.13  49 2.13  65 2.14  50 2.14
  21  0.500  0.750  0.350-  53 2.14  40 2.14  55 2.14  56 2.14  63 2.14
  22  0.750  0.000  0.350-  54 2.14  39 2.14  55 2.14  56 2.14  64 2.14
  23  0.500  0.000  0.450-  55 2.14  53 2.14  54 2.14  38 2.14  61 2.14  59 2.14
  24  0.750  0.750  0.450-  56 2.14  53 2.14  54 2.14  37 2.14  62 2.14  60 2.14
  25  0.500  0.748  0.551-  67 2.12  44 2.14  60 2.14  59 2.15  53 2.16  57 2.16
  26  0.750  1.000  0.550-  59 2.13  60 2.14  68 2.14  43 2.14  54 2.14  58 2.17
  27  0.500  0.000  0.649-  65 2.11  57 2.11  59 2.12  58 2.14  42 2.14
  28  0.750  0.750  0.649-  60 2.11  41 2.13  58 2.13  66 2.14  57 2.14
  29  0.500  0.250  0.350-  61 2.14  55 2.14  48 2.14  63 2.14  64 2.14
  30  0.750  0.500  0.350-  62 2.14  56 2.14  47 2.14  63 2.14  64 2.14
  31  0.500  0.500  0.450-  63 2.14  53 2.14  61 2.14  62 2.14  46 2.14  67 2.16
  32  0.750  0.250  0.450-  64 2.14  54 2.14  61 2.14  62 2.14  45 2.14  68 2.14
  33  0.500  0.251  0.551-  67 2.12  52 2.14  68 2.14  59 2.15  61 2.16  65 2.16
  34  0.748  0.500  0.551-  67 2.12  60 2.14  68 2.14  51 2.15  62 2.16  66 2.16
  35  0.500  0.499  0.657-  65 2.16  66 2.16  50 2.16  57 2.17
  36  0.750  0.249  0.649-  68 2.11  58 2.13  49 2.13  65 2.14  66 2.14
  37  0.000  0.750  0.450-   5 2.14   7 2.14   8 2.14  15 2.14  24 2.14   9 2.14
  38  0.250  0.000  0.450-   6 2.14   7 2.14   8 2.14  16 2.14  23 2.14  10 2.14
  39  0.000  0.000  0.350-   7 2.14   6 2.14   5 2.14  13 2.14  22 2.14
  40  0.250  0.750  0.350-   8 2.14   6 2.14   5 2.14  14 2.14  21 2.14
  41  1.000  0.751  0.651-  11 2.13  28 2.13  12 2.13  19 2.14   9 2.17
  42  0.249  1.000  0.651-  11 2.13  20 2.13  12 2.13  27 2.14  10 2.17
  43  1.000  1.000  0.550-  11 2.12   7 2.14   9 2.14  10 2.14  26 2.14  17 2.14
  44  0.250  0.750  0.550-  12 2.11  10 2.14   9 2.14  25 2.14  18 2.14   8 2.14
  45  0.000  0.250  0.450-  13 2.14   7 2.14  15 2.14  16 2.14  32 2.14  17 2.14
  46  0.250  0.500  0.450-  14 2.14   8 2.14  15 2.14  16 2.14  31 2.14  18 2.16
  47  0.000  0.500  0.350-  15 2.14  13 2.14  14 2.14   5 2.14  30 2.14
  48  0.250  0.250  0.350-  16 2.14  13 2.14  14 2.14   6 2.14  29 2.14
  49  1.000  0.249  0.652-  11 2.13  36 2.13  20 2.13  19 2.14  17 2.17
  50  0.247  0.500  0.652-  19 2.11  20 2.14  12 2.14  18 2.16  35 2.16
  51  0.000  0.500  0.550-  19 2.12   9 2.13  17 2.13  15 2.14  18 2.15  34 2.15
  52  0.250  0.250  0.550-  20 2.11  17 2.14  10 2.14  18 2.14  33 2.14  16 2.14
  53  0.500  0.750  0.450-  21 2.14   8 2.14  23 2.14  24 2.14  31 2.14  25 2.16
  54  0.750  0.000  0.450-  22 2.14   7 2.14  23 2.14  24 2.14  32 2.14  26 2.14
  55  0.500  0.000  0.350-  23 2.14  21 2.14  22 2.14   6 2.14  29 2.14
  56  0.750  0.750  0.350-  24 2.14  21 2.14  22 2.14   5 2.14  30 2.14
  57  0.500  0.753  0.652-  27 2.11  28 2.14  12 2.14  25 2.16  35 2.17
  58  0.751  1.000  0.651-  11 2.13  36 2.13  28 2.13  27 2.14  26 2.17
  59  0.500  1.000  0.550-  27 2.12  10 2.13  26 2.13  23 2.14  25 2.15  33 2.15
  60  0.750  0.750  0.550-  28 2.11  26 2.14   9 2.14  25 2.14  34 2.14  24 2.14
  61  0.500  0.250  0.450-  29 2.14  23 2.14  16 2.14  31 2.14  32 2.14  33 2.16
  62  0.750  0.500  0.450-  30 2.14  24 2.14  15 2.14  31 2.14  32 2.14  34 2.16
  63  0.500  0.500  0.350-  31 2.14  21 2.14  29 2.14  30 2.14  14 2.14
  64  0.750  0.250  0.350-  32 2.14  22 2.14  29 2.14  30 2.14  13 2.14
  65  0.500  0.247  0.652-  27 2.11  36 2.14  20 2.14  33 2.16  35 2.16
  66  0.753  0.500  0.652-  19 2.11  36 2.14  28 2.14  34 2.16  35 2.16
  67  0.500  0.500  0.551-  25 2.12  18 2.12  34 2.12  33 2.12  31 2.16
  68  0.750  0.250  0.550-  36 2.11  17 2.14  26 2.14  34 2.14  33 2.14  32 2.14

IMPORTANT INFORMATION: All symmetrisations will be switched off!
NOSYMM: (Re-)initialisation of all symmetry stuff for point group C_1.

                                     Primitive cell

  volume of cell :    1563.6717

  direct lattice vectors                    reciprocal lattice vectors
     8.546113626  0.000000000  0.000000000     0.117012252  0.000000000  0.000000000
     0.000000000  8.546113626  0.000000000     0.000000000  0.117012252  0.000000000
     0.000000000  0.000000000 21.409585219     0.000000000  0.000000000  0.046708051

  length of vectors
     8.546113626  8.546113626 21.409585219     0.117012252  0.117012252  0.046708051

  position of ions in fractional coordinates (direct lattice)
     0.500001044  0.503012109  0.763914976
     0.500000691  0.616515598  0.778882947
     0.403555813  0.449968583  0.782468899
     0.596444849  0.449968772  0.782468847
     0.000000000  0.750000000  0.350310383
     0.250000000  0.000000000  0.350310383
     0.000000000  0.000000000  0.450103461
     0.250000000  0.750000000  0.450103461
     0.999999994  0.749572080  0.550067146
     0.250346608  0.999895963  0.550056130
     0.999999977  0.999862841  0.649015149
     0.249566527  0.750200457  0.648710131
     0.000000000  0.250000000  0.350310383
     0.250000000  0.500000000  0.350310383
     0.000000000  0.500000000  0.450103461
     0.250000000  0.250000000  0.450103461
     0.999999997  0.250270776  0.550043815
     0.251563977  0.499923985  0.550844194
     0.000000001  0.499860487  0.648873855
     0.249636081  0.249418926  0.648627018
     0.500000000  0.750000000  0.350310383
     0.750000000  0.000000000  0.350310383
     0.500000000  0.000000000  0.450103461
     0.750000000  0.750000000  0.450103461
     0.499999980  0.748360126  0.550869814
     0.749653357  0.999895958  0.550056137
     0.499999982  0.000005749  0.648869585
     0.750433446  0.750200476  0.648710096
     0.500000000  0.250000000  0.350310383
     0.750000000  0.500000000  0.350310383
     0.500000000  0.500000000  0.450103461
     0.750000000  0.250000000  0.450103461
     0.499999975  0.251481772  0.550816110
     0.748436019  0.499923987  0.550844225
     0.500000068  0.499401210  0.656816073
     0.750363897  0.249418900  0.648626989
     0.000000000  0.750000000  0.450103461
     0.250000000  0.000000000  0.450103461
     0.000000000  0.000000000  0.350310383
     0.250000000  0.750000000  0.350310383
     0.999999977  0.750549427  0.651475631
     0.249306243  0.999880692  0.651487381
     0.999999987  0.999914735  0.549906447
     0.249922324  0.750020047  0.550127284
     0.000000000  0.250000000  0.450103461
     0.250000000  0.500000000  0.450103461
     0.000000000  0.500000000  0.350310383
     0.250000000  0.250000000  0.350310383
     0.999999977  0.249179206  0.651501110
     0.247270654  0.499790350  0.651715755
     0.000000015  0.499926640  0.549953063
     0.249867204  0.249803207  0.550081319
     0.500000000  0.750000000  0.450103461
     0.750000000  0.000000000  0.450103461
     0.500000000  0.000000000  0.350310383
     0.750000000  0.750000000  0.350310383
     0.500000009  0.752699916  0.651860442
     0.750693715  0.999880691  0.651487379
     0.499999979  0.999883941  0.549952545
     0.750077648  0.750020060  0.550127276
     0.500000000  0.250000000  0.450103461
     0.750000000  0.500000000  0.450103461
     0.500000000  0.500000000  0.350310383
     0.750000000  0.250000000  0.350310383
     0.500000000  0.247176585  0.651592885
     0.752729396  0.499790355  0.651715722
     0.499999989  0.499961269  0.550842886
     0.750132768  0.249803194  0.550081315

  ion indices of the primitive-cell ions
   primitive index   ion index
                 1           1
[...]
  1Z    -0.001179    2.074731  -23.395282   -0.000012    8.729441    5.593771   -9.491451   -5.363682    7.603952    9.492551   -5.364303    7.604174
  2X     5.634805   -0.000434    0.002904   -5.528086   -0.001330    0.000459   -0.079109    3.166186    1.155683   -0.081962   -3.164538   -1.155566
  2Y     0.001569   34.514005    8.742899   -0.001446  -37.591947  -10.513605   -0.223493    1.502708    0.828102    0.222783    1.502403    0.827414
  2Z     0.000144   13.252212    5.593131    0.000048  -10.505660   -5.557486   -0.137035   -1.680830   -0.071719    0.137015   -1.680832   -0.071722
  3X    26.437174   11.549544   -9.496527   -0.079384   -0.222261   -0.138410  -28.756541  -12.920132   11.234655    2.359884    1.570619   -1.531267
  3Y    11.333214   11.806630   -5.360740    3.166348    1.502397   -1.681705  -12.911404  -12.522476    6.325427   -1.567737   -0.831256    0.723252
  3Z   -13.415038   -7.627033    7.605404    1.154626    0.826285   -0.070841   11.226795    6.325990   -7.460752    1.530102    0.722022   -0.177069
  4X    26.438362  -11.553198    9.498998   -0.079408    0.222066    0.138016    2.360702   -1.569550    1.528722  -28.758773   12.921369  -11.235685
  4Y   -11.335369   11.807685   -5.365255   -3.166492    1.499857   -1.682586    1.568714   -0.830737    0.722679   12.911895  -12.522942    6.327096
  4Z    13.416428   -7.627540    7.605750   -1.154657    0.826343   -0.070868   -1.530143    0.721974   -0.177056  -11.227747    6.326530   -7.460967

 Eigenvectors and eigenvalues of the dynamical matrix

   1 f  =  104.300440 THz   655.338991 2PiTHz 3479.088183 cm-1   431.351765 meV
             X         Y         Z           dx          dy          dz
      4.273066  4.298799 16.355103     0.282989   -0.002980    0.000257
      4.273063  5.268812 16.675561     0.022166    0.007475    0.002459
      3.448834  3.845483 16.752335    -0.539168   -0.310367    0.257977
      5.097285  3.845484 16.752333    -0.546633    0.314079   -0.261379
      0.000000  6.409585  7.500000            0           0           0
      2.136528  0.000000  7.500000            0           0           0
      0.000000  0.000000  9.636528            0           0           0
      2.136528  6.409585  9.636528            0           0           0
      8.546114  6.405928 11.776709            0           0           0
      2.139491  8.545225 11.776474            0           0           0
      8.546113  8.544941 13.895145            0           0           0
      2.132824  6.411298 13.888615            0           0           0
      0.000000  2.136528  7.500000            0           0           0
      2.136528  4.273057  7.500000            0           0           0
      0.000000  4.273057  9.636528            0           0           0
      2.136528  2.136528  9.636528            0           0           0
      8.546114  2.138842 11.776210            0           0           0
      2.149894  4.272407 11.793346            0           0           0
      0.000000  4.271865 13.892120            0           0           0
      2.133418  2.131562 13.886835            0           0           0
      4.273057  6.409585  7.500000            0           0           0
      6.409585  0.000000  7.500000            0           0           0
      4.273057  0.000000  9.636528            0           0           0
      6.409585  6.409585  9.636528            0           0           0
      4.273057  6.395571 11.793894            0           0           0
      6.406623  8.545224 11.776474            0           0           0
      4.273057  0.000049 13.892029            0           0           0
      6.413289  6.411299 13.888614            0           0           0
      4.273057  2.136528  7.500000            0           0           0
      6.409585  4.273057  7.500000            0           0           0
      4.273057  4.273057  9.636528            0           0           0
      6.409585  2.136528  9.636528            0           0           0
      4.273057  2.149192 11.792744            0           0           0
      6.396219  4.272407 11.793346            0           0           0
      4.273057  4.267939 14.062160            0           0           0
      6.412695  2.131562 13.886835            0           0           0
      0.000000  6.409585  9.636528            0           0           0
      2.136528  0.000000  9.636528            0           0           0
      0.000000  0.000000  7.500000            0           0           0
      2.136528  6.409585  7.500000            0           0           0
      8.546113  6.414281 13.947823            0           0           0
      2.130599  8.545094 13.948075            0           0           0
      8.546114  8.545385 11.773269            0           0           0
      2.135865  6.409757 11.777997            0           0           0
      0.000000  2.136528  9.636528            0           0           0
      2.136528  4.273057  9.636528            0           0           0
      0.000000  4.273057  7.500000            0           0           0
      2.136528  2.136528  7.500000            0           0           0
      8.546113  2.129514 13.948369            0           0           0
      2.113203  4.271265 13.952964            0           0           0
      0.000000  4.272430 11.774267            0           0           0
      2.135394  2.134847 11.777013            0           0           0
      4.273057  6.409585  9.636528            0           0           0
      6.409585  0.000000  9.636528            0           0           0
      4.273057  0.000000  7.500000            0           0           0
      6.409585  6.409585  7.500000            0           0           0
      4.273057  6.432659 13.956062            0           0           0
      6.415514  8.545094 13.948075            0           0           0
      4.273057  8.545122 11.774256            0           0           0
      6.410249  6.409757 11.777997            0           0           0
      4.273057  2.136528  9.636528            0           0           0
      6.409585  4.273057  9.636528            0           0           0
      4.273057  4.273057  7.500000            0           0           0
      6.409585  2.136528  7.500000            0           0           0
      4.273057  2.112399 13.950333            0           0           0
      6.432911  4.271265 13.952963            0           0           0
      4.273057  4.272726 11.793318            0           0           0
      6.410720  2.134846 11.777013            0           0           0

[...]

  11 f  =    2.477448 THz    15.566266 2PiTHz   82.638778 cm-1    10.245898 meV
             X         Y         Z           dx          dy          dz
      4.273066  4.298799 16.355103    -0.014752    0.820330   -0.021989
      4.273063  5.268812 16.675561    -0.011653    0.287668   -0.213107
      3.448834  3.845483 16.752335    -0.003408    0.296861    0.083655
      5.097285  3.845484 16.752333    -0.000383    0.308399    0.088369
      0.000000  6.409585  7.500000            0           0           0
      2.136528  0.000000  7.500000            0           0           0
      0.000000  0.000000  9.636528            0           0           0
      2.136528  6.409585  9.636528            0           0           0
      8.546114  6.405928 11.776709            0           0           0
      2.139491  8.545225 11.776474            0           0           0
      8.546113  8.544941 13.895145            0           0           0
      2.132824  6.411298 13.888615            0           0           0
      0.000000  2.136528  7.500000            0           0           0
      2.136528  4.273057  7.500000            0           0           0
      0.000000  4.273057  9.636528            0           0           0
      2.136528  2.136528  9.636528            0           0           0
      8.546114  2.138842 11.776210            0           0           0
      2.149894  4.272407 11.793346            0           0           0
      0.000000  4.271865 13.892120            0           0           0
      2.133418  2.131562 13.886835            0           0           0
      4.273057  6.409585  7.500000            0           0           0
      6.409585  0.000000  7.500000            0           0           0
      4.273057  0.000000  9.636528            0           0           0
      6.409585  6.409585  9.636528            0           0           0
      4.273057  6.395571 11.793894            0           0           0
      6.406623  8.545224 11.776474            0           0           0
      4.273057  0.000049 13.892029            0           0           0
      6.413289  6.411299 13.888614            0           0           0
      4.273057  2.136528  7.500000            0           0           0
      6.409585  4.273057  7.500000            0           0           0
      4.273057  4.273057  9.636528            0           0           0
      6.409585  2.136528  9.636528            0           0           0
      4.273057  2.149192 11.792744            0           0           0
      6.396219  4.272407 11.793346            0           0           0
      4.273057  4.267939 14.062160            0           0           0
      6.412695  2.131562 13.886835            0           0           0
      0.000000  6.409585  9.636528            0           0           0
      2.136528  0.000000  9.636528            0           0           0
      0.000000  0.000000  7.500000            0           0           0
      2.136528  6.409585  7.500000            0           0           0
      8.546113  6.414281 13.947823            0           0           0
      2.130599  8.545094 13.948075            0           0           0
      8.546114  8.545385 11.773269            0           0           0
      2.135865  6.409757 11.777997            0           0           0
      0.000000  2.136528  9.636528            0           0           0
      2.136528  4.273057  9.636528            0           0           0
      0.000000  4.273057  7.500000            0           0           0
      2.136528  2.136528  7.500000            0           0           0
      8.546113  2.129514 13.948369            0           0           0
      2.113203  4.271265 13.952964            0           0           0
      0.000000  4.272430 11.774267            0           0           0
      2.135394  2.134847 11.777013            0           0           0
      4.273057  6.409585  9.636528            0           0           0
      6.409585  0.000000  9.636528            0           0           0
      4.273057  0.000000  7.500000            0           0           0
      6.409585  6.409585  7.500000            0           0           0
      4.273057  6.432659 13.956062            0           0           0
      6.415514  8.545094 13.948075            0           0           0
      4.273057  8.545122 11.774256            0           0           0
      6.410249  6.409757 11.777997            0           0           0
      4.273057  2.136528  9.636528            0           0           0
      6.409585  4.273057  9.636528            0           0           0
      4.273057  4.273057  7.500000            0           0           0
      6.409585  2.136528  7.500000            0           0           0
      4.273057  2.112399 13.950333            0           0           0
      6.432911  4.271265 13.952963            0           0           0
      4.273057  4.272726 11.793318            0           0           0
      6.410720  2.134846 11.777013            0           0           0

  12 f/i=    1.202423 THz     7.555049 2PiTHz   40.108527 cm-1     4.972821 meV
             X         Y         Z           dx          dy          dz
      4.273066  4.298799 16.355103    -0.323899    0.002425    0.002339
      4.273063  5.268812 16.675561     0.383379    0.000784    0.000234
      3.448834  3.845483 16.752335    -0.395608    0.449470   -0.126690
      5.097285  3.845484 16.752333    -0.395608   -0.447804    0.128396
      0.000000  6.409585  7.500000            0           0           0
      2.136528  0.000000  7.500000            0           0           0
      0.000000  0.000000  9.636528            0           0           0
      2.136528  6.409585  9.636528            0           0           0
      8.546114  6.405928 11.776709            0           0           0
      2.139491  8.545225 11.776474            0           0           0
      8.546113  8.544941 13.895145            0           0           0
      2.132824  6.411298 13.888615            0           0           0
      0.000000  2.136528  7.500000            0           0           0
      2.136528  4.273057  7.500000            0           0           0
      0.000000  4.273057  9.636528            0           0           0
      2.136528  2.136528  9.636528            0           0           0
      8.546114  2.138842 11.776210            0           0           0
      2.149894  4.272407 11.793346            0           0           0
      0.000000  4.271865 13.892120            0           0           0
      2.133418  2.131562 13.886835            0           0           0
      4.273057  6.409585  7.500000            0           0           0
      6.409585  0.000000  7.500000            0           0           0
      4.273057  0.000000  9.636528            0           0           0
      6.409585  6.409585  9.636528            0           0           0
      4.273057  6.395571 11.793894            0           0           0
      6.406623  8.545224 11.776474            0           0           0
      4.273057  0.000049 13.892029            0           0           0
      6.413289  6.411299 13.888614            0           0           0
      4.273057  2.136528  7.500000            0           0           0
      6.409585  4.273057  7.500000            0           0           0
      4.273057  4.273057  9.636528            0           0           0
      6.409585  2.136528  9.636528            0           0           0
      4.273057  2.149192 11.792744            0           0           0
      6.396219  4.272407 11.793346            0           0           0
      4.273057  4.267939 14.062160            0           0           0
      6.412695  2.131562 13.886835            0           0           0
      0.000000  6.409585  9.636528            0           0           0
      2.136528  0.000000  9.636528            0           0           0
      0.000000  0.000000  7.500000            0           0           0
      2.136528  6.409585  7.500000            0           0           0
      8.546113  6.414281 13.947823            0           0           0
      2.130599  8.545094 13.948075            0           0           0
      8.546114  8.545385 11.773269            0           0           0
      2.135865  6.409757 11.777997            0           0           0
      0.000000  2.136528  9.636528            0           0           0
      2.136528  4.273057  9.636528            0           0           0
      0.000000  4.273057  7.500000            0           0           0
      2.136528  2.136528  7.500000            0           0           0
      8.546113  2.129514 13.948369            0           0           0
      2.113203  4.271265 13.952964            0           0           0
      0.000000  4.272430 11.774267            0           0           0
      2.135394  2.134847 11.777013            0           0           0
      4.273057  6.409585  9.636528            0           0           0
      6.409585  0.000000  9.636528            0           0           0
      4.273057  0.000000  7.500000            0           0           0
      6.409585  6.409585  7.500000            0           0           0
      4.273057  6.432659 13.956062            0           0           0
      6.415514  8.545094 13.948075            0           0           0
      4.273057  8.545122 11.774256            0           0           0
      6.410249  6.409757 11.777997            0           0           0
      4.273057  2.136528  9.636528            0           0           0
      6.409585  4.273057  9.636528            0           0           0
      4.273057  4.273057  7.500000            0           0           0
      6.409585  2.136528  7.500000            0           0           0
      4.273057  2.112399 13.950333            0           0           0
      6.432911  4.271265 13.952963            0           0           0
      4.273057  4.272726 11.793318            0           0           0
      6.410720  2.134846 11.777013            0           0           0

 Finite differences POTIM=   1.0000000000000000E-002