 vasp.6.3.0 20Jan22 (build Apr  1 2022 16:44:48) complex
 executed on        HPECrayEX_GCC date 2022.11.06  22:31:36

 INCAR:
   SYSTEM = MgO-rocksalt
   ISMEAR = 0
   SIGMA = 0.05
   EDIFF = 1E-6
   ALGO = ALL
   ISTART = 0
   IBRION = -1
   NSW = 0
   ISYM = 0
   DIPOL = 0.5 0.5 0.5
   IDIPOL = 3
   LDIPOL = .TRUE.
   GGA = RE
   IVDW = 13
   VDW_S8 = 1.7468
   VDW_A1 = 0.5363
   VDW_A2 = 3.0726
   ENCUT = 600
   PREC = Accurate
   LASPH = .TRUE.
   LREAL = .FALSE.
   ISPIN = 1
   NELM = 200
   NELMIN = 8
   NCORE = 8
   KPAR = 1
   LWAVE = .FALSE.
   LCHARG = .FALSE.

 POTCAR:    PAW_PBE Mg_pv 13Apr2007
 POTCAR:    PAW_PBE O 08Apr2002
 POTCAR:    PAW_PBE Mg_pv 13Apr2007
   VRHFIN =Mg: p6s2

   TITEL  = PAW_PBE Mg_pv 13Apr2007
   POMASS =   24.305; ZVAL   =    8.000    mass and valenz
   ENMAX  =  403.929; ENMIN  =  302.947 eV

   TITEL  = PAW_PBE O 08Apr2002
   POMASS =   16.000; ZVAL   =    6.000    mass and valenz
   ENMAX  =  400.000; ENMIN  =  300.000 eV

  PAW_PBE Mg_pv 13Apr2007               :
  PAW_PBE O 08Apr2002                   :

 POSCAR: Mg  O
  positions in direct lattice
|           W    W    AA    RRRRR   N    N  II  N    N   GGGG   !!!           |
|           W    W   A  A   R    R  NN   N  II  NN   N  G    G  !!!           |
|           W    W  A    A  R    R  N N  N  II  N N  N  G       !!!           |
|           W WW W  AAAAAA  RRRRR   N  N N  II  N  N N  G  GGG   !            |
|           WW  WW  A    A  R   R   N   NN  II  N   NN  G    G                |
|           W    W  A    A  R    R  N    N  II  N    N   GGGG   !!!           |
|     Specifying the vdW parameters                                           |
|     VDW_S8 = 1.747                                                          |
|     VDW_A1 = 0.536                                                          |
|     VDW_A2 = 3.073                                                          |
|     in the INCAR file will overwrite the defaults for revpbe. Please        |
|     make sure that is what you intended.                                    |

 ion  position               nearest neighbor table
   1  0.000  0.750  0.350-  33 2.14  35 2.14  36 2.14  43 2.14  52 2.14
   2  0.250  0.000  0.350-  34 2.14  35 2.14  36 2.14  44 2.14  51 2.14
   3  0.000  0.000  0.450-  35 2.14  34 2.14  33 2.14  41 2.14  50 2.14  39 2.14
   4  0.250  0.750  0.450-  36 2.14  34 2.14  33 2.14  42 2.14  49 2.14  40 2.14
   5  0.000  0.750  0.550-  47 2.14  39 2.14  40 2.14  56 2.14  33 2.15  37 2.16
   6  0.250  1.000  0.550-  55 2.14  40 2.14  48 2.14  39 2.14  34 2.15  38 2.16
   7  0.000  1.000  0.650-  39 2.13  38 2.14  54 2.14  45 2.14  37 2.14
   8  0.250  0.750  0.649-  40 2.13  37 2.14  38 2.14  46 2.14  53 2.14
   9  0.000  0.250  0.350-  41 2.14  35 2.14  43 2.14  44 2.14  60 2.14
  10  0.250  0.500  0.350-  42 2.14  36 2.14  43 2.14  44 2.14  59 2.14
  11  0.000  0.500  0.450-  43 2.14  41 2.14  42 2.14  33 2.14  58 2.14  47 2.14
  12  0.250  0.250  0.450-  44 2.14  41 2.14  42 2.14  34 2.14  57 2.14  48 2.14
  13  1.000  0.250  0.550-  47 2.14  39 2.14  48 2.14  64 2.14  41 2.15  45 2.16
  14  0.250  0.500  0.550-  63 2.14  40 2.14  48 2.14  47 2.14  42 2.15  46 2.16
  15  1.000  0.500  0.650-  47 2.13  45 2.14  37 2.14  62 2.14  46 2.14
  16  0.250  0.250  0.649-  48 2.13  45 2.14  38 2.14  46 2.14  61 2.14
  17  0.500  0.750  0.350-  49 2.14  36 2.14  51 2.14  52 2.14  59 2.14
  18  0.750  0.000  0.350-  50 2.14  35 2.14  51 2.14  52 2.14  60 2.14
  19  0.500  0.000  0.450-  51 2.14  49 2.14  50 2.14  34 2.14  57 2.14  55 2.14
  20  0.750  0.750  0.450-  52 2.14  49 2.14  50 2.14  33 2.14  58 2.14  56 2.14
  21  0.500  0.750  0.550-  56 2.14  40 2.14  63 2.14  55 2.14  49 2.15  53 2.16
  22  0.750  1.000  0.550-  55 2.14  56 2.14  64 2.14  39 2.14  50 2.15  54 2.16
  23  0.500  1.000  0.650-  55 2.13  61 2.14  53 2.14  38 2.14  54 2.14
  24  0.750  0.750  0.649-  56 2.13  37 2.14  54 2.14  62 2.14  53 2.14
  25  0.500  0.250  0.350-  57 2.14  51 2.14  44 2.14  59 2.14  60 2.14
  26  0.750  0.500  0.350-  58 2.14  52 2.14  43 2.14  59 2.14  60 2.14
  27  0.500  0.500  0.450-  59 2.14  49 2.14  57 2.14  58 2.14  42 2.14  63 2.14
  28  0.750  0.250  0.450-  60 2.14  50 2.14  57 2.14  58 2.14  41 2.14  64 2.14
  29  0.500  0.250  0.550-  64 2.14  48 2.14  63 2.14  55 2.14  57 2.15  61 2.16
  30  0.750  0.500  0.550-  63 2.14  56 2.14  64 2.14  47 2.14  58 2.15  62 2.16
  31  0.500  0.500  0.650-  63 2.13  62 2.14  46 2.14  61 2.14  53 2.14
  32  0.750  0.250  0.649-  64 2.13  45 2.14  54 2.14  62 2.14  61 2.14
  33  0.000  0.750  0.450-   1 2.14   3 2.14   4 2.14  11 2.14  20 2.14   5 2.15
  34  0.250  0.000  0.450-   2 2.14   3 2.14   4 2.14  12 2.14  19 2.14   6 2.15
  35  0.000  0.000  0.350-   3 2.14   2 2.14   1 2.14   9 2.14  18 2.14
  36  0.250  0.750  0.350-   4 2.14   2 2.14   1 2.14  10 2.14  17 2.14
  37  0.000  0.750  0.651-  15 2.14   8 2.14  24 2.14   7 2.14   5 2.16
  38  0.250  1.000  0.652-   7 2.14  16 2.14   8 2.14  23 2.14   6 2.16
  39  0.000  1.000  0.550-   7 2.13   6 2.14  22 2.14   5 2.14  13 2.14   3 2.14
  40  0.250  0.750  0.550-   8 2.13  21 2.14  14 2.14   6 2.14   5 2.14   4 2.14
  41  0.000  0.250  0.450-   9 2.14   3 2.14  11 2.14  12 2.14  28 2.14  13 2.15
  42  0.250  0.500  0.450-  10 2.14   4 2.14  11 2.14  12 2.14  27 2.14  14 2.15
  43  0.000  0.500  0.350-  11 2.14   9 2.14  10 2.14   1 2.14  26 2.14
  44  0.250  0.250  0.350-  12 2.14   9 2.14  10 2.14   2 2.14  25 2.14
  45  1.000  0.250  0.651-  15 2.14  16 2.14  32 2.14   7 2.14  13 2.16
  46  0.250  0.500  0.652-  15 2.14  31 2.14  16 2.14   8 2.14  14 2.16
  47  1.000  0.500  0.550-  15 2.13   5 2.14  13 2.14  30 2.14  14 2.14  11 2.14
  48  0.250  0.250  0.550-  16 2.13  29 2.14  14 2.14   6 2.14  13 2.14  12 2.14
  49  0.500  0.750  0.450-  17 2.14   4 2.14  19 2.14  20 2.14  27 2.14  21 2.15
  50  0.750  0.000  0.450-  18 2.14   3 2.14  19 2.14  20 2.14  28 2.14  22 2.15
  51  0.500  0.000  0.350-  19 2.14  17 2.14  18 2.14   2 2.14  25 2.14
  52  0.750  0.750  0.350-  20 2.14  17 2.14  18 2.14   1 2.14  26 2.14
  53  0.500  0.750  0.652-  23 2.14  31 2.14  24 2.14   8 2.14  21 2.16
  54  0.750  1.000  0.652-   7 2.14  24 2.14  32 2.14  23 2.14  22 2.16
  55  0.500  1.000  0.550-  23 2.13  22 2.14   6 2.14  29 2.14  21 2.14  19 2.14
  56  0.750  0.750  0.550-  24 2.13  21 2.14  30 2.14  22 2.14   5 2.14  20 2.14
  57  0.500  0.250  0.450-  25 2.14  19 2.14  12 2.14  27 2.14  28 2.14  29 2.15
  58  0.750  0.500  0.450-  26 2.14  20 2.14  11 2.14  27 2.14  28 2.14  30 2.15
  59  0.500  0.500  0.350-  27 2.14  17 2.14  25 2.14  26 2.14  10 2.14
  60  0.750  0.250  0.350-  28 2.14  18 2.14  25 2.14  26 2.14   9 2.14
  61  0.500  0.250  0.652-  23 2.14  31 2.14  32 2.14  16 2.14  29 2.16
  62  0.750  0.500  0.652-  15 2.14  31 2.14  32 2.14  24 2.14  30 2.16
  63  0.500  0.500  0.550-  31 2.13  30 2.14  14 2.14  21 2.14  29 2.14  27 2.14
  64  0.750  0.250  0.550-  32 2.13  29 2.14  30 2.14  22 2.14  13 2.14  28 2.14

IMPORTANT INFORMATION: All symmetrisations will be switched off!
NOSYMM: (Re-)initialisation of all symmetry stuff for point group C_1.

                                     Primitive cell

  volume of cell :    1563.6717

  direct lattice vectors                    reciprocal lattice vectors
     8.546113626  0.000000000  0.000000000     0.117012252  0.000000000  0.000000000
     0.000000000  8.546113626  0.000000000     0.000000000  0.117012252  0.000000000
     0.000000000  0.000000000 21.409585219     0.000000000  0.000000000  0.046708051

  length of vectors
     8.546113626  8.546113626 21.409585219     0.117012252  0.117012252  0.046708051

  position of ions in fractional coordinates (direct lattice)
     0.000000000  0.750000000  0.350310383
     0.250000000  0.000000000  0.350310383
     0.000000000  0.000000000  0.450103461
     0.250000000  0.750000000  0.450103461
     0.000000007  0.749980482  0.550432276
     0.250008357  0.999999967  0.550447732
     0.000000003  0.999999999  0.649617973
     0.249982409  0.750015029  0.649414934
     0.000000000  0.250000000  0.350310383
     0.250000000  0.500000000  0.350310383
     0.000000000  0.500000000  0.450103461
     0.250000000  0.250000000  0.450103461
     0.999999997  0.250019482  0.550432262
     0.250037239  0.499999992  0.550469826
     0.999999967  0.499999963  0.649654673
     0.249982376  0.249984939  0.649414905
     0.500000000  0.750000000  0.350310383
     0.750000000  0.000000000  0.350310383
     0.500000000  0.000000000  0.450103461
     0.750000000  0.750000000  0.450103461
     0.500000002  0.749987509  0.550474791
     0.749991634  0.999999961  0.550447738
     0.499999989  0.999999990  0.649718202
     0.750017586  0.750014997  0.649414946
     0.500000000  0.250000000  0.350310383
     0.750000000  0.500000000  0.350310383
     0.500000000  0.500000000  0.450103461
     0.750000000  0.250000000  0.450103461
     0.500000001  0.250012460  0.550474776
     0.749962768  0.500000003  0.550469829
     0.500000003  0.499999971  0.649766482
     0.750017607  0.249984948  0.649414911
     0.000000000  0.750000000  0.450103461
     0.250000000  0.000000000  0.450103461
     0.000000000  0.000000000  0.350310383
     0.250000000  0.750000000  0.350310383
     0.000000013  0.749988030  0.651497110
     0.249925099  0.999999986  0.651512329
     0.000000012  0.999999968  0.550128539
     0.250035447  0.749992776  0.550136681
     0.000000000  0.250000000  0.450103461
     0.250000000  0.500000000  0.450103461
     0.000000000  0.500000000  0.350310383
     0.250000000  0.250000000  0.350310383
     0.999999995  0.250011948  0.651497070
     0.249995063  0.499999960  0.651552416
     0.999999993  0.499999998  0.550147130
     0.250035440  0.250007185  0.550136668
     0.500000000  0.750000000  0.450103461
     0.750000000  0.000000000  0.450103461
     0.500000000  0.000000000  0.350310383
     0.750000000  0.750000000  0.350310383
     0.500000004  0.750030262  0.651595830
     0.750074884  0.999999972  0.651512336
     0.500000004  0.999999985  0.550212568
     0.749964548  0.749992777  0.550136690
     0.500000000  0.250000000  0.450103461
     0.750000000  0.500000000  0.450103461
     0.500000000  0.500000000  0.350310383
     0.750000000  0.250000000  0.350310383
     0.500000005  0.249969713  0.651595801
     0.750004912  0.499999971  0.651552414
     0.500000011  0.499999996  0.550229818
     0.749964553  0.250007186  0.550136668

  ion indices of the primitive-cell ions
   primitive index   ion index
                 1           1
                 2           2
                 3           3
                 4           4
                 5           5
                 6           6
                 7           7
                 8           8
                 9           9
                10          10
                11          11
                12          12
                13          13
                14          14
                15          15
                16          16
                17          17
                18          18
                19          19
                20          20
[...]
   0.50000000  0.50000000  0.35031038
   0.75000000  0.25000000  0.35031038
   0.50000001  0.24996971  0.65159580
   0.75000491  0.49999997  0.65155241
   0.50000001  0.50000000  0.55022982
   0.74996455  0.25000719  0.55013667

 position of ions in cartesian coordinates  (Angst):
   0.00000000  6.40958522  7.50000000
   2.13652841  0.00000000  7.50000000
   0.00000000  0.00000000  9.63652841
   2.13652841  6.40958522  9.63652841
   0.00000006  6.40941842 11.78452671
   2.13659983  8.54611334 11.78485762
   0.00000002  8.54611362 13.90805135
   2.13637807  6.40971366 13.90370437
   0.00000000  2.13652841  7.50000000
   2.13652841  4.27305681  7.50000000
   0.00000000  4.27305681  9.63652841
   2.13652841  2.13652841  9.63652841
   8.54611360  2.13669490 11.78452641
   2.13684666  4.27305674 11.78533064
   8.54611334  4.27305649 13.90883708
   2.13637779  2.13639969 13.90370376
   4.27305681  6.40958522  7.50000000
   6.40958522  0.00000000  7.50000000
   4.27305681  0.00000000  9.63652841
   6.40958522  6.40958522  9.63652841
   4.27305683  6.40947847 11.78543695
   6.40951372  8.54611330 11.78485775
   4.27305672  8.54611354 13.91019722
   6.40973551  6.40971338 13.90370463
   4.27305681  2.13652841  7.50000000
   6.40958522  4.27305681  7.50000000
   4.27305681  4.27305681  9.63652841
   6.40958522  2.13652841  9.63652841
   4.27305682  2.13663489 11.78543662
   6.40926703  4.27305684 11.78533071
   4.27305684  4.27305657 13.91123086
   6.40973569  2.13639977 13.90370387
   0.00000000  6.40958522  9.63652841
   2.13652841  0.00000000  9.63652841
   0.00000000  0.00000000  7.50000000
   2.13652841  6.40958522  7.50000000
   0.00000011  6.40948293 13.94828290
   2.13588829  8.54611351 13.94860872
   0.00000010  8.54611335 11.77802383
   2.13683134  6.40952349 11.77819816
   0.00000000  2.13652841  9.63652841
   2.13652841  4.27305681  9.63652841
   0.00000000  4.27305681  7.50000000
   2.13652841  2.13652841  7.50000000
   8.54611358  2.13663052 13.94828203
   2.13648621  4.27305647 13.94946698
   8.54611356  4.27305679 11.77842186
   2.13683128  2.13658981 11.77819787
   4.27305681  6.40958522  9.63652841
   6.40958522  0.00000000  9.63652841
   4.27305681  0.00000000  7.50000000
   6.40958522  6.40958522  7.50000000
   4.27305685  6.40984384 13.95039644
   6.41022519  8.54611339 13.94860888
   4.27305684  8.54611349 11.77982286
   6.40928225  6.40952349 11.77819835
   4.27305681  2.13652841  9.63652841
   6.40958522  4.27305681  9.63652841
   4.27305681  4.27305681  7.50000000
   6.40958522  2.13652841  7.50000000
   4.27305686  2.13626957 13.95039583
   6.40962719  4.27305656 13.94946693
   4.27305691  4.27305678 11.78019217
   6.40928228  2.13658982 11.77819788

--------------------------------------- Iteration      FINAL  ---------------------------------------

--------------------OUTCAR has been truncated-------------------------

[...]

--------------------OUTCAR has been truncated-------------------------

  FORCE on cell =-STRESS in cart. coord.  units (eV):
  Direction    XX          YY          ZZ          XY          YZ          ZX
  Alpha Z   850.71337   850.71337   850.71337
  Ewald  156252.83197156252.83681************     0.00000    -0.00006    -0.00002
  Hartree166397.12792166397.13114************    -0.00000    -0.00004    -0.00001
  E(xc)   -2461.09772 -2461.09772 -2469.13784     0.00000    -0.00000     0.00000
  Local  ************************332556.02236     0.00001     0.00010     0.00004
  n-local -2797.35360 -2797.35356 -2817.33305     0.00000    -0.00000    -0.00000
  augment  1046.92367  1046.92368  1037.81267    -0.00000    -0.00000    -0.00000
  Kinetic  7287.94572  7287.94559  7331.79144    -0.00000     0.00002    -0.00000
  Fock        0.00000     0.00000     0.00000     0.00000     0.00000     0.00000
  vdW       -20.34244   -20.34247   -15.36516    -0.00000     0.00000     0.00000
  Total     -46.46563   -46.46573   -15.50606    -0.00000     0.00001     0.00000
  in kB     -47.60985   -47.60995   -15.88790    -0.00000     0.00001     0.00000

 VOLUME and BASIS-vectors are now :
  energy-cutoff  :      600.00
  volume of cell :     1563.67
      direct lattice vectors                 reciprocal lattice vectors
     8.546113626  0.000000000  0.000000000     0.117012252  0.000000000  0.000000000
     0.000000000  8.546113626  0.000000000     0.000000000  0.117012252  0.000000000
     0.000000000  0.000000000 21.409585219     0.000000000  0.000000000  0.046708051

  length of vectors
     8.546113626  8.546113626 21.409585219     0.117012252  0.117012252  0.046708051

 FORCES acting on ions:
    Electron-Ion                     Ewald-Force                    Non-Local-Force
   0.951E-06 0.832E-02 0.201E+04   -.211E-05 -.853E-02 -.200E+04   -.393E-05 0.158E-03 -.709E+01
   -.243E-01 0.721E-05 0.201E+04   0.245E-01 -.470E-05 -.200E+04   -.174E-03 0.205E-05 -.709E+01
   0.177E-04 0.189E-04 0.664E+03   -.196E-04 -.182E-04 -.665E+03   0.280E-05 0.337E-06 0.484E+00
   -.869E-01 0.330E-01 0.664E+03   0.903E-01 -.349E-01 -.665E+03   -.241E-02 0.134E-02 0.497E+00
   0.345E-04 0.229E-01 -.669E+03   -.333E-04 -.277E-01 0.669E+03   -.301E-05 0.510E-02 -.336E+00
   -.124E+00 -.370E-05 -.669E+03   0.130E+00 0.153E-05 0.669E+03   -.488E-02 0.162E-05 -.340E+00
   0.556E-04 0.195E-04 -.200E+04   -.537E-04 -.239E-04 0.199E+04   -.217E-06 -.687E-06 0.627E+01
   0.213E-02 0.221E-01 -.199E+04   -.781E-02 -.189E-01 0.199E+04   0.557E-02 -.358E-02 0.626E+01
   -.363E-05 -.832E-02 0.201E+04   -.152E-05 0.853E-02 -.200E+04   0.509E-05 -.161E-03 -.709E+01
   -.226E-01 -.106E-04 0.201E+04   0.229E-01 0.474E-05 -.200E+04   -.225E-03 -.482E-05 -.709E+01
   -.845E-06 -.214E-04 0.664E+03   0.312E-07 0.201E-04 -.665E+03   0.121E-05 -.784E-07 0.489E+00
   -.869E-01 -.330E-01 0.664E+03   0.903E-01 0.349E-01 -.665E+03   -.241E-02 -.134E-02 0.497E+00
   0.122E-04 -.229E-01 -.669E+03   -.141E-04 0.277E-01 0.669E+03   0.594E-06 -.510E-02 -.336E+00
   -.260E-01 -.533E-05 -.669E+03   0.362E-01 0.898E-05 0.670E+03   -.105E-01 -.193E-05 -.337E+00
   -.846E-04 -.767E-04 -.200E+04   0.873E-04 0.766E-04 0.199E+04   0.277E-05 0.268E-05 0.627E+01
   0.204E-02 -.220E-01 -.199E+04   -.772E-02 0.188E-01 0.199E+04   0.557E-02 0.358E-02 0.626E+01
   0.373E-05 0.678E-02 0.201E+04   0.181E-05 -.702E-02 -.200E+04   -.258E-05 0.171E-03 -.709E+01
   0.243E-01 0.906E-05 0.201E+04   -.245E-01 -.524E-05 -.200E+04   0.179E-03 -.391E-06 -.709E+01
   -.678E-05 0.226E-04 0.664E+03   0.820E-05 -.218E-04 -.665E+03   -.397E-07 0.836E-06 0.509E+00
   0.869E-01 0.330E-01 0.664E+03   -.903E-01 -.349E-01 -.665E+03   0.242E-02 0.134E-02 0.497E+00
   0.218E-04 0.116E-01 -.669E+03   -.175E-04 -.126E-01 0.670E+03   -.331E-05 0.167E-02 -.329E+00
   0.124E+00 -.989E-05 -.669E+03   -.130E+00 0.860E-05 0.669E+03   0.489E-02 0.198E-05 -.340E+00
   -.249E-05 -.361E-04 -.200E+04   0.453E-05 0.377E-04 0.199E+04   -.211E-05 -.558E-05 0.629E+01
   -.220E-02 0.219E-01 -.199E+04   0.787E-02 -.188E-01 0.199E+04   -.556E-02 -.358E-02 0.626E+01
   -.181E-05 -.678E-02 0.201E+04   0.133E-05 0.702E-02 -.200E+04   0.451E-05 -.172E-03 -.709E+01
   0.227E-01 -.690E-05 0.201E+04   -.229E-01 0.522E-05 -.200E+04   0.222E-03 -.187E-05 -.709E+01
   0.326E-05 -.204E-04 0.664E+03   -.829E-06 0.196E-04 -.664E+03   -.151E-05 -.252E-05 0.515E+00
   0.869E-01 -.330E-01 0.664E+03   -.903E-01 0.349E-01 -.665E+03   0.241E-02 -.134E-02 0.497E+00
   0.172E-04 -.117E-01 -.669E+03   -.145E-04 0.126E-01 0.670E+03   -.123E-05 -.166E-02 -.329E+00
   0.260E-01 0.173E-04 -.669E+03   -.362E-01 -.149E-04 0.670E+03   0.106E-01 -.435E-05 -.337E+00
   0.933E-04 -.754E-05 -.200E+04   -.928E-04 0.134E-05 0.199E+04   0.711E-06 0.759E-05 0.629E+01
   -.209E-02 -.219E-01 -.199E+04   0.777E-02 0.188E-01 0.199E+04   -.556E-02 0.358E-02 0.626E+01
   0.126E-04 0.254E-01 0.498E+03   -.106E-04 -.247E-01 -.498E+03   -.731E-07 -.953E-03 -.907E-01
   -.859E-01 0.809E-05 0.498E+03   0.833E-01 -.861E-05 -.498E+03   0.385E-02 -.267E-05 -.936E-01
   0.118E-05 0.141E-05 0.151E+04   -.193E-05 -.380E-05 -.151E+04   0.414E-06 -.403E-06 0.343E+01
   -.172E-01 0.574E-02 0.151E+04   0.175E-01 -.599E-02 -.151E+04   -.396E-03 0.346E-03 0.343E+01
   0.124E-04 -.934E-02 -.151E+04   -.126E-04 0.120E-01 0.152E+04   0.929E-06 -.244E-02 -.485E+01
   -.831E-01 -.156E-04 -.151E+04   0.914E-01 0.141E-04 0.152E+04   -.503E-02 0.180E-05 -.485E+01
   0.550E-04 0.453E-05 -.496E+03   -.550E-04 -.565E-05 0.496E+03   -.985E-08 0.578E-07 0.279E+00
   -.299E-01 0.242E-01 -.496E+03   0.260E-01 -.224E-01 0.496E+03   0.234E-02 -.187E-02 0.340E+00
   0.440E-05 -.254E-01 0.498E+03   -.468E-05 0.247E-01 -.498E+03   0.317E-06 0.949E-03 -.907E-01
   -.712E-01 -.125E-04 0.498E+03   0.677E-01 0.144E-04 -.498E+03   0.497E-02 -.686E-06 -.981E-01
   0.411E-05 0.155E-05 0.151E+04   -.786E-06 0.379E-05 -.151E+04   -.116E-05 -.913E-06 0.343E+01
   -.172E-01 -.574E-02 0.151E+04   0.175E-01 0.599E-02 -.151E+04   -.391E-03 -.347E-03 0.343E+01
   0.351E-05 0.939E-02 -.151E+04   -.247E-06 -.120E-01 0.152E+04   -.520E-06 0.244E-02 -.485E+01
   0.566E-01 -.404E-04 -.151E+04   -.564E-01 0.434E-04 0.152E+04   -.827E-03 -.170E-05 -.485E+01
   -.350E-04 -.276E-05 -.497E+03   0.384E-04 0.571E-05 0.496E+03   -.310E-05 0.226E-05 0.276E+00
   -.299E-01 -.242E-01 -.496E+03   0.260E-01 0.224E-01 0.496E+03   0.234E-02 0.188E-02 0.340E+00
   -.512E-05 0.178E-01 0.498E+03   0.448E-05 -.171E-01 -.498E+03   0.116E-05 -.998E-03 -.979E-01
   0.859E-01 0.138E-04 0.498E+03   -.833E-01 -.110E-04 -.498E+03   -.385E-02 -.295E-05 -.936E-01
   -.450E-05 0.291E-05 0.151E+04   0.163E-05 -.383E-05 -.151E+04   0.196E-05 0.192E-05 0.343E+01
   0.172E-01 0.574E-02 0.151E+04   -.175E-01 -.599E-02 -.151E+04   0.393E-03 0.347E-03 0.343E+01
   0.403E-04 0.164E-01 -.151E+04   -.384E-04 -.212E-01 0.152E+04   0.107E-05 0.418E-02 -.485E+01
   0.830E-01 -.213E-04 -.151E+04   -.913E-01 0.169E-04 0.152E+04   0.503E-02 0.380E-05 -.485E+01
   0.715E-05 0.109E-04 -.497E+03   -.469E-05 -.893E-05 0.497E+03   -.181E-05 -.140E-05 0.260E+00
   0.298E-01 0.242E-01 -.496E+03   -.260E-01 -.224E-01 0.496E+03   -.234E-02 -.188E-02 0.340E+00
   -.174E-05 -.178E-01 0.498E+03   0.216E-05 0.171E-01 -.498E+03   -.671E-06 0.997E-03 -.979E-01
   0.712E-01 -.130E-04 0.498E+03   -.677E-01 0.149E-04 -.498E+03   -.497E-02 -.570E-06 -.981E-01
   -.248E-05 0.241E-06 0.151E+04   0.718E-06 0.375E-05 -.151E+04   -.169E-05 -.193E-05 0.343E+01
   0.172E-01 -.574E-02 0.151E+04   -.175E-01 0.599E-02 -.151E+04   0.394E-03 -.347E-03 0.343E+01
   0.395E-04 -.163E-01 -.151E+04   -.408E-04 0.212E-01 0.152E+04   0.410E-05 -.418E-02 -.485E+01
   -.566E-01 0.137E-04 -.151E+04   0.563E-01 -.134E-04 0.152E+04   0.835E-03 -.660E-06 -.485E+01
   0.314E-04 0.902E-05 -.497E+03   -.309E-04 -.945E-05 0.497E+03   -.783E-06 0.327E-05 0.252E+00
   0.299E-01 -.242E-01 -.496E+03   -.260E-01 0.224E-01 0.496E+03   -.234E-02 0.188E-02 0.340E+00
   -.441E-05 0.949E-05 0.150E+02   -.336E-12 -.683E-13 -.114E-11   0.387E-04 -.245E-04 -.150E+02

 POSITION                                       TOTAL-FORCE (eV/Angst)
      0.00000      6.40959      7.50000        -0.000006     -0.000052      0.503256
      2.13653      0.00000      7.50000         0.000046      0.000005      0.503284
      0.00000      0.00000      9.63653         0.000000      0.000001      0.054302
      2.13653      6.40959      9.63653         0.000898     -0.000526      0.052857
      0.00000      6.40942     11.78453        -0.000002      0.000304     -0.031916
      2.13660      8.54611     11.78486         0.001253     -0.000000     -0.032718
      0.00000      8.54611     13.90805         0.000001     -0.000005     -0.173675
      2.13638      6.40971     13.90370        -0.000147     -0.000408     -0.145642
      0.00000      2.13653      7.50000        -0.000001      0.000050      0.503249
      2.13653      4.27306      7.50000         0.000054     -0.000011      0.503441
      0.00000      4.27306      9.63653        -0.000000     -0.000001      0.055121
      2.13653      2.13653      9.63653         0.000896      0.000526      0.052859
      8.54611      2.13669     11.78453        -0.000002     -0.000304     -0.031920
      2.13685      4.27306     11.78533        -0.000294      0.000002     -0.034331
      8.54611      4.27306     13.90884         0.000005      0.000003     -0.176050
      2.13638      2.13640     13.90370        -0.000144      0.000406     -0.145636
      4.27306      6.40959      7.50000         0.000002     -0.000063      0.503367
      6.40959      0.00000      7.50000        -0.000041      0.000004      0.503280
      4.27306      0.00000      9.63653         0.000001      0.000002      0.057126
      6.40959      6.40959      9.63653        -0.000896     -0.000526      0.052862
      4.27306      6.40948     11.78544         0.000000      0.000696     -0.032866
      6.40951      8.54611     11.78486        -0.001254      0.000001     -0.032723
      4.27306      8.54611     13.91020        -0.000001     -0.000004     -0.180852
      6.40974      6.40971     13.90370         0.000149     -0.000407     -0.145641
      4.27306      2.13653      7.50000         0.000004      0.000061      0.503375
      6.40959      4.27306      7.50000        -0.000057     -0.000003      0.503436
      4.27306      4.27306      9.63653         0.000000     -0.000003      0.057171
      6.40959      2.13653      9.63653        -0.000896      0.000526      0.052858
      4.27306      2.13663     11.78544         0.000001     -0.000696     -0.032865
      6.40927      4.27306     11.78533         0.000291     -0.000002     -0.034330
      4.27306      4.27306     13.91123         0.000001      0.000002     -0.183994
      6.40974      2.13640     13.90370         0.000144      0.000408     -0.145645
      0.00000      6.40959      9.63653         0.000001     -0.000227      0.058096
      2.13653      0.00000      9.63653         0.001227     -0.000003      0.058797
      0.00000      0.00000      7.50000        -0.000001     -0.000003     -0.348377
      2.13653      6.40959      7.50000        -0.000119      0.000101     -0.348456
      0.00000      6.40948     13.94828         0.000000      0.000176     -0.059599
      2.13589      8.54611     13.94861         0.003180      0.000001     -0.058584
      0.00000      8.54611     11.77802        -0.000000     -0.000001     -0.008084
      2.13683      6.40952     11.77820        -0.001511     -0.000093     -0.012460
      0.00000      2.13653      9.63653        -0.000000      0.000225      0.058097
      2.13653      4.27306      9.63653         0.001407      0.000001      0.059567
      0.00000      4.27306      7.50000         0.000002      0.000005     -0.348479
      2.13653      2.13653      7.50000        -0.000116     -0.000101     -0.348456
      8.54611      2.13663     13.94828         0.000002     -0.000177     -0.059598
      2.13649      4.27306     13.94947        -0.000518      0.000002     -0.060855
      8.54611      4.27306     11.77842        -0.000000      0.000005     -0.008519
      2.13683      2.13659     11.77820        -0.001507      0.000094     -0.012458
      4.27306      6.40959      9.63653        -0.000000     -0.000259      0.060161
      6.40959      0.00000      9.63653        -0.001228      0.000000      0.058798
      4.27306      0.00000      7.50000        -0.000001      0.000001     -0.348432
      6.40959      6.40959      7.50000         0.000113      0.000100     -0.348452
      4.27306      6.40984     13.95040         0.000002     -0.000669     -0.062963
      6.41023      8.54611     13.94861        -0.003182     -0.000000     -0.058584
      4.27306      8.54611     11.77982         0.000000      0.000001     -0.017730
      6.40928      6.40952     11.77820         0.001507     -0.000093     -0.012459
      4.27306      2.13653      9.63653        -0.000001      0.000258      0.060163
      6.40959      4.27306      9.63653        -0.001407      0.000002      0.059569
      4.27306      4.27306      7.50000        -0.000004      0.000002     -0.348552
      6.40959      2.13653      7.50000         0.000119     -0.000099     -0.348454
      4.27306      2.13627     13.95040         0.000002      0.000668     -0.062965
      6.40963      4.27306     13.94947         0.000520     -0.000000     -0.060854
      4.27306      4.27306     11.78019        -0.000001      0.000003     -0.018462
      6.40928      2.13659     11.77820         0.001508      0.000095     -0.012456
    total drift:                                0.000034     -0.000015      0.006078

  FREE ENERGIE OF THE ION-ELECTRON SYSTEM (eV)
  free  energy   TOTEN  =      -370.45296941 eV

  energy  without entropy=     -370.45296941  energy(sigma->0) =     -370.45296941