 vasp.6.4.2 20Jul23 (build Feb 22 2024 13:53:45) complex
 executed on              LinuxNV date 2024.08.27  19:47:40
 OpenACC runtime initialized ...    4 GPUs detected

 INCAR:
   SYSTEM = Oxide-Surface
   ISMEAR = 0
   SIGMA = 0.05
   EDIFF = 1E-5
   ALGO = Normal
   IBRION = -1
   NSW = 0
   ISYM = 0
   DIPOL = 0.5 0.5 0.5
   IDIPOL = 3
   LDIPOL = .TRUE.
   ISTART = 0
   LHFCALC = .FALSE.
   GGA = PE
   IVDW = 21
   VDW_SR = 0.96
   HFRCUT = -1
   ENCUT = 520
   PREC = Normal
   PRECFOCK = Normal
   LASPH = .TRUE.
   LREAL = Auto
   ISPIN = 1
   NELM = 200
   NELMIN = 8
   NCORE = 1
   KPAR = 1
   LWAVE = .TRUE.
   LCHARG = .FALSE.

 POTCAR:    PAW_PBE Mg_pv 13Apr2007
 POTCAR:    PAW_PBE O 08Apr2002
 POTCAR:    PAW_PBE Mg_pv 13Apr2007
   VRHFIN =Mg: p6s2

   TITEL  = PAW_PBE Mg_pv 13Apr2007
   POMASS =   24.305; ZVAL   =    8.000    mass and valenz
   ENMAX  =  403.929; ENMIN  =  302.947 eV

   TITEL  = PAW_PBE O 08Apr2002
   POMASS =   16.000; ZVAL   =    6.000    mass and valenz
   ENMAX  =  400.000; ENMIN  =  300.000 eV

 Optimization of the real space projectors (new method)

 maximal supplied QI-value         = 18.90
 optimisation between [QCUT,QGAM] = [ 11.53, 23.24] = [ 37.21,151.29] Ry
 Optimized for a Real-space Cutoff    1.21 Angstroem

   l    n(q)    QCUT    max X(q) W(low)/X(q) W(high)/X(q)  e(spline)
   1      8    11.527     2.974    0.16E-03    0.13E-03    0.98E-07
   1      8    11.527     4.279    0.42E-03    0.30E-03    0.22E-06
   0      8    11.527    16.381    0.13E-03    0.20E-03    0.72E-07
   0      8    11.527     5.611    0.88E-04    0.13E-03    0.50E-07
   2      7    11.527     4.652    0.25E-03    0.73E-04    0.51E-07
 Optimization of the real space projectors (new method)

 maximal supplied QI-value         = 24.76
 optimisation between [QCUT,QGAM] = [ 11.64, 23.27] = [ 37.91,151.63] Ry
 Optimized for a Real-space Cutoff    1.04 Angstroem

   l    n(q)    QCUT    max X(q) W(low)/X(q) W(high)/X(q)  e(spline)
   0      7    11.635    20.381    0.14E-03    0.49E-03    0.18E-06
   0      7    11.635    15.268    0.16E-03    0.52E-03    0.19E-06
   1      7    11.635     5.964    0.30E-03    0.44E-03    0.22E-06
   1      7    11.635     5.382    0.27E-03    0.34E-03    0.19E-06
  PAW_PBE Mg_pv 13Apr2007               :
  PAW_PBE O 08Apr2002                   :

 POSCAR: Mg  O
  positions in direct lattice
 exchange correlation table for  LEXCH =        8
   RHO(1)=    0.500       N(1)  =     2000
   RHO(2)=  100.500       N(2)  =     4000

 ion  position               nearest neighbor table
   1  0.000  0.750  0.239-  33 2.11  43 2.11  52 2.11  35 2.11  36 2.11
   2  0.250  0.000  0.239-  34 2.11  44 2.11  51 2.11  35 2.11  36 2.11
   3  0.000  0.000  0.364-  35 2.11  41 2.11  50 2.11  34 2.11  33 2.11  39 2.11
   4  0.250  0.750  0.364-  36 2.11  42 2.11  49 2.11  34 2.11  33 2.11  40 2.12
   5  0.000  0.750  0.488-  47 2.11  39 2.11  40 2.11  33 2.12  56 2.12  37 2.15
   6  0.250  0.000  0.488-  48 2.11  40 2.11  55 2.11  39 2.11  34 2.12  38 2.15
   7  0.000  0.000  0.612-  45 2.10  38 2.10  54 2.11  39 2.11  37 2.11
   8  0.248  0.750  0.612-  37 2.09  40 2.10  46 2.11  38 2.11  53 2.13
   9  0.000  0.250  0.239-  41 2.11  43 2.11  35 2.11  60 2.11  44 2.11
  10  0.250  0.500  0.239-  42 2.11  44 2.11  36 2.11  59 2.11  43 2.11
  11  0.000  0.500  0.364-  43 2.11  41 2.11  33 2.11  58 2.11  42 2.11  47 2.11
  12  0.250  0.250  0.364-  44 2.11  42 2.11  34 2.11  57 2.11  41 2.11  48 2.12
  13  0.000  0.250  0.488-  48 2.11  47 2.11  64 2.11  39 2.11  41 2.12  45 2.15
  14  0.251  0.500  0.489-  63 2.11  48 2.11  40 2.11  46 2.12  47 2.12  42 2.13
  15  0.001  0.500  0.612-  46 2.09  62 2.10  47 2.11  45 2.11  37 2.12
  16  0.249  0.250  0.612-  45 2.10  38 2.11  48 2.11  46 2.11  61 2.12
  17  0.500  0.750  0.239-  49 2.11  52 2.11  36 2.11  59 2.11  51 2.11
  18  0.750  0.000  0.239-  50 2.11  51 2.11  35 2.11  60 2.11  52 2.11
  19  0.500  0.000  0.364-  51 2.11  50 2.11  34 2.11  57 2.11  49 2.11  55 2.12
  20  0.750  0.750  0.364-  52 2.11  49 2.11  33 2.11  58 2.11  50 2.11  56 2.12
  21  0.500  0.749  0.489-  63 2.10  40 2.10  56 2.11  55 2.11  49 2.13  53 2.20
  22  0.750  0.000  0.488-  64 2.11  55 2.11  39 2.11  56 2.11  50 2.12  54 2.15
  23  0.500  0.002  0.612-  61 2.07  53 2.09  55 2.11  38 2.11  54 2.12
  24  0.753  0.751  0.611-  56 2.08  37 2.09  54 2.10  62 2.11  53 2.13
  25  0.500  0.250  0.239-  57 2.11  59 2.11  60 2.11  51 2.11  44 2.11
  26  0.750  0.500  0.239-  58 2.11  59 2.11  60 2.11  52 2.11  43 2.11
  27  0.500  0.500  0.364-  59 2.11  58 2.11  57 2.11  49 2.11  42 2.11  63 2.14
  28  0.750  0.250  0.364-  60 2.11  58 2.11  57 2.11  50 2.11  41 2.11  64 2.12
  29  0.500  0.251  0.489-  48 2.11  63 2.11  64 2.11  55 2.12  57 2.13  61 2.14
  30  0.749  0.500  0.489-  63 2.10  64 2.11  56 2.11  47 2.12  58 2.13  62 2.15
  31  0.498  0.494  0.618-  61 2.08  46 2.11  62 2.14  63 2.19  53 2.20
  32  0.751  0.250  0.612-  45 2.10  64 2.10  54 2.11  61 2.12  62 2.12
  33  0.000  0.750  0.364-   1 2.11  11 2.11  20 2.11   3 2.11   4 2.11   5 2.12
  34  0.250  0.000  0.364-   2 2.11  12 2.11  19 2.11   3 2.11   4 2.11   6 2.12
  35  0.000  0.000  0.239-   3 2.11   9 2.11  18 2.11   2 2.11   1 2.11
  36  0.250  0.750  0.239-   4 2.11  10 2.11  17 2.11   2 2.11   1 2.11
  37  1.000  0.750  0.615-  24 2.09   8 2.09   7 2.11  15 2.12   5 2.15
  38  0.249  1.000  0.615-   7 2.10  16 2.11   8 2.11  23 2.11   6 2.15
  39  1.000  1.000  0.488-   7 2.11   5 2.11  22 2.11   6 2.11  13 2.11   3 2.11
  40  0.251  0.750  0.488-   8 2.10  21 2.10   6 2.11   5 2.11  14 2.11   4 2.12
  41  0.000  0.250  0.364-   9 2.11  11 2.11   3 2.11  28 2.11  12 2.11  13 2.12
  42  0.250  0.500  0.364-  10 2.11  12 2.11   4 2.11  27 2.11  11 2.11  14 2.13
  43  0.000  0.500  0.239-  11 2.11   9 2.11   1 2.11  26 2.11  10 2.11
  44  0.250  0.250  0.239-  12 2.11  10 2.11   2 2.11  25 2.11   9 2.11
  45  1.000  0.250  0.615-  32 2.10   7 2.10  16 2.10  15 2.11  13 2.15
  46  0.248  0.500  0.613-  15 2.09   8 2.11  31 2.11  16 2.11  14 2.12
  47  1.000  0.500  0.488-   5 2.11  15 2.11  13 2.11  11 2.11  30 2.12  14 2.12
  48  0.250  0.250  0.488-   6 2.11  29 2.11  13 2.11  14 2.11  16 2.11  12 2.12
  49  0.500  0.750  0.364-  17 2.11  20 2.11   4 2.11  27 2.11  19 2.11  21 2.13
  50  0.750  0.000  0.364-  18 2.11  19 2.11   3 2.11  28 2.11  20 2.11  22 2.12
  51  0.500  0.000  0.239-  19 2.11  18 2.11   2 2.11  25 2.11  17 2.11
  52  0.750  0.750  0.239-  20 2.11  17 2.11   1 2.11  26 2.11  18 2.11
  53  0.500  0.754  0.618-  23 2.09   8 2.13  24 2.13  21 2.20  31 2.20
  54  0.751  1.000  0.615-  24 2.10   7 2.11  32 2.11  23 2.12  22 2.15
  55  0.500  0.999  0.488-  23 2.11  22 2.11   6 2.11  21 2.11  19 2.12  29 2.12
  56  0.749  0.750  0.488-  24 2.08  21 2.11  22 2.11  30 2.11   5 2.12  20 2.12
  57  0.500  0.250  0.364-  25 2.11  27 2.11  28 2.11  19 2.11  12 2.11  29 2.13
  58  0.750  0.500  0.364-  26 2.11  27 2.11  28 2.11  20 2.11  11 2.11  30 2.13
  59  0.500  0.500  0.239-  27 2.11  26 2.11  25 2.11  17 2.11  10 2.11
  60  0.750  0.250  0.239-  28 2.11  26 2.11  25 2.11  18 2.11   9 2.11
  61  0.500  0.248  0.615-  23 2.07  31 2.08  32 2.12  16 2.12  29 2.14
  62  0.752  0.500  0.615-  15 2.10  24 2.11  32 2.12  31 2.14  30 2.15
  63  0.500  0.501  0.489-  21 2.10  30 2.10  14 2.11  29 2.11  27 2.14  31 2.19
  64  0.750  0.250  0.488-  32 2.10  22 2.11  30 2.11  29 2.11  13 2.11  28 2.12

IMPORTANT INFORMATION: All symmetrisations will be switched off!
NOSYMM: (Re-)initialisation of all symmetry stuff for point group C_1.

                                     Primitive cell

  volume of cell :    1211.2538

  direct lattice vectors                    reciprocal lattice vectors
     8.440984654  0.000000000  0.000000000     0.118469591  0.000000000  0.000000000
     0.000000000  8.440984654  0.000000000     0.000000000  0.118469591  0.000000000
     0.000000000  0.000000000 17.000000000     0.000000000  0.000000000  0.058823529

  length of vectors
     8.440984654  8.440984654 17.000000000     0.118469591  0.118469591  0.058823529

  position of ions in fractional coordinates (direct lattice)
     0.000084749  0.750056171  0.239446159
     0.250084749  0.000056171  0.239446159
     0.000084749  0.000056171  0.363578286
     0.250084749  0.750056171  0.363578286
     0.000292034  0.749824964  0.488119943
     0.250127698  0.000181851  0.488431874
     0.000158555  0.000466213  0.612094268
     0.247767905  0.749974041  0.611893376
     0.000084749  0.250056171  0.239446159
     0.250084749  0.500056171  0.239446159
     0.000084749  0.500056171  0.363578286
     0.250084749  0.250056171  0.363578286
     0.000116012  0.250196651  0.488268359
     0.250770752  0.499798843  0.488884857
     0.000510418  0.499570052  0.611813977
     0.249067721  0.249912005  0.612281031
     0.500084749  0.750056171  0.239446159
     0.750084749  0.000056171  0.239446159
     0.500084749  0.000056171  0.363578286
     0.750084749  0.750056171  0.363578286
     0.499810778  0.749036438  0.488828048
     0.749862546  0.000340508  0.488298782
     0.499761848  0.002048857  0.612169767
     0.752549470  0.750728058  0.610753521
     0.500084749  0.250056171  0.239446159
     0.750084749  0.500056171  0.239446159
     0.500084749  0.500056171  0.363578286
     0.750084749  0.250056171  0.363578286
     0.499866424  0.250603695  0.488721432
     0.749099841  0.499734903  0.488964189
     0.498205335  0.493574688  0.618100110
     0.750753975  0.249613073  0.611923847
     0.000084749  0.750056171  0.363578286
     0.250084749  0.000056171  0.363578286
     0.000084749  0.000056171  0.239446159
     0.250084749  0.750056171  0.239446159
     0.999857188  0.750394105  0.614566772
     0.249346556  0.999943829  0.614781797
     0.999915251  0.999830927  0.487959860
     0.250643896  0.750289407  0.488342652
     0.000084749  0.250056171  0.363578286
     0.250084749  0.500056171  0.363578286
     0.000084749  0.500056171  0.239446159
     0.250084749  0.250056171  0.239446159
     0.999828427  0.249634011  0.614770607
     0.248265660  0.500148340  0.613489608
     0.999666695  0.500164134  0.487824047
     0.249993932  0.249673109  0.488045416
     0.500084749  0.750056171  0.363578286
     0.750084749  0.000056171  0.363578286
     0.500084749  0.000056171  0.239446159
     0.750084749  0.750056171  0.239446159
     0.500208490  0.754444867  0.617976523
     0.750578969  0.999922121  0.614742452
     0.500080035  0.999350643  0.488242651
     0.749413318  0.750087637  0.488265164
     0.500084749  0.250056171  0.363578286
     0.750084749  0.500056171  0.363578286
     0.500084749  0.500056171  0.239446159
     0.750084749  0.250056171  0.239446159
     0.500099799  0.247787997  0.614504174
     0.751766757  0.500350148  0.615182713
     0.500235346  0.500508510  0.489332342
     0.749985949  0.249943297  0.488132887

  ion indices of the primitive-cell ions
   primitive index   ion index
                 1           1
                 2           2
                 3           3
                 4           4
                 5           5
                 6           6
[...]
   O         181.746          4.808         18.432          3.41325182
   O         166.432          4.738         17.638          3.26629200
   O         166.231          4.738         17.627          3.26431279
   O         166.394          4.738         17.636          3.26592039
   O         161.676          4.716         17.384          3.21927846
   O         184.077          4.819         18.549          3.43507525
   O         186.740          4.830         18.683          3.45982774

  vdW correction parametrized for the method °    þ

  IVDW =  21
  VDW_RADIUS =    50.000 A
  VDW_IDAMPF =  0
  VDW_S6 =     1.000
  VDW_SR =     0.960
  VDW_D =    20.000
  LVDW_ONECELL = F F F
  LVDW_SAMETYPE T T
  LVDW_EWALD = F

  Number of pair interactions contributing to vdW energy:  892086
  Edisp (eV):   -3.55243

  FORCE on cell =-STRESS in cart. coord.  units (eV):
  Direction    XX          YY          ZZ          XY          YZ          ZX
  Alpha Z  1098.23100  1098.23100  1098.23100
  Ewald   86187.52445 86190.64225************    -0.49769     1.06191     0.23419
  Hartree 96827.02968 96828.63326-90411.40274    -0.31933     0.27468     0.08520
  E(xc)   -2456.51265 -2456.50825 -2461.77144    -0.00052    -0.00097    -0.00077
  Local  ************************193064.06980     0.82053    -1.18425    -0.28651
  n-local -2809.61853 -2809.54584 -2830.30657    -0.00809    -0.01132    -0.02896
  augment  1047.56079  1047.56690  1038.07090    -0.00271    -0.02162    -0.00676
  Kinetic  7300.99303  7300.96387  7342.52711     0.00245    -0.05367     0.07702
  Fock        0.00000     0.00000     0.00000     0.00000     0.00000     0.00000
  vdW        -5.05627    -5.05610    -3.45211     0.00010    -0.00078     0.00077
  Total     -21.15084   -21.02020     3.89876    -0.00526     0.06397     0.07418
  in kB     -27.97713   -27.80433     5.15706    -0.00696     0.08461     0.09812

 VOLUME and BASIS-vectors are now :
  energy-cutoff  :      520.00
  volume of cell :     1211.25
      direct lattice vectors                 reciprocal lattice vectors
     8.440984654  0.000000000  0.000000000     0.118469591  0.000000000  0.000000000
     0.000000000  8.440984654  0.000000000     0.000000000  0.118469591  0.000000000
     0.000000000  0.000000000 17.000000000     0.000000000  0.000000000  0.058823529

  length of vectors
     8.440984654  8.440984654 17.000000000     0.118469591  0.118469591  0.058823529

 FORCES acting on ions
    electron-ion (+dipol)            ewald-force                    non-local-force                 convergence-correction
   0.166E-01 0.202E+00 0.172E+04   -.170E-01 -.203E+00 -.171E+04   -.175E-04 0.582E-03 -.702E+01   0.561E-04 -.306E-04 -.109E-02
   -.292E+00 0.116E+00 0.172E+04   0.295E+00 -.118E+00 -.171E+04   -.238E-02 0.155E-02 -.705E+01   -.137E-04 -.697E-04 -.107E-02
   -.303E-01 0.270E+00 0.569E+03   0.376E-01 -.260E+00 -.569E+03   -.555E-02 -.697E-02 0.444E+00   -.363E-05 0.543E-05 -.101E-03
   -.150E+01 0.112E+01 0.566E+03   0.158E+01 -.112E+01 -.567E+03   -.585E-01 -.206E-03 0.556E+00   -.278E-06 0.549E-05 -.372E-03
   0.339E+00 0.848E+00 -.570E+03   -.292E+00 -.820E+00 0.570E+03   -.540E-01 -.724E-02 -.120E+00   -.661E-04 0.246E-04 -.866E-04
   -.188E+01 0.181E+01 -.573E+03   0.196E+01 -.187E+01 0.573E+03   -.626E-01 0.183E-01 -.267E+00   -.896E-04 0.114E-04 -.383E-03
   0.444E+00 0.125E+01 -.171E+04   -.452E+00 -.117E+01 0.170E+04   -.110E-01 -.999E-01 0.600E+01   -.277E-04 -.663E-04 0.224E-03
   -.111E+02 0.314E+01 -.170E+04   0.113E+02 -.265E+01 0.170E+04   0.760E-01 -.374E+00 0.598E+01   -.550E-05 0.143E-03 0.317E-03
   0.213E-01 -.202E+00 0.172E+04   -.224E-01 0.203E+00 -.171E+04   0.565E-03 -.666E-03 -.704E+01   0.896E-05 0.326E-04 -.109E-02
   -.370E+00 -.116E+00 0.172E+04   0.377E+00 0.118E+00 -.171E+04   -.558E-02 -.160E-02 -.704E+01   0.281E-04 0.607E-04 -.106E-02
   0.775E-01 -.288E+00 0.568E+03   -.112E+00 0.274E+00 -.569E+03   0.252E-01 0.961E-02 0.417E+00   0.230E-04 -.867E-05 -.755E-04
   -.133E+01 -.113E+01 0.568E+03   0.134E+01 0.113E+01 -.569E+03   -.587E-02 0.325E-02 0.519E+00   -.157E-04 0.266E-06 -.251E-03
   0.481E+00 -.737E+00 -.572E+03   -.479E+00 0.715E+00 0.572E+03   -.126E-01 0.173E-03 -.815E-01   0.206E-04 -.595E-05 -.167E-03
   -.475E+01 -.218E+01 -.573E+03   0.508E+01 0.224E+01 0.574E+03   -.299E+00 -.276E-01 -.543E+00   -.401E-04 -.220E-05 -.428E-03
   0.223E+01 -.133E+01 -.170E+04   -.249E+01 0.126E+01 0.170E+04   0.148E+00 0.924E-01 0.598E+01   -.123E-03 0.493E-04 0.170E-03
   -.159E+01 -.106E+01 -.171E+04   0.923E+00 0.488E+00 0.170E+04   0.571E+00 0.431E+00 0.626E+01   -.146E-03 -.135E-03 0.305E-03
   -.162E-01 0.279E+00 0.172E+04   0.164E-01 -.285E+00 -.171E+04   -.291E-03 0.414E-02 -.707E+01   -.451E-04 -.686E-04 -.107E-02
   0.291E+00 0.111E+00 0.172E+04   -.294E+00 -.113E+00 -.171E+04   0.231E-02 0.971E-03 -.704E+01   0.845E-05 -.106E-04 -.108E-02
   0.209E-01 0.500E+00 0.567E+03   -.354E-01 -.558E+00 -.567E+03   0.101E-01 0.414E-01 0.471E+00   0.108E-04 0.443E-05 -.145E-03
   0.147E+01 0.122E+01 0.566E+03   -.155E+01 -.126E+01 -.567E+03   0.598E-01 0.284E-01 0.541E+00   -.648E-05 0.278E-04 -.221E-03
   -.490E+00 0.509E+01 -.589E+03   0.450E+00 -.525E+01 0.589E+03   0.488E-01 0.183E+00 -.141E-01   0.794E-04 -.548E-04 -.540E-03
   0.191E+01 0.166E+01 -.572E+03   -.198E+01 -.167E+01 0.572E+03   0.598E-01 -.205E-01 -.270E+00   0.807E-04 -.862E-04 -.344E-03
   -.526E+00 0.632E+01 -.170E+04   0.544E+00 -.727E+01 0.170E+04   0.582E-02 0.623E+00 0.570E+01   0.306E-04 -.241E-03 0.352E-03
   0.124E+02 0.619E+01 -.170E+04   -.125E+02 -.592E+01 0.169E+04   -.123E+00 -.276E+00 0.574E+01   -.708E-05 0.612E-04 0.296E-03
   -.219E-01 -.282E+00 0.172E+04   0.225E-01 0.286E+00 -.171E+04   -.658E-03 -.371E-02 -.703E+01   0.643E-05 0.742E-04 -.105E-02
   0.368E+00 -.111E+00 0.172E+04   -.376E+00 0.112E+00 -.171E+04   0.576E-02 -.121E-02 -.706E+01   -.416E-04 0.113E-04 -.109E-02
   -.996E-01 -.500E+00 0.562E+03   0.122E+00 0.542E+00 -.563E+03   -.170E-01 -.316E-01 0.718E+00   -.114E-04 -.633E-05 -.488E-03
   0.131E+01 -.124E+01 0.568E+03   -.133E+01 0.128E+01 -.568E+03   0.104E-01 -.281E-01 0.539E+00   0.332E-05 -.243E-04 -.266E-03
   -.545E+00 -.353E+01 -.573E+03   0.546E+00 0.370E+01 0.573E+03   0.106E-01 -.172E+00 -.128E+00   -.146E-04 0.193E-04 -.231E-03
   0.508E+01 -.208E+01 -.580E+03   -.541E+01 0.211E+01 0.580E+03   0.301E+00 0.810E-02 -.340E+00   0.369E-04 0.823E-04 -.381E-03
   -.554E+01 -.232E+02 -.173E+04   0.563E+01 0.230E+02 0.173E+04   0.959E-01 0.852E+00 0.678E+01   0.108E-03 0.195E-03 0.271E-03
   0.191E+01 -.349E+01 -.170E+04   -.128E+01 0.317E+01 0.170E+04   -.539E+00 0.284E+00 0.610E+01   0.151E-03 -.466E-04 0.339E-03
   0.917E-01 0.486E+00 0.426E+03   -.101E+00 -.485E+00 -.426E+03   0.872E-02 -.801E-03 0.109E-01   0.819E-05 0.145E-04 0.241E-03
   -.853E+00 0.462E+00 0.426E+03   0.863E+00 -.466E+00 -.426E+03   -.162E-01 0.353E-02 -.912E-01   -.200E-04 -.880E-05 0.233E-03
   0.670E-02 0.699E-01 0.129E+04   -.545E-02 -.689E-01 -.130E+04   -.669E-03 -.612E-03 0.349E+01   0.546E-05 -.292E-05 -.861E-03
   -.256E+00 0.179E+00 0.129E+04   0.265E+00 -.179E+00 -.130E+04   -.125E-01 0.127E-02 0.348E+01   0.774E-05 -.357E-05 -.942E-03
   0.667E-01 0.126E+01 -.130E+04   -.154E+00 -.124E+01 0.130E+04   0.142E+00 -.599E-01 -.512E+01   -.128E-04 0.437E-04 -.195E-04
   -.195E+01 0.198E+01 -.130E+04   0.228E+01 -.233E+01 0.130E+04   -.383E+00 0.477E+00 -.506E+01   -.353E-04 -.262E-04 0.182E-04
   -.241E-01 0.272E+00 -.424E+03   0.111E-01 -.292E+00 0.424E+03   0.213E-01 0.384E-01 0.177E+00   -.716E-05 -.224E-04 -.151E-03
   -.354E+01 0.164E+01 -.426E+03   0.361E+01 -.161E+01 0.426E+03   -.149E+00 -.706E-01 0.323E+00   -.299E-04 0.106E-04 -.164E-03
   0.106E+00 -.488E+00 0.426E+03   -.105E+00 0.492E+00 -.426E+03   -.514E-02 -.802E-02 -.312E-01   0.295E-05 -.587E-05 0.242E-03
   -.132E+01 -.474E+00 0.424E+03   0.129E+01 0.484E+00 -.423E+03   0.482E-01 -.134E-01 -.116E+00   0.163E-04 0.393E-05 0.207E-03
   0.185E-01 -.697E-01 0.129E+04   -.214E-01 0.690E-01 -.130E+04   0.519E-02 0.182E-02 0.349E+01   0.914E-05 0.139E-05 -.916E-03
   -.235E+00 -.179E+00 0.129E+04   0.238E+00 0.179E+00 -.130E+04   -.224E-02 -.190E-04 0.349E+01   0.539E-05 0.119E-04 -.900E-03
   0.494E+00 -.117E+01 -.130E+04   -.614E+00 0.115E+01 0.130E+04   0.166E+00 0.786E-01 -.499E+01   -.166E-04 -.321E-04 -.126E-04
   -.545E+01 -.372E+01 -.129E+04   0.539E+01 0.413E+01 0.129E+04   0.229E+00 -.537E+00 -.403E+01   0.294E-04 0.236E-04 0.320E-04
   0.633E+00 -.334E+00 -.422E+03   -.672E+00 0.351E+00 0.422E+03   0.695E-01 -.365E-01 0.429E+00   -.152E-04 0.143E-04 -.141E-03
   -.149E+01 -.139E+01 -.424E+03   0.146E+01 0.136E+01 0.424E+03   0.359E-01 0.595E-01 0.370E+00   -.384E-04 -.937E-05 -.198E-03
   -.874E-01 0.952E+00 0.423E+03   0.989E-01 -.894E+00 -.423E+03   -.175E-01 -.788E-01 -.172E+00   -.316E-06 -.208E-04 0.244E-03
   0.834E+00 0.443E+00 0.426E+03   -.834E+00 -.457E+00 -.426E+03   -.165E-02 0.166E-01 -.567E-01   0.128E-04 -.563E-05 0.255E-03
   -.606E-02 0.911E-01 0.129E+04   0.510E-02 -.971E-01 -.130E+04   0.242E-02 0.918E-02 0.348E+01   0.505E-05 -.185E-04 -.811E-03
   0.255E+00 0.190E+00 0.129E+04   -.265E+00 -.195E+00 -.130E+04   0.146E-01 0.750E-02 0.348E+01   -.154E-04 -.379E-05 -.915E-03
   -.110E+01 0.151E+02 -.130E+04   0.131E+01 -.155E+02 0.131E+04   -.272E+00 -.161E-01 -.532E+01   0.183E-04 -.622E-04 -.180E-04
   0.207E+01 0.155E+01 -.130E+04   -.241E+01 -.187E+01 0.130E+04   0.404E+00 0.451E+00 -.522E+01   0.357E-04 -.478E-04 -.173E-05
   0.375E-01 0.239E+01 -.425E+03   -.339E-01 -.258E+01 0.425E+03   -.112E-01 0.293E+00 0.241E+00   0.201E-04 -.190E-04 -.198E-03
   0.363E+01 0.234E+01 -.424E+03   -.370E+01 -.232E+01 0.424E+03   0.142E+00 -.324E-01 0.551E+00   0.240E-04 0.166E-04 -.134E-03
   -.122E+00 -.100E+01 0.424E+03   0.130E+00 0.966E+00 -.424E+03   -.122E-01 0.486E-01 -.696E-01   0.289E-05 0.213E-04 0.189E-03
   0.130E+01 -.441E+00 0.423E+03   -.125E+01 0.456E+00 -.423E+03   -.754E-01 -.192E-01 -.169E+00   -.203E-04 0.569E-05 0.229E-03
   -.175E-01 -.893E-01 0.129E+04   0.210E-01 0.961E-01 -.130E+04   -.383E-02 -.878E-02 0.347E+01   -.530E-05 -.247E-05 -.882E-03
   0.236E+00 -.191E+00 0.129E+04   -.238E+00 0.196E+00 -.130E+04   0.408E-02 -.596E-02 0.349E+01   -.190E-04 0.335E-05 -.904E-03
   -.779E+00 -.113E+01 -.129E+04   0.916E+00 0.500E+00 0.130E+04   -.190E+00 0.865E+00 -.413E+01   0.499E-05 0.206E-04 0.182E-04
   0.824E+01 -.384E+01 -.130E+04   -.844E+01 0.431E+01 0.130E+04   0.133E-01 -.605E+00 -.472E+01   -.395E-04 0.352E-04 0.275E-04
   -.854E+00 -.353E+01 -.444E+03   0.882E+00 0.369E+01 0.445E+03   -.563E-01 -.252E+00 -.727E+00   0.175E-04 0.271E-04 -.152E-03
   0.153E+01 -.205E+01 -.424E+03   -.151E+01 0.204E+01 0.424E+03   -.352E-01 0.258E-01 0.414E+00   0.353E-04 -.421E-05 -.179E-03
   -.328E+00 -.216E+01 0.153E+02   -.417E-12 0.604E-13 -.739E-12   0.297E+00 0.216E+01 -.150E+02   -.188E-04 -.896E-04 -.174E-01

 POSITION                                       TOTAL-FORCE (eV/Angst)
      0.00072      6.33121      4.07058         0.000109     -0.000574      0.313616
      2.11096      0.00047      4.07058         0.001119     -0.000928      0.319006
      0.00072      0.00047      6.18083         0.002272      0.002316      0.028711
      2.11096      6.33121      6.18083         0.022362     -0.001870      0.043736
      0.00247      6.32926      8.29804        -0.007216      0.021239      0.037283
      2.11132      0.00153      8.30334         0.013263     -0.034782      0.057321
      0.00134      0.00394     10.40560        -0.019341     -0.022082      0.001392
      2.09141      6.33052     10.40219         0.274569      0.115908      0.063766
      0.00072      2.11072      4.07058        -0.000054     -0.000029      0.316848
      2.11096      4.22097      4.07058         0.001994      0.000322      0.317730
      0.00072      4.22097      6.18083        -0.009201     -0.003933      0.035714
      2.11096      2.11072      6.18083         0.003559      0.000404      0.023538
      0.00098      2.11191      8.30056        -0.009810     -0.021758      0.029456
      2.11675      4.21879      8.31104         0.027033      0.035142     -0.052478
      0.00431      4.21686     10.40084        -0.107900      0.022863      0.020845
      2.10238      2.10950     10.40878        -0.097408     -0.142767     -0.089350
      4.22121      6.33121      4.07058         0.000343     -0.001570      0.323218
      6.33145      0.00047      4.07058        -0.000749     -0.000770      0.316737
      4.22121      0.00047      6.18083        -0.003936     -0.016617      0.061347
      6.33145      6.33121      6.18083        -0.021835     -0.011836      0.046826
      4.21890      6.32261      8.31008         0.009126      0.020036      0.225677
      6.32958      0.00287      8.30108        -0.010221     -0.032459      0.070169
      4.21848      0.01729     10.40689         0.024266     -0.328419      0.088077
      6.35226      6.33688     10.38281        -0.312219     -0.007742      0.253448
      4.22121      2.11072      4.07058         0.000437      0.000778      0.315901
      6.33145      4.22097      4.07058        -0.001708      0.000229      0.321645
      4.22121      4.22097      6.18083         0.005597      0.010072      0.069530
      6.33145      2.11072      6.18083        -0.004918      0.011970      0.027518
      4.21936      2.11534      8.30826         0.011746     -0.008179     -0.045985
      6.32314      4.21825      8.31239        -0.022915      0.033150      0.030679
      4.20534      4.16626     10.50770         0.188074      0.637188     -0.599525
      6.33710      2.10698     10.40271         0.089350     -0.041972     -0.002072
      0.00072      6.33121      6.18083        -0.000279     -0.000276      0.079086
      2.11096      0.00047      6.18083        -0.005492     -0.001327      0.074545
      0.00072      0.00047      4.07058         0.001062      0.000178     -0.526221
      2.11096      6.33121      4.07058        -0.002233      0.000665     -0.527736
      8.43978      6.33407     10.44764         0.055745     -0.043050      0.005512
      2.10473      8.44051     10.45129        -0.054723      0.120073      0.014659
      8.44027      8.43956      8.29532         0.008675      0.017891      0.005876
      2.11568      6.33318      8.30183        -0.073090     -0.037858     -0.026423
      0.00072      2.11072      6.18083        -0.003606     -0.003745      0.077954
      2.11096      4.22097      6.18083         0.011392     -0.003007      0.106644
      0.00072      4.22097      4.07058         0.002777      0.000980     -0.527178
      2.11096      2.11072      4.07058         0.000785      0.000499     -0.526808
      8.43954      2.10716     10.45110         0.046580      0.050262      0.027071
      2.09561      4.22174     10.42932         0.168466     -0.128298      0.331726
      8.43817      4.22188      8.29301         0.031890     -0.018241      0.065830
      2.11019      2.10749      8.29677         0.012352      0.032931      0.054958
      4.22121      6.33121      6.18083        -0.005399     -0.020549      0.083385
      6.33145      0.00047      6.18083        -0.002201      0.001875      0.073997
      4.22121      0.00047      4.07058         0.001953      0.003065     -0.528194
      6.33145      6.33121      4.07058         0.005367      0.002491     -0.527852
      4.22225      6.36826     10.50560        -0.063265     -0.436094     -0.186334
      6.33563      8.44033     10.45062         0.060292      0.128141     -0.020562
      4.22117      8.43550      8.30013        -0.006901      0.098465     -0.014517
      6.32579      6.33148      8.30051         0.069986     -0.014518     -0.049325
      4.22121      2.11072      6.18083        -0.004035      0.011910      0.106442
      6.33145      4.22097      6.18083        -0.021431     -0.004482      0.096373
      4.22121      4.22097      4.07058         0.000117     -0.002165     -0.530606
      6.33145      2.11072      4.07058         0.002257     -0.001242     -0.527134
      4.22133      2.09157     10.44657        -0.052860      0.229231      0.230055
      6.34565      4.22345     10.45811        -0.191459     -0.142924      0.085244
      4.22248      4.22478      8.31865        -0.027678     -0.088959     -0.000440
      6.33062      2.10977      8.29826        -0.010837      0.014747      0.029645
    total drift:                               -0.031188      0.006743      0.305687

  FREE ENERGIE OF THE ION-ELECTRON SYSTEM (eV)
  free  energy   TOTEN  =      -375.55454879 eV

  energy  without entropy=     -375.55454879  energy(sigma->0) =     -375.55454879

 writing wavefunctions