 vasp.6.4.2 20Jul23 (build Feb 22 2024 13:53:45) complex
 executed on              LinuxNV date 2024.08.27  19:50:17
 OpenACC runtime initialized ...    4 GPUs detected

 INCAR:
   SYSTEM = Oxide-Surface
   ISMEAR = 0
   SIGMA = 0.05
   EDIFF = 1E-5
   ALGO = Normal
   IBRION = -1
   NSW = 0
   ISYM = 0
   DIPOL = 0.5 0.5 0.5
   IDIPOL = 3
   LDIPOL = .TRUE.
   ISTART = 1
   LHFCALC = .TRUE.
   GGA = PE
   IVDW = 21
   VDW_SR = 0.96
   HFRCUT = -1
   ENCUT = 520
   PREC = Normal
   PRECFOCK = Normal
   LASPH = .TRUE.
   LREAL = Auto
   ISPIN = 1
   NELM = 200
   NELMIN = 8
   NCORE = 1
   KPAR = 1
   LWAVE = .FALSE.
   LCHARG = .FALSE.

 POTCAR:    PAW_PBE Mg_pv 13Apr2007
 POTCAR:    PAW_PBE O 08Apr2002
 POTCAR:    PAW_PBE Mg_pv 13Apr2007
   VRHFIN =Mg: p6s2

   TITEL  = PAW_PBE Mg_pv 13Apr2007
   POMASS =   24.305; ZVAL   =    8.000    mass and valenz
   ENMAX  =  403.929; ENMIN  =  302.947 eV

   TITEL  = PAW_PBE O 08Apr2002
   POMASS =   16.000; ZVAL   =    6.000    mass and valenz
   ENMAX  =  400.000; ENMIN  =  300.000 eV

 Optimization of the real space projectors (new method)

 maximal supplied QI-value         = 18.90
 optimisation between [QCUT,QGAM] = [ 11.53, 23.24] = [ 37.21,151.29] Ry
 Optimized for a Real-space Cutoff    1.21 Angstroem

   l    n(q)    QCUT    max X(q) W(low)/X(q) W(high)/X(q)  e(spline)
   1      8    11.527     2.974    0.16E-03    0.13E-03    0.98E-07
   1      8    11.527     4.279    0.42E-03    0.30E-03    0.22E-06
   0      8    11.527    16.381    0.13E-03    0.20E-03    0.72E-07
   0      8    11.527     5.611    0.88E-04    0.13E-03    0.50E-07
   2      7    11.527     4.652    0.25E-03    0.73E-04    0.51E-07
 Optimization of the real space projectors (new method)

 maximal supplied QI-value         = 24.76
 optimisation between [QCUT,QGAM] = [ 11.64, 23.27] = [ 37.91,151.63] Ry
 Optimized for a Real-space Cutoff    1.04 Angstroem

   l    n(q)    QCUT    max X(q) W(low)/X(q) W(high)/X(q)  e(spline)
   0      7    11.635    20.381    0.14E-03    0.49E-03    0.18E-06
   0      7    11.635    15.268    0.16E-03    0.52E-03    0.19E-06
   1      7    11.635     5.964    0.30E-03    0.44E-03    0.22E-06
   1      7    11.635     5.382    0.27E-03    0.34E-03    0.19E-06
  PAW_PBE Mg_pv 13Apr2007               :
  PAW_PBE O 08Apr2002                   :

 POSCAR: Mg  O
  positions in direct lattice
 exchange correlation table for  LEXCH =        8
   RHO(1)=    0.500       N(1)  =     2000
   RHO(2)=  100.500       N(2)  =     4000

 ion  position               nearest neighbor table
   1  0.000  0.750  0.239-  33 2.11  43 2.11  52 2.11  35 2.11  36 2.11
   2  0.250  0.000  0.239-  34 2.11  44 2.11  51 2.11  35 2.11  36 2.11
   3  0.000  0.000  0.364-  35 2.11  41 2.11  50 2.11  34 2.11  33 2.11  39 2.11
   4  0.250  0.750  0.364-  36 2.11  42 2.11  49 2.11  34 2.11  33 2.11  40 2.12
   5  0.000  0.750  0.488-  47 2.11  39 2.11  40 2.11  33 2.12  56 2.12  37 2.15
   6  0.250  0.000  0.488-  48 2.11  40 2.11  55 2.11  39 2.11  34 2.12  38 2.15
   7  0.000  0.000  0.612-  45 2.10  38 2.10  54 2.11  39 2.11  37 2.11
   8  0.248  0.750  0.612-  37 2.09  40 2.10  46 2.11  38 2.11  53 2.13
   9  0.000  0.250  0.239-  41 2.11  43 2.11  35 2.11  60 2.11  44 2.11
  10  0.250  0.500  0.239-  42 2.11  44 2.11  36 2.11  59 2.11  43 2.11
  11  0.000  0.500  0.364-  43 2.11  41 2.11  33 2.11  58 2.11  42 2.11  47 2.11
  12  0.250  0.250  0.364-  44 2.11  42 2.11  34 2.11  57 2.11  41 2.11  48 2.12
  13  0.000  0.250  0.488-  48 2.11  47 2.11  64 2.11  39 2.11  41 2.12  45 2.15
  14  0.251  0.500  0.489-  63 2.11  48 2.11  40 2.11  46 2.12  47 2.12  42 2.13
  15  0.001  0.500  0.612-  46 2.09  62 2.10  47 2.11  45 2.11  37 2.12
  16  0.249  0.250  0.612-  45 2.10  38 2.11  48 2.11  46 2.11  61 2.12
  17  0.500  0.750  0.239-  49 2.11  52 2.11  36 2.11  59 2.11  51 2.11
  18  0.750  0.000  0.239-  50 2.11  51 2.11  35 2.11  60 2.11  52 2.11
  19  0.500  0.000  0.364-  51 2.11  50 2.11  34 2.11  57 2.11  49 2.11  55 2.12
  20  0.750  0.750  0.364-  52 2.11  49 2.11  33 2.11  58 2.11  50 2.11  56 2.12
  21  0.500  0.749  0.489-  63 2.10  40 2.10  56 2.11  55 2.11  49 2.13  53 2.20
  22  0.750  0.000  0.488-  64 2.11  55 2.11  39 2.11  56 2.11  50 2.12  54 2.15
  23  0.500  0.002  0.612-  61 2.07  53 2.09  55 2.11  38 2.11  54 2.12
  24  0.753  0.751  0.611-  56 2.08  37 2.09  54 2.10  62 2.11  53 2.13
  25  0.500  0.250  0.239-  57 2.11  59 2.11  60 2.11  51 2.11  44 2.11
  26  0.750  0.500  0.239-  58 2.11  59 2.11  60 2.11  52 2.11  43 2.11
  27  0.500  0.500  0.364-  59 2.11  58 2.11  57 2.11  49 2.11  42 2.11  63 2.14
  28  0.750  0.250  0.364-  60 2.11  58 2.11  57 2.11  50 2.11  41 2.11  64 2.12
  29  0.500  0.251  0.489-  48 2.11  63 2.11  64 2.11  55 2.12  57 2.13  61 2.14
  30  0.749  0.500  0.489-  63 2.10  64 2.11  56 2.11  47 2.12  58 2.13  62 2.15
  31  0.498  0.494  0.618-  61 2.08  46 2.11  62 2.14  63 2.19  53 2.20
  32  0.751  0.250  0.612-  45 2.10  64 2.10  54 2.11  61 2.12  62 2.12
  33  0.000  0.750  0.364-   1 2.11  11 2.11  20 2.11   3 2.11   4 2.11   5 2.12
  34  0.250  0.000  0.364-   2 2.11  12 2.11  19 2.11   3 2.11   4 2.11   6 2.12
  35  0.000  0.000  0.239-   3 2.11   9 2.11  18 2.11   2 2.11   1 2.11
  36  0.250  0.750  0.239-   4 2.11  10 2.11  17 2.11   2 2.11   1 2.11
  37  1.000  0.750  0.615-  24 2.09   8 2.09   7 2.11  15 2.12   5 2.15
  38  0.249  1.000  0.615-   7 2.10  16 2.11   8 2.11  23 2.11   6 2.15
  39  1.000  1.000  0.488-   7 2.11   5 2.11  22 2.11   6 2.11  13 2.11   3 2.11
  40  0.251  0.750  0.488-   8 2.10  21 2.10   6 2.11   5 2.11  14 2.11   4 2.12
  41  0.000  0.250  0.364-   9 2.11  11 2.11   3 2.11  28 2.11  12 2.11  13 2.12
  42  0.250  0.500  0.364-  10 2.11  12 2.11   4 2.11  27 2.11  11 2.11  14 2.13
  43  0.000  0.500  0.239-  11 2.11   9 2.11   1 2.11  26 2.11  10 2.11
  44  0.250  0.250  0.239-  12 2.11  10 2.11   2 2.11  25 2.11   9 2.11
  45  1.000  0.250  0.615-  32 2.10   7 2.10  16 2.10  15 2.11  13 2.15
  46  0.248  0.500  0.613-  15 2.09   8 2.11  31 2.11  16 2.11  14 2.12
  47  1.000  0.500  0.488-   5 2.11  15 2.11  13 2.11  11 2.11  30 2.12  14 2.12
  48  0.250  0.250  0.488-   6 2.11  29 2.11  13 2.11  14 2.11  16 2.11  12 2.12
  49  0.500  0.750  0.364-  17 2.11  20 2.11   4 2.11  27 2.11  19 2.11  21 2.13
  50  0.750  0.000  0.364-  18 2.11  19 2.11   3 2.11  28 2.11  20 2.11  22 2.12
  51  0.500  0.000  0.239-  19 2.11  18 2.11   2 2.11  25 2.11  17 2.11
  52  0.750  0.750  0.239-  20 2.11  17 2.11   1 2.11  26 2.11  18 2.11
  53  0.500  0.754  0.618-  23 2.09   8 2.13  24 2.13  21 2.20  31 2.20
  54  0.751  1.000  0.615-  24 2.10   7 2.11  32 2.11  23 2.12  22 2.15
  55  0.500  0.999  0.488-  23 2.11  22 2.11   6 2.11  21 2.11  19 2.12  29 2.12
  56  0.749  0.750  0.488-  24 2.08  21 2.11  22 2.11  30 2.11   5 2.12  20 2.12
  57  0.500  0.250  0.364-  25 2.11  27 2.11  28 2.11  19 2.11  12 2.11  29 2.13
  58  0.750  0.500  0.364-  26 2.11  27 2.11  28 2.11  20 2.11  11 2.11  30 2.13
  59  0.500  0.500  0.239-  27 2.11  26 2.11  25 2.11  17 2.11  10 2.11
  60  0.750  0.250  0.239-  28 2.11  26 2.11  25 2.11  18 2.11   9 2.11
  61  0.500  0.248  0.615-  23 2.07  31 2.08  32 2.12  16 2.12  29 2.14
  62  0.752  0.500  0.615-  15 2.10  24 2.11  32 2.12  31 2.14  30 2.15
  63  0.500  0.501  0.489-  21 2.10  30 2.10  14 2.11  29 2.11  27 2.14  31 2.19
  64  0.750  0.250  0.488-  32 2.10  22 2.11  30 2.11  29 2.11  13 2.11  28 2.12

IMPORTANT INFORMATION: All symmetrisations will be switched off!
NOSYMM: (Re-)initialisation of all symmetry stuff for point group C_1.

                                     Primitive cell

  volume of cell :    1211.2538

  direct lattice vectors                    reciprocal lattice vectors
     8.440984654  0.000000000  0.000000000     0.118469591  0.000000000  0.000000000
     0.000000000  8.440984654  0.000000000     0.000000000  0.118469591  0.000000000
     0.000000000  0.000000000 17.000000000     0.000000000  0.000000000  0.058823529

  length of vectors
     8.440984654  8.440984654 17.000000000     0.118469591  0.118469591  0.058823529

  position of ions in fractional coordinates (direct lattice)
     0.000084749  0.750056171  0.239446159
     0.250084749  0.000056171  0.239446159
     0.000084749  0.000056171  0.363578286
     0.250084749  0.750056171  0.363578286
     0.000292034  0.749824964  0.488119943
     0.250127698  0.000181851  0.488431874
     0.000158555  0.000466213  0.612094268
     0.247767905  0.749974041  0.611893376
     0.000084749  0.250056171  0.239446159
     0.250084749  0.500056171  0.239446159
     0.000084749  0.500056171  0.363578286
     0.250084749  0.250056171  0.363578286
     0.000116012  0.250196651  0.488268359
     0.250770752  0.499798843  0.488884857
     0.000510418  0.499570052  0.611813977
     0.249067721  0.249912005  0.612281031
     0.500084749  0.750056171  0.239446159
     0.750084749  0.000056171  0.239446159
     0.500084749  0.000056171  0.363578286
     0.750084749  0.750056171  0.363578286
     0.499810778  0.749036438  0.488828048
     0.749862546  0.000340508  0.488298782
     0.499761848  0.002048857  0.612169767
     0.752549470  0.750728058  0.610753521
     0.500084749  0.250056171  0.239446159
     0.750084749  0.500056171  0.239446159
     0.500084749  0.500056171  0.363578286
     0.750084749  0.250056171  0.363578286
     0.499866424  0.250603695  0.488721432
     0.749099841  0.499734903  0.488964189
     0.498205335  0.493574688  0.618100110
     0.750753975  0.249613073  0.611923847
     0.000084749  0.750056171  0.363578286
     0.250084749  0.000056171  0.363578286
     0.000084749  0.000056171  0.239446159
     0.250084749  0.750056171  0.239446159
     0.999857188  0.750394105  0.614566772
     0.249346556  0.999943829  0.614781797
     0.999915251  0.999830927  0.487959860
     0.250643896  0.750289407  0.488342652
     0.000084749  0.250056171  0.363578286
     0.250084749  0.500056171  0.363578286
     0.000084749  0.500056171  0.239446159
     0.250084749  0.250056171  0.239446159
     0.999828427  0.249634011  0.614770607
     0.248265660  0.500148340  0.613489608
     0.999666695  0.500164134  0.487824047
     0.249993932  0.249673109  0.488045416
     0.500084749  0.750056171  0.363578286
     0.750084749  0.000056171  0.363578286
     0.500084749  0.000056171  0.239446159
     0.750084749  0.750056171  0.239446159
     0.500208490  0.754444867  0.617976523
     0.750578969  0.999922121  0.614742452
     0.500080035  0.999350643  0.488242651
     0.749413318  0.750087637  0.488265164
     0.500084749  0.250056171  0.363578286
     0.750084749  0.500056171  0.363578286
     0.500084749  0.500056171  0.239446159
     0.750084749  0.250056171  0.239446159
     0.500099799  0.247787997  0.614504174
     0.751766757  0.500350148  0.615182713
     0.500235346  0.500508510  0.489332342
     0.749985949  0.249943297  0.488132887

  ion indices of the primitive-cell ions
   primitive index   ion index
                 1           1
                 2           2
                 3           3
                 4           4
                 5           5
                 6           6
[...]
   O         196.849          4.873         19.182          3.55224307
   O         196.981          4.873         19.189          3.55343341
   O         194.057          4.861         19.046          3.52696495
   O         195.797          4.869         19.131          3.54273839
   O         238.873          5.033         21.131          3.91308822
   O         240.385          5.038         21.197          3.92545243
   O         235.595          5.021         20.985          3.88615179
   O         236.105          5.023         21.008          3.89035471
   O         196.896          4.873         19.184          3.55266581
   O         196.767          4.873         19.178          3.55150426
   O         181.122          4.806         18.400          3.40739465
   O         191.522          4.851         18.921          3.50384692
   O         239.735          5.036         21.169          3.92014335
   O         242.401          5.045         21.286          3.94187997
   O         236.362          5.024         21.019          3.89246743
   O         235.555          5.021         20.983          3.88581516
   O         197.202          4.874         19.199          3.55543023
   O         196.975          4.873         19.188          3.55338603
   O         196.554          4.872         19.168          3.54958135
   O         191.157          4.849         18.903          3.50051478
   O         241.696          5.042         21.255          3.93614831
   O         241.192          5.041         21.233          3.93204097

  vdW correction parametrized for the method 5?    þ

  IVDW =  21
  VDW_RADIUS =    50.000 A
  VDW_IDAMPF =  0
  VDW_S6 =     1.000
  VDW_SR =     0.960
  VDW_D =    20.000
  LVDW_ONECELL = F F F
  LVDW_SAMETYPE T T
  LVDW_EWALD = F

  Number of pair interactions contributing to vdW energy:  892086
  Edisp (eV):   -3.88011

 VOLUME and BASIS-vectors are now :
  energy-cutoff  :      520.00
  volume of cell :     1211.25
      direct lattice vectors                 reciprocal lattice vectors
     8.440984654  0.000000000  0.000000000     0.118469591  0.000000000  0.000000000
     0.000000000  8.440984654  0.000000000     0.000000000  0.118469591  0.000000000
     0.000000000  0.000000000 17.000000000     0.000000000  0.000000000  0.058823529

  length of vectors
     8.440984654  8.440984654 17.000000000     0.118469591  0.118469591  0.058823529

 FORCES acting on ions
    electron-ion (+dipol)            ewald-force                    non-local-force                 convergence-correction
   0.164E-01 0.202E+00 0.172E+04   -.170E-01 -.203E+00 -.171E+04   -.285E-03 0.446E-03 -.675E+01   0.150E-04 -.232E-04 -.163E+00
   -.291E+00 0.116E+00 0.172E+04   0.295E+00 -.118E+00 -.171E+04   -.287E-02 0.126E-02 -.677E+01   0.116E-04 0.188E-04 -.163E+00
   -.304E-01 0.270E+00 0.569E+03   0.376E-01 -.260E+00 -.569E+03   -.467E-02 -.595E-02 0.396E+00   -.729E-05 -.316E-04 -.831E-01
   -.149E+01 0.112E+01 0.566E+03   0.158E+01 -.112E+01 -.567E+03   -.542E-01 -.111E-02 0.500E+00   0.315E-04 0.197E-05 -.830E-01
   0.340E+00 0.848E+00 -.570E+03   -.292E+00 -.820E+00 0.570E+03   -.492E-01 -.527E-02 -.105E+00   -.511E-04 -.253E-04 0.247E-01
   -.187E+01 0.181E+01 -.573E+03   0.196E+01 -.187E+01 0.573E+03   -.625E-01 0.198E-01 -.244E+00   0.108E-03 -.104E-03 0.250E-01
   0.441E+00 0.125E+01 -.171E+04   -.452E+00 -.117E+01 0.170E+04   -.917E-02 -.878E-01 0.572E+01   0.204E-04 0.832E-04 0.120E+00
   -.111E+02 0.317E+01 -.170E+04   0.113E+02 -.265E+01 0.170E+04   0.875E-01 -.350E+00 0.571E+01   0.254E-03 0.990E-04 0.120E+00
   0.212E-01 -.202E+00 0.172E+04   -.224E-01 0.203E+00 -.171E+04   0.159E-03 -.104E-02 -.676E+01   0.101E-04 0.260E-04 -.163E+00
   -.370E+00 -.116E+00 0.172E+04   0.377E+00 0.118E+00 -.171E+04   -.505E-02 -.182E-02 -.677E+01   0.892E-05 -.232E-04 -.163E+00
   0.747E-01 -.288E+00 0.568E+03   -.112E+00 0.274E+00 -.569E+03   0.237E-01 0.849E-02 0.368E+00   -.113E-04 0.199E-04 -.830E-01
   -.133E+01 -.113E+01 0.568E+03   0.134E+01 0.113E+01 -.569E+03   -.450E-02 0.399E-02 0.465E+00   0.246E-04 -.893E-05 -.831E-01
   0.480E+00 -.736E+00 -.572E+03   -.479E+00 0.715E+00 0.572E+03   -.115E-01 -.219E-02 -.668E-01   -.350E-04 0.171E-04 0.248E-01
   -.474E+01 -.217E+01 -.573E+03   0.508E+01 0.224E+01 0.574E+03   -.275E+00 -.287E-01 -.519E+00   -.122E-03 0.699E-04 0.255E-01
   0.222E+01 -.133E+01 -.171E+04   -.249E+01 0.126E+01 0.170E+04   0.136E+00 0.804E-01 0.572E+01   -.118E-03 -.728E-04 0.120E+00
   -.164E+01 -.110E+01 -.171E+04   0.923E+00 0.488E+00 0.170E+04   0.532E+00 0.403E+00 0.598E+01   -.146E-03 -.115E-03 0.120E+00
   -.160E-01 0.280E+00 0.172E+04   0.164E-01 -.285E+00 -.171E+04   -.777E-03 0.293E-02 -.679E+01   -.144E-04 -.260E-04 -.163E+00
   0.290E+00 0.111E+00 0.172E+04   -.294E+00 -.113E+00 -.171E+04   0.201E-02 0.835E-03 -.676E+01   0.119E-06 0.259E-04 -.163E+00
   0.204E-01 0.494E+00 0.567E+03   -.354E-01 -.558E+00 -.567E+03   0.907E-02 0.400E-01 0.420E+00   0.531E-05 -.325E-04 -.830E-01
   0.146E+01 0.122E+01 0.566E+03   -.155E+01 -.126E+01 -.567E+03   0.554E-01 0.252E-01 0.486E+00   -.301E-04 0.222E-04 -.831E-01
   -.490E+00 0.509E+01 -.589E+03   0.450E+00 -.525E+01 0.589E+03   0.433E-01 0.165E+00 0.100E-01   0.253E-04 0.275E-03 0.253E-01
   0.190E+01 0.165E+01 -.572E+03   -.198E+01 -.167E+01 0.572E+03   0.600E-01 -.167E-01 -.244E+00   -.980E-04 -.108E-03 0.248E-01
   -.521E+00 0.625E+01 -.170E+04   0.544E+00 -.727E+01 0.170E+04   0.435E-02 0.578E+00 0.546E+01   -.317E-04 -.325E-03 0.120E+00
   0.124E+02 0.622E+01 -.170E+04   -.125E+02 -.592E+01 0.169E+04   -.129E+00 -.264E+00 0.549E+01   -.253E-03 -.446E-04 0.119E+00
   -.218E-01 -.282E+00 0.172E+04   0.225E-01 0.286E+00 -.171E+04   -.998E-03 -.311E-02 -.676E+01   -.152E-04 0.326E-04 -.163E+00
   0.369E+00 -.110E+00 0.172E+04   -.376E+00 0.112E+00 -.171E+04   0.443E-02 -.157E-02 -.678E+01   -.123E-04 -.266E-04 -.163E+00
   -.978E-01 -.495E+00 0.562E+03   0.122E+00 0.542E+00 -.563E+03   -.159E-01 -.306E-01 0.658E+00   0.938E-05 0.114E-04 -.832E-01
   0.131E+01 -.124E+01 0.568E+03   -.133E+01 0.128E+01 -.568E+03   0.881E-02 -.249E-01 0.485E+00   -.263E-04 -.789E-05 -.831E-01
   -.544E+00 -.354E+01 -.573E+03   0.546E+00 0.370E+01 0.573E+03   0.918E-02 -.153E+00 -.126E+00   0.216E-04 -.208E-03 0.250E-01
   0.507E+01 -.208E+01 -.580E+03   -.541E+01 0.211E+01 0.580E+03   0.278E+00 0.359E-02 -.315E+00   0.104E-03 0.118E-03 0.255E-01
   -.554E+01 -.233E+02 -.173E+04   0.563E+01 0.230E+02 0.173E+04   0.995E-01 0.838E+00 0.646E+01   0.812E-04 0.971E-04 0.125E+00
   0.195E+01 -.352E+01 -.170E+04   -.128E+01 0.317E+01 0.170E+04   -.499E+00 0.272E+00 0.583E+01   0.140E-03 0.366E-04 0.120E+00
   0.907E-01 0.485E+00 0.426E+03   -.101E+00 -.485E+00 -.426E+03   0.730E-02 -.264E-03 -.271E-02   -.100E-04 -.333E-05 -.655E-01
   -.851E+00 0.461E+00 0.426E+03   0.863E+00 -.466E+00 -.426E+03   -.171E-01 0.345E-02 -.948E-01   0.286E-04 -.122E-04 -.655E-01
   0.668E-02 0.698E-01 0.129E+04   -.545E-02 -.689E-01 -.130E+04   -.283E-04 -.124E-03 0.305E+01   0.951E-05 0.161E-04 -.125E+00
   -.255E+00 0.179E+00 0.129E+04   0.265E+00 -.179E+00 -.130E+04   -.106E-01 0.128E-02 0.304E+01   0.951E-05 -.109E-04 -.125E+00
   0.569E-01 0.127E+01 -.130E+04   -.154E+00 -.124E+01 0.130E+04   0.130E+00 -.511E-01 -.459E+01   -.657E-04 -.785E-04 0.900E-01
   -.194E+01 0.195E+01 -.130E+04   0.228E+01 -.233E+01 0.130E+04   -.355E+00 0.436E+00 -.454E+01   0.131E-03 -.783E-04 0.901E-01
   -.252E-01 0.269E+00 -.424E+03   0.111E-01 -.292E+00 0.424E+03   0.189E-01 0.354E-01 0.161E+00   -.200E-04 -.157E-04 0.131E-01
   -.353E+01 0.164E+01 -.426E+03   0.361E+01 -.161E+01 0.426E+03   -.135E+00 -.644E-01 0.289E+00   0.542E-04 0.731E-04 0.134E-01
   0.106E+00 -.487E+00 0.426E+03   -.105E+00 0.492E+00 -.426E+03   -.557E-02 -.849E-02 -.404E-01   0.728E-06 0.504E-05 -.655E-01
   -.133E+01 -.473E+00 0.424E+03   0.129E+01 0.484E+00 -.423E+03   0.445E-01 -.130E-01 -.115E+00   0.410E-05 0.696E-05 -.656E-01
   0.183E-01 -.697E-01 0.129E+04   -.214E-01 0.690E-01 -.130E+04   0.524E-02 0.189E-02 0.304E+01   0.973E-05 -.252E-04 -.125E+00
   -.236E+00 -.179E+00 0.129E+04   0.238E+00 0.179E+00 -.130E+04   -.126E-02 0.526E-03 0.304E+01   0.103E-04 0.158E-04 -.125E+00
   0.485E+00 -.118E+01 -.130E+04   -.614E+00 0.115E+01 0.130E+04   0.151E+00 0.688E-01 -.447E+01   -.297E-04 0.799E-04 0.902E-01
   -.548E+01 -.369E+01 -.129E+04   0.539E+01 0.413E+01 0.129E+04   0.218E+00 -.489E+00 -.360E+01   -.253E-03 0.854E-04 0.894E-01
   0.631E+00 -.331E+00 -.422E+03   -.672E+00 0.351E+00 0.422E+03   0.619E-01 -.350E-01 0.385E+00   -.297E-04 0.219E-04 0.131E-01
   -.149E+01 -.139E+01 -.424E+03   0.146E+01 0.136E+01 0.424E+03   0.318E-01 0.519E-01 0.336E+00   -.568E-04 -.681E-04 0.131E-01
   -.864E-01 0.957E+00 0.423E+03   0.989E-01 -.894E+00 -.423E+03   -.174E-01 -.739E-01 -.169E+00   0.102E-04 0.230E-04 -.655E-01
   0.832E+00 0.441E+00 0.426E+03   -.834E+00 -.457E+00 -.426E+03   -.124E-02 0.156E-01 -.641E-01   -.188E-04 -.213E-04 -.655E-01
   -.604E-02 0.905E-01 0.129E+04   0.510E-02 -.971E-01 -.130E+04   0.262E-02 0.885E-02 0.304E+01   -.141E-04 0.126E-04 -.125E+00
   0.255E+00 0.190E+00 0.129E+04   -.265E+00 -.195E+00 -.130E+04   0.135E-01 0.682E-02 0.304E+01   -.139E-04 -.163E-04 -.125E+00
   -.109E+01 0.151E+02 -.130E+04   0.131E+01 -.155E+02 0.131E+04   -.248E+00 -.202E-01 -.478E+01   0.708E-04 0.222E-03 0.920E-01
   0.205E+01 0.153E+01 -.130E+04   -.241E+01 -.187E+01 0.130E+04   0.374E+00 0.412E+00 -.468E+01   -.129E-03 -.113E-03 0.901E-01
   0.384E-01 0.238E+01 -.425E+03   -.339E-01 -.258E+01 0.425E+03   -.106E-01 0.264E+00 0.209E+00   0.183E-04 -.156E-03 0.134E-01
   0.362E+01 0.234E+01 -.424E+03   -.370E+01 -.232E+01 0.424E+03   0.128E+00 -.305E-01 0.494E+00   -.518E-04 0.502E-04 0.134E-01
   -.122E+00 -.101E+01 0.424E+03   0.130E+00 0.966E+00 -.424E+03   -.122E-01 0.459E-01 -.731E-01   -.890E-06 -.249E-04 -.655E-01
   0.130E+01 -.440E+00 0.423E+03   -.125E+01 0.456E+00 -.423E+03   -.712E-01 -.187E-01 -.163E+00   -.116E-05 0.197E-04 -.656E-01
   -.174E-01 -.888E-01 0.129E+04   0.210E-01 0.961E-01 -.130E+04   -.291E-02 -.771E-02 0.304E+01   -.414E-05 -.188E-04 -.125E+00
   0.236E+00 -.191E+00 0.129E+04   -.238E+00 0.196E+00 -.130E+04   0.394E-02 -.479E-02 0.304E+01   -.132E-04 0.206E-04 -.125E+00
   -.769E+00 -.118E+01 -.129E+04   0.916E+00 0.500E+00 0.130E+04   -.173E+00 0.798E+00 -.370E+01   0.285E-04 -.301E-03 0.900E-01
   0.826E+01 -.382E+01 -.130E+04   -.844E+01 0.431E+01 0.130E+04   0.183E-02 -.552E+00 -.423E+01   0.238E-03 0.117E-03 0.904E-01
   -.852E+00 -.351E+01 -.444E+03   0.882E+00 0.369E+01 0.445E+03   -.493E-01 -.225E+00 -.651E+00   0.299E-04 0.110E-03 0.139E-01
   0.153E+01 -.205E+01 -.424E+03   -.151E+01 0.204E+01 0.424E+03   -.312E-01 0.245E-01 0.375E+00   0.518E-04 -.468E-04 0.132E-01
   -.348E+00 -.228E+01 0.195E+02   -.417E-12 0.604E-13 -.739E-12   0.278E+00 0.205E+01 -.150E+02   -.108E-03 -.342E-03 -.150E+01

 POSITION                                       TOTAL-FORCE (eV/Angst)
      0.00072      6.33121      4.07058         0.000082     -0.000629      0.538603
      2.11096      0.00047      4.07058         0.001328     -0.001001      0.544238
      0.00072      0.00047      6.18083         0.002303      0.002295      0.028349
      2.11096      6.33121      6.18083         0.023750     -0.001406      0.042158
      0.00247      6.32926      8.29804        -0.007385      0.021457      0.037883
      2.11132      0.00153      8.30334         0.016052     -0.037074      0.059750
      0.00134      0.00394     10.40560        -0.020336     -0.023406     -0.166184
      2.09141      6.33052     10.40219         0.275846      0.126812     -0.103964
      0.00072      2.11072      4.07058        -0.000034      0.000051      0.541907
      2.11096      4.22097      4.07058         0.002001      0.000423      0.543017
      0.00072      4.22097      6.18083        -0.009858     -0.003963      0.036424
      2.11096      2.11072      6.18083         0.003324     -0.000135      0.021952
      0.00098      2.11191      8.30056        -0.010262     -0.021872      0.027361
      2.11675      4.21879      8.31104         0.029345      0.037636     -0.045365
      0.00431      4.21686     10.40084        -0.112099      0.024506     -0.149272
      2.10238      2.10950     10.40878        -0.106835     -0.153325     -0.267194
      4.22121      6.33121      4.07058         0.000453     -0.001413      0.548832
      6.33145      0.00047      4.07058        -0.000853     -0.000888      0.541928
      4.22121      0.00047      6.18083        -0.003988     -0.018194      0.061702
      6.33145      6.33121      6.18083        -0.023221     -0.011980      0.045991
      4.21890      6.32261      8.31008         0.009356      0.022457      0.224723
      6.32958      0.00287      8.30108        -0.012861     -0.034436      0.073355
      4.21848      0.01729     10.40689         0.025527     -0.344754     -0.074946
      6.35226      6.33688     10.38281        -0.313087      0.000302      0.095781
      4.22121      2.11072      4.07058         0.000530      0.000650      0.540980
      6.33145      4.22097      4.07058        -0.001591      0.000353      0.547039
      4.22121      4.22097      6.18083         0.006108      0.011377      0.063787
      6.33145      2.11072      6.18083        -0.004682      0.012140      0.025835
      4.21936      2.11534      8.30826         0.012288     -0.009624     -0.045284
      6.32314      4.21825      8.31239        -0.025268      0.035341      0.033989
      4.20534      4.16626     10.50770         0.190119      0.635060     -0.794491
      6.33710      2.10698     10.40271         0.098336     -0.049590     -0.173276
      0.00072      6.33121      6.18083        -0.000062     -0.000069      0.065377
      2.11096      0.00047      6.18083        -0.006260     -0.001232      0.058856
      0.00072      0.00047      4.07058         0.001150      0.000210     -0.443379
      2.11096      6.33121      4.07058        -0.002426      0.000674     -0.445052
      8.43978      6.33407     10.44764         0.059451     -0.043795     -0.133462
      2.10473      8.44051     10.45129        -0.065696      0.132285     -0.122366
      8.44027      8.43956      8.29532         0.009222      0.019071      0.016787
      2.11568      6.33318      8.30183        -0.076365     -0.039804     -0.013714
      0.00072      2.11072      6.18083        -0.003828     -0.004260      0.063369
      2.11096      4.22097      6.18083         0.013283     -0.003370      0.091034
      0.00072      4.22097      4.07058         0.003006      0.001038     -0.444525
      2.11096      2.11072      4.07058         0.000896      0.000593     -0.444026
      8.43954      2.10716     10.45110         0.050707      0.051523     -0.108336
      2.09561      4.22174     10.42932         0.175634     -0.142222      0.217061
      8.43817      4.22188      8.29301         0.033300     -0.019478      0.081091
      2.11019      2.10749      8.29677         0.013299      0.034492      0.070363
      4.22121      6.33121      6.18083        -0.006026     -0.023151      0.065472
      6.33145      0.00047      6.18083        -0.002055      0.002378      0.058914
      4.22121      0.00047      4.07058         0.002086      0.003414     -0.445727
      6.33145      6.33121      4.07058         0.005761      0.002632     -0.445275
      4.22225      6.36826     10.50560        -0.070184     -0.437892     -0.332125
      6.33563      8.44033     10.45062         0.071886      0.139814     -0.161316
      4.22117      8.43550      8.30013        -0.007285      0.105170     -0.005632
      6.32579      6.33148      8.30051         0.073052     -0.015752     -0.032171
      4.22121      2.11072      6.18083        -0.004404      0.013753      0.091710
      6.33145      4.22097      6.18083        -0.024112     -0.005109      0.079476
      4.22121      4.22097      4.07058         0.000119     -0.002381     -0.447802
      6.33145      2.11072      4.07058         0.002357     -0.001287     -0.444392
      4.22133      2.09157     10.44657        -0.057734      0.253046      0.112369
      6.34565      4.22345     10.45811        -0.192579     -0.158509     -0.045217
      4.22248      4.22478      8.31865        -0.028855     -0.094946     -0.008743
      6.33062      2.10977      8.29826        -0.011727      0.015995      0.045772
    total drift:                               -0.031666      0.007759      0.287216

  FREE ENERGIE OF THE ION-ELECTRON SYSTEM (eV)
  free  energy   TOTEN  =      -467.30917273 eV

  energy  without entropy=     -467.30917273  energy(sigma->0) =     -467.30917273