 vasp.6.4.2 20Jul23 (build Feb 22 2024 13:53:45) complex
 executed on              LinuxNV date 2024.08.27  19:41:54
 OpenACC runtime initialized ...    4 GPUs detected

 INCAR:
   SYSTEM = Oxide-Surface
   ISMEAR = 0
   SIGMA = 0.05
   EDIFF = 1E-5
   ALGO = Normal
   IBRION = -1
   NSW = 0
   ISYM = 0
   DIPOL = 0.5 0.5 0.5
   IDIPOL = 3
   LDIPOL = .TRUE.
   ISTART = 0
   LHFCALC = .FALSE.
   GGA = PE
   IVDW = 21
   VDW_SR = 0.96
   HFRCUT = -1
   ENCUT = 1000
   PREC = Normal
   PRECFOCK = Normal
   LASPH = .TRUE.
   LREAL = Auto
   ISPIN = 1
   NELM = 200
   NELMIN = 8
   NCORE = 1
   KPAR = 1
   LWAVE = .FALSE.
   LCHARG = .FALSE.

 POTCAR:    PAW_PBE Mg_sv 12Apr2007
 POTCAR:    PAW_PBE O_h 06Feb2004
 POTCAR:    PAW_PBE Mg_sv 12Apr2007
   VRHFIN =Mg: p6s2

   TITEL  = PAW_PBE Mg_sv 12Apr2007
   POMASS =   24.305; ZVAL   =   10.000    mass and valenz
   ENMAX  =  495.223; ENMIN  =  371.417 eV

   TITEL  = PAW_PBE O_h 06Feb2004
   POMASS =   16.000; ZVAL   =    6.000    mass and valenz
   ENMAX  =  700.000; ENMIN  =  500.000 eV

 Optimization of the real space projectors (new method)

 maximal supplied QI-value         = 22.11
 optimisation between [QCUT,QGAM] = [ 16.14, 32.28] = [ 72.95,291.79] Ry
 Optimized for a Real-space Cutoff    0.98 Angstroem

   l    n(q)    QCUT    max X(q) W(low)/X(q) W(high)/X(q)  e(spline)
   0      9    16.140     8.730    0.14E-04    0.12E-04    0.27E-07
   0      9    16.140     8.910    0.19E-04    0.17E-04    0.41E-07
   1      9    16.140     2.513    0.16E-04    0.28E-04    0.54E-07
   1      9    16.140     3.341    0.27E-04    0.13E-03    0.17E-06
   2      9    16.140     3.683    0.18E-03    0.21E-03    0.81E-07
 Optimization of the real space projectors (new method)

 maximal supplied QI-value         = 34.20
 optimisation between [QCUT,QGAM] = [ 16.08, 32.15] = [ 72.37,289.48] Ry
 Optimized for a Real-space Cutoff    0.71 Angstroem

   l    n(q)    QCUT    max X(q) W(low)/X(q) W(high)/X(q)  e(spline)
   0      7    16.076   280.207    0.42E-03    0.69E-03    0.60E-07
   0      7    16.076   228.978    0.42E-03    0.69E-03    0.61E-07
   1      6    16.076    86.127    0.11E-03    0.66E-03    0.10E-06
   1      6    16.076    65.368    0.11E-03    0.65E-03    0.10E-06
  PAW_PBE Mg_sv 12Apr2007               :
  PAW_PBE O_h 06Feb2004                 :

 POSCAR: Mg  O
  positions in direct lattice
 exchange correlation table for  LEXCH =        8
   RHO(1)=    0.500       N(1)  =     2000
   RHO(2)=  100.500       N(2)  =     4000

 ion  position               nearest neighbor table
   1  0.000  0.750  0.239-
   2  0.250  0.000  0.239-
   3  0.000  0.000  0.364-
   4  0.250  0.750  0.364-
   5  0.000  0.750  0.488-
   6  0.250  0.000  0.488-
   7  0.000  0.000  0.612-
   8  0.248  0.750  0.612-
   9  0.000  0.250  0.239-
  10  0.250  0.500  0.239-
  11  0.000  0.500  0.364-
  12  0.250  0.250  0.364-
  13  0.000  0.250  0.488-
  14  0.251  0.500  0.489-
  15  0.001  0.500  0.612-
  16  0.249  0.250  0.612-
  17  0.500  0.750  0.239-
  18  0.750  0.000  0.239-
  19  0.500  0.000  0.364-
  20  0.750  0.750  0.364-
  21  0.500  0.749  0.489-
  22  0.750  0.000  0.488-
  23  0.500  0.002  0.612-
  24  0.753  0.751  0.611-
  25  0.500  0.250  0.239-
  26  0.750  0.500  0.239-
  27  0.500  0.500  0.364-
  28  0.750  0.250  0.364-
  29  0.500  0.251  0.489-
  30  0.749  0.500  0.489-
  31  0.498  0.494  0.618-
  32  0.751  0.250  0.612-
  33  0.000  0.750  0.364-
  34  0.250  0.000  0.364-
  35  0.000  0.000  0.239-
  36  0.250  0.750  0.239-
  37  1.000  0.750  0.615-
  38  0.249  1.000  0.615-
  39  1.000  1.000  0.488-
  40  0.251  0.750  0.488-
  41  0.000  0.250  0.364-
  42  0.250  0.500  0.364-
  43  0.000  0.500  0.239-
  44  0.250  0.250  0.239-
  45  1.000  0.250  0.615-
  46  0.248  0.500  0.613-
  47  1.000  0.500  0.488-
  48  0.250  0.250  0.488-
  49  0.500  0.750  0.364-
  50  0.750  0.000  0.364-
  51  0.500  0.000  0.239-
  52  0.750  0.750  0.239-
  53  0.500  0.754  0.618-
  54  0.751  1.000  0.615-
  55  0.500  0.999  0.488-
  56  0.749  0.750  0.488-
  57  0.500  0.250  0.364-
  58  0.750  0.500  0.364-
  59  0.500  0.500  0.239-
  60  0.750  0.250  0.239-
  61  0.500  0.248  0.615-
  62  0.752  0.500  0.615-
  63  0.500  0.501  0.489-
  64  0.750  0.250  0.488-

IMPORTANT INFORMATION: All symmetrisations will be switched off!
NOSYMM: (Re-)initialisation of all symmetry stuff for point group C_1.

                                     Primitive cell

  volume of cell :    1211.2538

  direct lattice vectors                    reciprocal lattice vectors
     8.440984654  0.000000000  0.000000000     0.118469591  0.000000000  0.000000000
     0.000000000  8.440984654  0.000000000     0.000000000  0.118469591  0.000000000
     0.000000000  0.000000000 17.000000000     0.000000000  0.000000000  0.058823529

  length of vectors
     8.440984654  8.440984654 17.000000000     0.118469591  0.118469591  0.058823529

  position of ions in fractional coordinates (direct lattice)
     0.000084749  0.750056171  0.239446159
     0.250084749  0.000056171  0.239446159
     0.000084749  0.000056171  0.363578286
     0.250084749  0.750056171  0.363578286
     0.000292034  0.749824964  0.488119943
     0.250127698  0.000181851  0.488431874
     0.000158555  0.000466213  0.612094268
     0.247767905  0.749974041  0.611893376
     0.000084749  0.250056171  0.239446159
     0.250084749  0.500056171  0.239446159
     0.000084749  0.500056171  0.363578286
     0.250084749  0.250056171  0.363578286
     0.000116012  0.250196651  0.488268359
     0.250770752  0.499798843  0.488884857
     0.000510418  0.499570052  0.611813977
     0.249067721  0.249912005  0.612281031
     0.500084749  0.750056171  0.239446159
     0.750084749  0.000056171  0.239446159
     0.500084749  0.000056171  0.363578286
     0.750084749  0.750056171  0.363578286
     0.499810778  0.749036438  0.488828048
     0.749862546  0.000340508  0.488298782
     0.499761848  0.002048857  0.612169767
     0.752549470  0.750728058  0.610753521
     0.500084749  0.250056171  0.239446159
     0.750084749  0.500056171  0.239446159
     0.500084749  0.500056171  0.363578286
     0.750084749  0.250056171  0.363578286
     0.499866424  0.250603695  0.488721432
     0.749099841  0.499734903  0.488964189
     0.498205335  0.493574688  0.618100110
     0.750753975  0.249613073  0.611923847
     0.000084749  0.750056171  0.363578286
     0.250084749  0.000056171  0.363578286
     0.000084749  0.000056171  0.239446159
     0.250084749  0.750056171  0.239446159
     0.999857188  0.750394105  0.614566772
     0.249346556  0.999943829  0.614781797
     0.999915251  0.999830927  0.487959860
     0.250643896  0.750289407  0.488342652
     0.000084749  0.250056171  0.363578286
     0.250084749  0.500056171  0.363578286
     0.000084749  0.500056171  0.239446159
     0.250084749  0.250056171  0.239446159
     0.999828427  0.249634011  0.614770607
     0.248265660  0.500148340  0.613489608
     0.999666695  0.500164134  0.487824047
     0.249993932  0.249673109  0.488045416
     0.500084749  0.750056171  0.363578286
     0.750084749  0.000056171  0.363578286
     0.500084749  0.000056171  0.239446159
     0.750084749  0.750056171  0.239446159
     0.500208490  0.754444867  0.617976523
     0.750578969  0.999922121  0.614742452
     0.500080035  0.999350643  0.488242651
     0.749413318  0.750087637  0.488265164
     0.500084749  0.250056171  0.363578286
     0.750084749  0.500056171  0.363578286
     0.500084749  0.500056171  0.239446159
     0.750084749  0.250056171  0.239446159
     0.500099799  0.247787997  0.614504174
     0.751766757  0.500350148  0.615182713
     0.500235346  0.500508510  0.489332342
     0.749985949  0.249943297  0.488132887

  ion indices of the primitive-cell ions
   primitive index   ion index
                 1           1
                 2           2
                 3           3
                 4           4
                 5           5
                 6           6
                 7           7
                 8           8
                 9           9
                10          10
                11          11
                12          12
                13          13
                14          14
                15          15
                16          16
                17          17
                18          18
                19          19
                20          20
                21          21
                22          22
                23          23
                24          24
                25          25
                26          26
                27          27
                28          28
                29          29
                30          30
                31          31
                32          32
                33          33
                34          34
                35          35
                36          36
                37          37
                38          38
                39          39
                40          40
                41          41
                42          42
                43          43
                44          44
                45          45
                46          46
                47          47
                48          48
                49          49
                50          50
                51          51
                52          52
                53          53
                54          54
                55          55
                56          56
                57          57
                58          58
                59          59
                60          60
                61          61
                62          62
                63          63
                64          64

 KPOINTS: pymatgen v2020.8.13 with grid density =

Automatic generation of k-mesh.
 Grid dimensions read from file:
 generate k-points for:    2    2    1

 Generating k-lattice:

  Cartesian coordinates                     Fractional coordinates (reciprocal lattice)
     0.059234796  0.000000000  0.000000000     0.500000000  0.000000000  0.000000000
     0.000000000  0.059234796  0.000000000     0.000000000  0.500000000  0.000000000
     0.000000000  0.000000000  0.058823529     0.000000000  0.000000000  1.000000000

  Length of vectors
     0.059234796  0.059234796  0.058823529

  Shift w.r.t. Gamma in fractional coordinates (k-lattice)
     0.000000000  0.000000000  0.000000000

 Subroutine IBZKPT returns following result:

 Found      4 irreducible k-points:

 Following reciprocal coordinates:
            Coordinates               Weight
  0.000000  0.000000  0.000000      1.000000
  0.500000  0.000000  0.000000      1.000000
  0.000000  0.500000  0.000000      1.000000
  0.500000  0.500000  0.000000      1.000000

 Following cartesian coordinates:
            Coordinates               Weight
  0.000000  0.000000  0.000000      1.000000
  0.059235  0.000000  0.000000      1.000000
  0.000000  0.059235  0.000000      1.000000
  0.059235  0.059235  0.000000      1.000000

 SYSTEM =  Oxide-Surface
 POSCAR =  Mg  O

  energy-cutoff  :     1000.00
[...]
   O         183.526          4.816         18.522          3.42993031
   O         167.268          4.742         17.682          3.27447978
   O         167.157          4.742         17.676          3.27339396
   O         167.335          4.743         17.686          3.27514278
   O         162.539          4.720         17.430          3.22785898
   O         185.349          4.824         18.613          3.44692496
   O         188.624          4.838         18.777          3.47723938

  vdW correction parametrized for the method  '"    þ

  IVDW =  21
  VDW_RADIUS =    50.000 A
  VDW_IDAMPF =  0
  VDW_S6 =     1.000
  VDW_SR =     0.960
  VDW_D =    20.000
  LVDW_ONECELL = F F F
  LVDW_SAMETYPE T T
  LVDW_EWALD = F

  Number of pair interactions contributing to vdW energy:  892086
  Edisp (eV):   -3.59445

  FORCE on cell =-STRESS in cart. coord.  units (eV):
  Direction    XX          YY          ZZ          XY          YZ          ZX
  Alpha Z  1191.54525  1191.54525  1191.54525
  Ewald  112261.59163112265.40548************    -0.61082     2.30104     0.61167
  Hartree128842.08280128844.23072************    -0.41911     1.20374     0.34795
  E(xc)   -3223.68178 -3223.67497 -3229.83626    -0.00073    -0.00093    -0.00080
  Local  ************************250901.12038     1.03615    -3.34550    -0.93606
  n-local -5620.38221 -5620.39315 -5620.77898    -0.00759    -0.01240    -0.02523
  augment   723.98539   723.98999   714.61103    -0.00276    -0.01558    -0.00606
  Kinetic 12493.04006 12493.10168 12509.94161    -0.00595    -0.07061     0.09710
  Fock        0.00000     0.00000     0.00000     0.00000     0.00000     0.00000
  vdW        -5.09672    -5.09655    -3.47377     0.00010    -0.00080     0.00080
  Total     -20.91801   -20.79628     4.08167    -0.01072     0.05895     0.08938
  in kB     -27.66915   -27.50813     5.39900    -0.01418     0.07798     0.11823

 VOLUME and BASIS-vectors are now :
  energy-cutoff  :     1000.00
  volume of cell :     1211.25
      direct lattice vectors                 reciprocal lattice vectors
     8.440984654  0.000000000  0.000000000     0.118469591  0.000000000  0.000000000
     0.000000000  8.440984654  0.000000000     0.000000000  0.118469591  0.000000000
     0.000000000  0.000000000 17.000000000     0.000000000  0.000000000  0.058823529

  length of vectors
     8.440984654  8.440984654 17.000000000     0.118469591  0.118469591  0.058823529

 FORCES acting on ions
    electron-ion (+dipol)            ewald-force                    non-local-force                 convergence-correction
   0.305E-01 0.292E+00 0.245E+04   -.306E-01 -.294E+00 -.244E+04   0.543E-03 0.120E-02 -.912E+01   -.118E-03 -.728E-04 -.144E-02
   -.425E+00 0.175E+00 0.245E+04   0.429E+00 -.177E+00 -.244E+04   -.254E-02 0.235E-02 -.916E+01   -.562E-04 -.135E-03 -.131E-02
   -.371E-01 0.394E+00 0.814E+03   0.465E-01 -.383E+00 -.814E+03   -.929E-02 -.977E-02 0.587E+00   -.621E-04 -.127E-03 0.367E-02
   -.226E+01 0.156E+01 0.810E+03   0.236E+01 -.156E+01 -.811E+03   -.772E-01 -.743E-04 0.730E+00   0.282E-03 -.173E-03 0.350E-02
   0.447E+00 0.121E+01 -.813E+03   -.383E+00 -.118E+01 0.813E+03   -.719E-01 -.865E-02 -.191E+00   0.115E-03 0.131E-03 0.638E-02
   -.294E+01 0.278E+01 -.818E+03   0.303E+01 -.284E+01 0.818E+03   -.818E-01 0.251E-01 -.388E+00   -.905E-04 0.220E-04 0.570E-02
   0.686E+00 0.184E+01 -.243E+04   -.691E+00 -.173E+01 0.242E+04   -.167E-01 -.136E+00 0.779E+01   -.274E-04 0.176E-03 -.284E-02
   -.160E+02 0.379E+01 -.243E+04   0.162E+02 -.318E+01 0.242E+04   0.946E-01 -.490E+00 0.777E+01   0.199E-03 -.399E-04 -.270E-02
   0.340E-01 -.293E+00 0.245E+04   -.351E-01 0.294E+00 -.244E+04   0.129E-02 -.510E-03 -.914E+01   -.167E-03 0.115E-03 -.149E-02
   -.515E+00 -.174E+00 0.245E+04   0.524E+00 0.177E+00 -.244E+04   -.674E-02 -.174E-02 -.915E+01   -.127E-04 0.125E-03 -.119E-02
   0.184E+00 -.411E+00 0.812E+03   -.226E+00 0.394E+00 -.813E+03   0.309E-01 0.123E-01 0.553E+00   0.197E-03 0.113E-03 0.363E-02
   -.188E+01 -.158E+01 0.812E+03   0.189E+01 0.157E+01 -.813E+03   -.851E-02 0.373E-02 0.683E+00   0.200E-03 0.181E-03 0.359E-02
   0.707E+00 -.106E+01 -.815E+03   -.700E+00 0.104E+01 0.816E+03   -.161E-01 -.454E-03 -.145E+00   -.452E-04 -.874E-05 0.680E-02
   -.722E+01 -.333E+01 -.819E+03   0.764E+01 0.340E+01 0.820E+03   -.390E+00 -.369E-01 -.736E+00   -.126E-03 -.922E-04 0.610E-02
   0.347E+01 -.200E+01 -.243E+04   -.377E+01 0.190E+01 0.242E+04   0.193E+00 0.127E+00 0.777E+01   -.390E-04 -.306E-03 -.287E-02
   -.142E+01 -.650E+00 -.243E+04   0.570E+00 -.590E-01 0.242E+04   0.758E+00 0.568E+00 0.813E+01   0.115E-04 0.103E-03 -.279E-02
   -.292E-01 0.380E+00 0.245E+04   0.294E-01 -.387E+00 -.244E+04   0.123E-03 0.590E-02 -.918E+01   0.100E-03 -.142E-03 -.112E-02
   0.424E+00 0.171E+00 0.245E+04   -.428E+00 -.173E+00 -.244E+04   0.370E-02 0.160E-02 -.914E+01   0.495E-04 -.583E-04 -.130E-02
   0.406E-01 0.870E+00 0.810E+03   -.582E-01 -.940E+00 -.811E+03   0.115E-01 0.535E-01 0.621E+00   0.535E-04 -.188E-03 0.365E-02
   0.222E+01 0.177E+01 0.810E+03   -.232E+01 -.182E+01 -.810E+03   0.779E-01 0.373E-01 0.712E+00   -.247E-03 0.929E-04 0.330E-02
   -.682E+00 0.739E+01 -.840E+03   0.627E+00 -.761E+01 0.840E+03   0.629E-01 0.238E+00 -.617E-01   -.158E-03 0.553E-04 0.460E-02
   0.296E+01 0.250E+01 -.816E+03   -.305E+01 -.251E+01 0.816E+03   0.789E-01 -.247E-01 -.391E+00   0.941E-04 0.176E-03 0.566E-02
   -.844E+00 0.102E+02 -.243E+04   0.860E+00 -.114E+02 0.242E+04   0.793E-02 0.813E+00 0.741E+01   0.649E-04 0.799E-04 -.258E-02
   0.178E+02 0.839E+01 -.242E+04   -.180E+02 -.803E+01 0.241E+04   -.154E+00 -.365E+00 0.746E+01   -.212E-03 -.660E-04 -.239E-02
   -.344E-01 -.385E+00 0.245E+04   0.351E-01 0.390E+00 -.244E+04   -.362E-03 -.447E-02 -.914E+01   0.178E-03 0.135E-03 -.124E-02
   0.513E+00 -.169E+00 0.245E+04   -.523E+00 0.171E+00 -.244E+04   0.821E-02 -.124E-02 -.917E+01   0.516E-05 0.653E-04 -.139E-02
   -.185E+00 -.829E+00 0.805E+03   0.213E+00 0.880E+00 -.805E+03   -.240E-01 -.417E-01 0.938E+00   -.182E-03 0.166E-03 0.307E-02
   0.186E+01 -.180E+01 0.812E+03   -.188E+01 0.184E+01 -.812E+03   0.133E-01 -.373E-01 0.710E+00   -.218E-03 -.887E-04 0.348E-02
   -.811E+00 -.513E+01 -.818E+03   0.808E+00 0.535E+01 0.818E+03   0.134E-01 -.224E+00 -.196E+00   0.923E-04 -.428E-04 0.669E-02
   0.771E+01 -.315E+01 -.827E+03   -.813E+01 0.317E+01 0.828E+03   0.392E+00 0.976E-02 -.477E+00   0.103E-03 -.264E-03 0.601E-02
   -.804E+01 -.328E+02 -.247E+04   0.810E+01 0.324E+02 0.246E+04   0.132E+00 0.111E+01 0.882E+01   0.166E-04 -.195E-03 -.309E-02
   0.197E+01 -.436E+01 -.243E+04   -.117E+01 0.395E+01 0.242E+04   -.712E+00 0.373E+00 0.793E+01   -.872E-04 0.131E-03 -.261E-02
   0.129E+00 0.571E+00 0.487E+03   -.140E+00 -.571E+00 -.487E+03   0.125E-01 0.132E-02 0.159E-01   0.305E-04 0.613E-05 0.114E-02
   -.101E+01 0.549E+00 0.486E+03   0.102E+01 -.553E+00 -.486E+03   -.137E-01 0.350E-02 -.877E-01   0.418E-04 -.749E-04 0.114E-02
   0.899E-02 0.825E-01 0.148E+04   -.734E-02 -.812E-01 -.149E+04   -.252E-02 -.188E-02 0.264E+01   -.517E-04 -.517E-04 -.120E-02
   -.294E+00 0.199E+00 0.148E+04   0.307E+00 -.200E+00 -.149E+04   -.180E-01 0.124E-03 0.263E+01   0.421E-04 -.447E-04 -.113E-02
   0.127E+00 0.151E+01 -.149E+04   -.265E+00 -.145E+01 0.149E+04   0.196E+00 -.111E+00 -.473E+01   0.291E-04 0.193E-04 -.178E-02
   -.267E+01 0.261E+01 -.149E+04   0.304E+01 -.308E+01 0.149E+04   -.419E+00 0.582E+00 -.466E+01   0.115E-04 0.427E-04 -.177E-02
   -.227E-01 0.331E+00 -.484E+03   0.249E-02 -.367E+00 0.484E+03   0.283E-01 0.545E-01 0.201E+00   0.130E-04 0.622E-05 0.208E-02
   -.410E+01 0.189E+01 -.487E+03   0.424E+01 -.183E+01 0.486E+03   -.196E+00 -.933E-01 0.303E+00   0.415E-05 -.126E-05 0.203E-02
   0.127E+00 -.577E+00 0.487E+03   -.124E+00 0.584E+00 -.487E+03   -.405E-02 -.888E-02 -.268E-01   -.155E-04 0.451E-05 0.116E-02
   -.143E+01 -.565E+00 0.484E+03   0.138E+01 0.576E+00 -.484E+03   0.644E-01 -.144E-01 -.836E-01   0.731E-04 0.626E-04 0.108E-02
   0.252E-01 -.823E-01 0.148E+04   -.292E-01 0.812E-01 -.149E+04   0.472E-02 0.110E-02 0.263E+01   -.139E-04 0.415E-04 -.129E-02
   -.265E+00 -.199E+00 0.148E+04   0.268E+00 0.200E+00 -.149E+04   -.531E-02 -.176E-02 0.263E+01   -.659E-07 0.581E-04 -.119E-02
   0.669E+00 -.139E+01 -.149E+04   -.830E+00 0.132E+01 0.149E+04   0.206E+00 0.131E+00 -.458E+01   0.220E-04 0.560E-04 -.184E-02
   -.634E+01 -.468E+01 -.148E+04   0.613E+01 0.520E+01 0.148E+04   0.375E+00 -.646E+00 -.337E+01   0.422E-04 -.905E-04 -.172E-02
   0.723E+00 -.406E+00 -.482E+03   -.786E+00 0.437E+00 0.482E+03   0.894E-01 -.463E-01 0.487E+00   0.609E-04 -.785E-04 0.213E-02
   -.170E+01 -.160E+01 -.484E+03   0.167E+01 0.155E+01 0.484E+03   0.449E-01 0.991E-01 0.416E+00   0.205E-04 0.457E-04 0.213E-02
   -.123E+00 0.984E+00 0.483E+03   0.137E+00 -.910E+00 -.483E+03   -.177E-01 -.931E-01 -.158E+00   -.429E-04 -.286E-04 0.118E-02
   0.976E+00 0.545E+00 0.487E+03   -.977E+00 -.562E+00 -.487E+03   0.347E-02 0.192E-01 -.542E-01   -.439E-04 -.379E-05 0.110E-02
   -.808E-02 0.113E+00 0.148E+04   0.675E-02 -.121E+00 -.149E+04   0.125E-02 0.103E-01 0.263E+01   0.571E-04 -.659E-04 -.113E-02
   0.294E+00 0.215E+00 0.148E+04   -.307E+00 -.221E+00 -.149E+04   0.159E-01 0.785E-02 0.263E+01   -.488E-04 -.107E-04 -.120E-02
   -.145E+01 0.183E+02 -.150E+04   0.172E+01 -.183E+02 0.150E+04   -.329E+00 -.442E+00 -.506E+01   -.220E-04 -.300E-04 -.176E-02
   0.282E+01 0.207E+01 -.149E+04   -.322E+01 -.251E+01 0.149E+04   0.442E+00 0.566E+00 -.485E+01   -.175E-04 0.964E-04 -.170E-02
   0.443E-01 0.289E+01 -.486E+03   -.353E-01 -.316E+01 0.485E+03   -.155E-01 0.368E+00 0.244E+00   0.267E-05 0.805E-04 0.198E-02
   0.421E+01 0.267E+01 -.484E+03   -.434E+01 -.264E+01 0.483E+03   0.194E+00 -.402E-01 0.504E+00   0.147E-04 0.287E-04 0.200E-02
   -.150E+00 -.106E+01 0.485E+03   0.159E+00 0.102E+01 -.485E+03   -.114E-01 0.605E-01 -.388E-01   0.186E-04 0.322E-04 0.108E-02
   0.139E+01 -.541E+00 0.484E+03   -.132E+01 0.558E+00 -.483E+03   -.859E-01 -.214E-01 -.144E+00   -.916E-04 -.198E-05 0.108E-02
   -.237E-01 -.111E+00 0.148E+04   0.283E-01 0.120E+00 -.149E+04   -.650E-02 -.121E-01 0.262E+01   0.895E-05 0.741E-04 -.112E-02
   0.265E+00 -.216E+00 0.148E+04   -.268E+00 0.222E+00 -.149E+04   0.281E-02 -.911E-02 0.263E+01   0.304E-05 0.102E-04 -.122E-02
   -.102E+01 -.681E+00 -.148E+04   0.120E+01 -.146E+00 0.149E+04   -.241E+00 0.105E+01 -.354E+01   0.959E-05 0.690E-04 -.189E-02
   0.991E+01 -.487E+01 -.149E+04   -.994E+01 0.545E+01 0.149E+04   -.160E+00 -.725E+00 -.423E+01   -.601E-04 -.104E-03 -.169E-02
   -.973E+00 -.418E+01 -.509E+03   0.103E+01 0.442E+01 0.509E+03   -.773E-01 -.331E+00 -.667E+00   -.365E-04 -.841E-04 0.193E-02
   0.175E+01 -.235E+01 -.484E+03   -.172E+01 0.232E+01 0.484E+03   -.429E-01 0.397E-01 0.431E+00   -.466E-04 0.802E-06 0.212E-02
   -.362E+00 -.239E+01 0.197E+02   -.113E-11 -.195E-12 0.460E-11   0.345E+00 0.239E+01 -.198E+02   -.720E-04 -.682E-04 0.452E-01

 POSITION                                       TOTAL-FORCE (eV/Angst)
      0.00072      6.33121      4.07058         0.000486     -0.000047      0.326196
      2.11096      0.00047      4.07058         0.001533     -0.000411      0.331604
      0.00072      0.00047      6.18083         0.000357      0.002096      0.024055
      2.11096      6.33121      6.18083         0.021728     -0.001879      0.036369
      0.00247      6.32926      8.29804        -0.007982      0.021952      0.039407
      2.11132      0.00153      8.30334         0.013047     -0.033377      0.056306
      0.00134      0.00394     10.40560        -0.021728     -0.026181      0.000973
      2.09141      6.33052     10.40219         0.278168      0.116860      0.062670
      0.00072      2.11072      4.07058         0.000321      0.000515      0.329420
      2.11096      4.22097      4.07058         0.002388      0.000834      0.330376
      0.00072      4.22097      6.18083        -0.011113     -0.004120      0.031235
      2.11096      2.11072      6.18083         0.002924      0.000472      0.016116
      0.00098      2.11191      8.30056        -0.009397     -0.022128      0.028027
      2.11675      4.21879      8.31104         0.028115      0.034088     -0.049656
      0.00431      4.21686     10.40084        -0.112613      0.027373      0.026789
      2.10238      2.10950     10.40878        -0.089775     -0.140502     -0.095620
      4.22121      6.33121      4.07058         0.000718     -0.001012      0.335761
      6.33145      0.00047      4.07058        -0.000373     -0.000258      0.329366
      4.22121      0.00047      6.18083        -0.005857     -0.016794      0.056216
      6.33145      6.33121      6.18083        -0.022623     -0.011844      0.039810
      4.21890      6.32261      8.31008         0.007670      0.018268      0.224661
      6.32958      0.00287      8.30108        -0.009994     -0.029654      0.068780
      4.21848      0.01729     10.40689         0.024118     -0.341515      0.087050
      6.35226      6.33688     10.38281        -0.314913     -0.012432      0.255847
      4.22121      2.11072      4.07058         0.000815      0.001320      0.328459
      6.33145      4.22097      4.07058        -0.001315      0.000746      0.334233
      4.22121      4.22097      6.18083         0.003648      0.009819      0.064489
      6.33145      2.11072      6.18083        -0.005711      0.012028      0.020339
      4.21936      2.11534      8.30826         0.010898     -0.007293     -0.045400
      6.32314      4.21825      8.31239        -0.025701      0.031905      0.033578
      4.20534      4.16626     10.50770         0.192229      0.633928     -0.596082
      6.33710      2.10698     10.40271         0.084119     -0.039190     -0.002534
      0.00072      6.33121      6.18083         0.001634      0.001156      0.066017
      2.11096      0.00047      6.18083        -0.000656     -0.000933      0.062413
      0.00072      0.00047      4.07058        -0.000661     -0.000694     -0.517355
      2.11096      6.33121      4.07058        -0.004526     -0.000548     -0.520580
      8.43978      6.33407     10.44764         0.058143     -0.051077      0.007134
      2.10473      8.44051     10.45129        -0.048867      0.118709      0.019367
      8.44027      8.43956      8.29532         0.008344      0.018983      0.005964
      2.11568      6.33318      8.30183        -0.064223     -0.031946     -0.037805
      0.00072      2.11072      6.18083        -0.001676     -0.002281      0.064813
      2.11096      4.22097      6.18083         0.016174     -0.002552      0.094195
      0.00072      4.22097      4.07058         0.001057      0.000120     -0.518310
      2.11096      2.11072      4.07058        -0.001498     -0.000753     -0.519694
      8.43954      2.10716     10.45110         0.044819      0.054122      0.031671
      2.09561      4.22174     10.42932         0.163935     -0.127727      0.322783
      8.43817      4.22188      8.29301         0.027434     -0.014749      0.058042
      2.11019      2.10749      8.29677         0.012397      0.042580      0.041551
      4.22121      6.33121      6.18083        -0.003429     -0.019045      0.069856
      6.33145      0.00047      6.18083         0.002558      0.002250      0.061946
      4.22121      0.00047      4.07058         0.000234      0.002206     -0.519398
      6.33145      6.33121      4.07058         0.003120      0.001284     -0.520729
      4.22225      6.36826     10.50560        -0.063265     -0.431958     -0.169023
      6.33563      8.44033     10.45062         0.052629      0.128035     -0.017981
      4.22117      8.43550      8.30013        -0.006009      0.096216     -0.016705
      6.32579      6.33148      8.30051         0.066010     -0.011671     -0.063730
      4.22121      2.11072      6.18083        -0.002076      0.013326      0.092946
      6.33145      4.22097      6.18083        -0.016618     -0.004016      0.083863
      4.22121      4.22097      4.07058        -0.001602     -0.003018     -0.521976
      6.33145      2.11072      4.07058        -0.000008     -0.002497     -0.519998
      4.22133      2.09157     10.44657        -0.055742      0.218970      0.236112
      6.34565      4.22345     10.45811        -0.185638     -0.139774      0.098287
      4.22248      4.22478      8.31865        -0.025453     -0.092851      0.006150
      6.33062      2.10977      8.29826        -0.010726      0.016568      0.011336
    total drift:                               -0.016703     -0.001331     -0.085640

  FREE ENERGIE OF THE ION-ELECTRON SYSTEM (eV)
  free  energy   TOTEN  =      -376.14702322 eV

  energy  without entropy=     -376.14702322  energy(sigma->0) =     -376.14702322