 vasp.6.3.0 20Jan22 (build Apr  1 2022 16:44:48) complex
 executed on        HPECrayEX_GCC date 2022.11.13  11:56:49

 INCAR:
   SYSTEM = MgO-rocksalt
   ISMEAR = 0
   SIGMA = 0.05
   EDIFF = 1E-6
   ALGO = ALL
   ISTART = 0
   IBRION = -1
   NSW = 0
   ISYM = 0
   DIPOL = 0.5 0.5 0.5
   IDIPOL = 3
   LDIPOL = .TRUE.
   LHFCALC = .TRUE.
   GGA = B5
   AEXX = 0.2
   AGGAX = 0.72
   AGGAC = 0.81
   ALDAC = 0.19
   IVDW = 1
   VDW_S6 = 1.05
   VDW_C6 = 0.63 0.70
   VDW_R0 = 1.243 1.342
   ENCUT = 600
   PREC = Accurate
   LASPH = .TRUE.
   LREAL = .FALSE.
   ISPIN = 1
   NELM = 200
   NELMIN = 8
   NCORE = 8
   KPAR = 1
   LWAVE = .FALSE.
   LCHARG = .FALSE.

 POTCAR:    PAW_PBE Mg_pv 13Apr2007
 POTCAR:    PAW_PBE O 08Apr2002
 POTCAR:    PAW_PBE Mg_pv 13Apr2007
   VRHFIN =Mg: p6s2

   TITEL  = PAW_PBE Mg_pv 13Apr2007
   POMASS =   24.305; ZVAL   =    8.000    mass and valenz
   ENMAX  =  403.929; ENMIN  =  302.947 eV

   TITEL  = PAW_PBE O 08Apr2002
   POMASS =   16.000; ZVAL   =    6.000    mass and valenz
   ENMAX  =  400.000; ENMIN  =  300.000 eV

  PAW_PBE Mg_pv 13Apr2007               :
  PAW_PBE O 08Apr2002                   :

 POSCAR: Mg  O
  positions in direct lattice
 exchange correlation table for  LEXCH =       12
   RHO(1)=    0.500       N(1)  =     2000
   RHO(2)=  100.500       N(2)  =     4000

 ion  position               nearest neighbor table
   1  0.000  0.750  0.350-  33 2.14  35 2.14  36 2.14  43 2.14  52 2.14
   2  0.250  0.000  0.350-  34 2.14  35 2.14  36 2.14  44 2.14  51 2.14
   3  0.000  0.000  0.450-  35 2.14  34 2.14  33 2.14  41 2.14  50 2.14  39 2.14
   4  0.250  0.750  0.450-  36 2.14  34 2.14  33 2.14  42 2.14  49 2.14  40 2.14
   5  1.000  0.750  0.550-  56 2.13  47 2.13  40 2.14  39 2.14  33 2.14  37 2.17
   6  0.250  0.000  0.550-  55 2.13  39 2.14  34 2.14  48 2.14  40 2.14  38 2.17
   7  0.999  0.000  0.649-  39 2.13  45 2.13  54 2.13  37 2.13  38 2.14
   8  0.249  0.752  0.648-  40 2.10  38 2.12  37 2.13  53 2.14  46 2.16
   9  0.000  0.250  0.350-  41 2.14  35 2.14  43 2.14  44 2.14  60 2.14
  10  0.250  0.500  0.350-  42 2.14  36 2.14  43 2.14  44 2.14  59 2.14
  11  0.000  0.500  0.450-  43 2.14  41 2.14  42 2.14  33 2.14  58 2.14  47 2.14
  12  0.250  0.250  0.450-  44 2.14  41 2.14  42 2.14  34 2.14  57 2.14  48 2.14
  13  1.000  0.250  0.550-  64 2.13  48 2.13  47 2.14  39 2.14  41 2.14  45 2.17
  14  0.251  0.500  0.551-  63 2.12  48 2.13  40 2.13  47 2.14  42 2.15  46 2.21
  15  0.998  0.500  0.649-  62 2.10  46 2.12  47 2.12  45 2.14  37 2.15
  16  0.250  0.248  0.649-  48 2.12  38 2.12  61 2.14  45 2.14  46 2.16
  17  0.500  0.750  0.350-  49 2.14  36 2.14  51 2.14  52 2.14  59 2.14
  18  0.750  0.000  0.350-  50 2.14  35 2.14  51 2.14  52 2.14  60 2.14
  19  0.500  0.000  0.450-  55 2.13  51 2.14  50 2.14  34 2.14  49 2.14  57 2.14
  20  0.750  0.750  0.450-  52 2.14  49 2.14  50 2.14  33 2.14  58 2.14  56 2.14
  21  0.500  0.749  0.551-  63 2.12  56 2.14  40 2.14  55 2.14  53 2.15  49 2.16
  22  0.750  0.000  0.550-  55 2.14  64 2.14  56 2.14  39 2.14  50 2.14  54 2.17
  23  0.500  0.000  0.649-  61 2.11  55 2.12  53 2.12  54 2.14  38 2.14
  24  0.750  0.751  0.649-  56 2.12  54 2.13  37 2.13  53 2.14  62 2.14
  25  0.500  0.250  0.350-  57 2.14  51 2.14  44 2.14  59 2.14  60 2.14
  26  0.750  0.500  0.350-  58 2.14  52 2.14  43 2.14  59 2.14  60 2.14
  27  0.500  0.500  0.450-  59 2.14  49 2.14  57 2.14  58 2.14  42 2.14  63 2.16
  28  0.750  0.250  0.450-  60 2.14  50 2.14  57 2.14  58 2.14  41 2.14  64 2.14
  29  0.500  0.251  0.551-  61 2.13  63 2.13  64 2.14  48 2.14  55 2.15  57 2.15
  30  0.749  0.500  0.551-  63 2.13  64 2.14  56 2.14  47 2.15  58 2.15  62 2.16
  31  0.505  0.499  0.655-  62 2.11  61 2.15  53 2.16  46 2.22  63 2.23
  32  0.750  0.249  0.649-  64 2.13  54 2.13  61 2.14  45 2.14  62 2.15
  33  0.000  0.750  0.450-   1 2.14   3 2.14   4 2.14  11 2.14  20 2.14   5 2.14
  34  0.250  0.000  0.450-   2 2.14   3 2.14   4 2.14  12 2.14  19 2.14   6 2.14
  35  0.000  0.000  0.350-   3 2.14   2 2.14   1 2.14   9 2.14  18 2.14
  36  0.250  0.750  0.350-   4 2.14   2 2.14   1 2.14  10 2.14  17 2.14
  37  1.000  0.751  0.651-   7 2.13   8 2.13  24 2.13  15 2.15   5 2.17
  38  0.249  1.000  0.651-   8 2.12  16 2.12   7 2.14  23 2.14   6 2.17
  39  0.000  1.000  0.550-   7 2.13   3 2.14   6 2.14   5 2.14  13 2.14  22 2.14
  40  0.250  0.749  0.550-   8 2.10  14 2.13   5 2.14  21 2.14   4 2.14   6 2.14
  41  0.000  0.250  0.450-   9 2.14   3 2.14  11 2.14  12 2.14  28 2.14  13 2.14
  42  0.250  0.500  0.450-  10 2.14   4 2.14  11 2.14  12 2.14  27 2.14  14 2.15
  43  0.000  0.500  0.350-  11 2.14   9 2.14  10 2.14   1 2.14  26 2.14
  44  0.250  0.250  0.350-  12 2.14   9 2.14  10 2.14   2 2.14  25 2.14
  45  1.000  0.249  0.651-   7 2.13  32 2.14  16 2.14  15 2.14  13 2.17
  46  0.246  0.500  0.654-  15 2.12   8 2.16  16 2.16  14 2.21  31 2.22
  47  0.000  0.500  0.550-  15 2.12   5 2.13  13 2.14  14 2.14  11 2.14  30 2.15
  48  0.249  0.251  0.550-  16 2.12  14 2.13  13 2.13   6 2.14  29 2.14  12 2.14
  49  0.500  0.750  0.450-  17 2.14   4 2.14  19 2.14  20 2.14  27 2.14  21 2.16
  50  0.750  0.000  0.450-  18 2.14   3 2.14  19 2.14  20 2.14  28 2.14  22 2.14
  51  0.500  0.000  0.350-  19 2.14  17 2.14  18 2.14   2 2.14  25 2.14
  52  0.750  0.750  0.350-  20 2.14  17 2.14  18 2.14   1 2.14  26 2.14
  53  0.500  0.752  0.651-  23 2.12  24 2.14   8 2.14  21 2.15  31 2.16
  54  0.750  1.000  0.651-  24 2.13  32 2.13   7 2.13  23 2.14  22 2.17
  55  0.500  1.000  0.550-  23 2.12  19 2.13   6 2.13  22 2.14  21 2.14  29 2.15
  56  0.750  0.750  0.550-  24 2.12   5 2.13  21 2.14  30 2.14  22 2.14  20 2.14
  57  0.500  0.250  0.450-  25 2.14  19 2.14  12 2.14  27 2.14  28 2.14  29 2.15
  58  0.750  0.500  0.450-  26 2.14  20 2.14  11 2.14  27 2.14  28 2.14  30 2.15
  59  0.500  0.500  0.350-  27 2.14  17 2.14  25 2.14  26 2.14  10 2.14
  60  0.750  0.250  0.350-  28 2.14  18 2.14  25 2.14  26 2.14   9 2.14
  61  0.500  0.248  0.650-  23 2.11  29 2.13  32 2.14  16 2.14  31 2.15
  62  0.752  0.500  0.652-  15 2.10  31 2.11  24 2.14  32 2.15  30 2.16
  63  0.499  0.500  0.551-  14 2.12  21 2.12  29 2.13  30 2.13  27 2.16  31 2.23
  64  0.750  0.250  0.550-  32 2.13  13 2.13  30 2.14  22 2.14  29 2.14  28 2.14

IMPORTANT INFORMATION: All symmetrisations will be switched off!
NOSYMM: (Re-)initialisation of all symmetry stuff for point group C_1.

                                     Primitive cell

  volume of cell :    1563.6717

  direct lattice vectors                    reciprocal lattice vectors
     8.546113626  0.000000000  0.000000000     0.117012252  0.000000000  0.000000000
     0.000000000  8.546113626  0.000000000     0.000000000  0.117012252  0.000000000
     0.000000000  0.000000000 21.409585219     0.000000000  0.000000000  0.046708051

  length of vectors
     8.546113626  8.546113626 21.409585219     0.117012252  0.117012252  0.046708051

  position of ions in fractional coordinates (direct lattice)
     0.000000000  0.750000000  0.350310383
     0.250000000  0.000000000  0.350310383
     0.000000000  0.000000000  0.450103461
     0.250000000  0.750000000  0.450103461
     0.999587396  0.749807555  0.550161153
     0.250153706  0.000195283  0.549971425
     0.999412261  0.000151311  0.649246970
     0.249273612  0.752323379  0.648294634
     0.000000000  0.250000000  0.350310383
     0.250000000  0.500000000  0.350310383
     0.000000000  0.500000000  0.450103461
     0.250000000  0.250000000  0.450103461
     0.999715188  0.250186346  0.550256794
     0.251018957  0.499836351  0.550736815
     0.997986534  0.499829240  0.649309723
     0.249944733  0.247702430  0.649013345
     0.500000000  0.750000000  0.350310383
     0.750000000  0.000000000  0.350310383
     0.500000000  0.000000000  0.450103461
     0.750000000  0.750000000  0.450103461
     0.500147142  0.748788752  0.550769963
     0.749648203  0.000100221  0.550077768
     0.500259408  0.000383003  0.648857310
     0.750110287  0.750977024  0.649082642
     0.500000000  0.250000000  0.350310383
     0.750000000  0.500000000  0.350310383
     0.500000000  0.500000000  0.450103461
     0.750000000  0.250000000  0.450103461
     0.500103767  0.251078294  0.550711108
     0.748893733  0.499877005  0.550632316
     0.505394357  0.498930092  0.655090104
     0.749740634  0.248977442  0.649348320
     0.000000000  0.750000000  0.450103461
     0.250000000  0.000000000  0.450103461
     0.000000000  0.000000000  0.350310383
     0.250000000  0.750000000  0.350310383
     0.999759395  0.750786675  0.651412155
     0.249390762  0.999792376  0.651189468
     0.000053276  0.999927226  0.549904811
     0.249570233  0.749445341  0.550162011
     0.000000000  0.250000000  0.450103461
     0.250000000  0.500000000  0.450103461
     0.000000000  0.500000000  0.350310383
     0.250000000  0.250000000  0.350310383
     0.999770689  0.249217390  0.651385473
     0.245506211  0.500322101  0.653898833
     0.000334054  0.500077306  0.550201944
     0.249451130  0.250567090  0.550225375
     0.500000000  0.750000000  0.450103461
     0.750000000  0.000000000  0.450103461
     0.500000000  0.000000000  0.350310383
     0.750000000  0.750000000  0.350310383
     0.499708168  0.751871918  0.651086471
     0.750272182  0.999863944  0.651250402
     0.499743844  0.999687057  0.549699342
     0.750176339  0.749913556  0.550050326
     0.500000000  0.250000000  0.450103461
     0.750000000  0.500000000  0.450103461
     0.500000000  0.500000000  0.350310383
     0.750000000  0.250000000  0.350310383
     0.499859154  0.247807687  0.650049750
     0.751806827  0.500143173  0.651591826
     0.499433919  0.500147097  0.550928257
     0.750370980  0.250059365  0.550008108

  ion indices of the primitive-cell ions
   primitive index   ion index
                 1           1
                 2           2
                 3           3
                 4           4
                 5           5
                 6           6
                 7           7
                 8           8
                 9           9
                10          10
                11          11
                12          12
                13          13
                14          14
                15          15
                16          16
                17          17
                18          18
                19          19
                20          20
                21          21
                22          22
                23          23
                24          24
                25          25
                26          26
                27          27
                28          28
                29          29
                30          30
                31          31
                32          32
                33          33
                34          34
                35          35
                36          36
                37          37
                38          38
                39          39
                40          40
                41          41
                42          42
                43          43
                44          44
[...]
   0.25000000  0.50000000  0.45010346
   0.00000000  0.50000000  0.35031038
   0.25000000  0.25000000  0.35031038
   0.99977069  0.24921739  0.65138547
   0.24550621  0.50032210  0.65389883
   0.00033405  0.50007731  0.55020194
   0.24945113  0.25056709  0.55022537
   0.50000000  0.75000000  0.45010346
   0.75000000  0.00000000  0.45010346
   0.50000000  0.00000000  0.35031038
   0.75000000  0.75000000  0.35031038
   0.49970817  0.75187192  0.65108647
   0.75027218  0.99986394  0.65125040
   0.49974384  0.99968706  0.54969934
   0.75017634  0.74991356  0.55005033
   0.50000000  0.25000000  0.45010346
   0.75000000  0.50000000  0.45010346
   0.50000000  0.50000000  0.35031038
   0.75000000  0.25000000  0.35031038
   0.49985915  0.24780769  0.65004975
   0.75180683  0.50014317  0.65159183
   0.49943392  0.50014710  0.55092826
   0.75037098  0.25005937  0.55000811

 position of ions in cartesian coordinates  (Angst):
   0.00000000  6.40958522  7.50000000
   2.13652841  0.00000000  7.50000000
   0.00000000  0.00000000  9.63652841
   2.13652841  6.40958522  9.63652841
   8.54258747  6.40794056 11.77872210
   2.13784199  0.00166891 11.77466009
   8.54109074  0.00129312 13.90010834
   2.13032061  6.42944108 13.87971921
   0.00000000  2.13652841  7.50000000
   2.13652841  4.27305681  7.50000000
   0.00000000  4.27305681  9.63652841
   2.13652841  2.13652841  9.63652841
   8.54367959  2.13812094 11.78076973
   2.14523652  4.27165825 11.79104677
   8.52890631  4.27159748 13.90145184
   2.13605609  2.11689311 13.89510653
   4.27305681  6.40958522  7.50000000
   6.40958522  0.00000000  7.50000000
   4.27305681  0.00000000  9.63652841
   6.40958522  6.40958522  9.63652841
   4.27431430  6.39923376 11.79175646
   6.40657872  0.00085650 11.77693685
   4.27527374  0.00327319 13.89176587
   6.41052774  6.41793498 13.89659015
   4.27305681  2.13652841  7.50000000
   6.40958522  4.27305681  7.50000000
   4.27305681  4.27305681  9.63652841
   6.40958522  2.13652841  9.63652841
   4.27394362  2.14574363 11.79049640
   6.40013094  4.27200568 11.78880949
   4.31915760  4.26391325 14.02520741
   6.40736865  2.12778951 13.90227820
   0.00000000  6.40958522  9.63652841
   2.13652841  0.00000000  9.63652841
   0.00000000  0.00000000  7.50000000
   2.13652841  6.40958522  7.50000000
   8.54405738  6.41630823 13.94646404
   2.13132179  8.54433925 13.94169641
   0.00045530  8.54549169 11.77323392
   2.13285557  6.40484504 11.77874045
   0.00000000  2.13652841  9.63652841
   2.13652841  4.27305681  9.63652841
   0.00000000  4.27305681  7.50000000
   2.13652841  2.13652841  7.50000000
   8.54415391  2.12984013 13.94589279
   2.09812397  4.27580953 13.99970280
   0.00285486  4.27371748 11.77959540
   2.13183770  2.14137482 11.78009705
   4.27305681  6.40958522  9.63652841
   6.40958522  0.00000000  9.63652841
   4.27305681  0.00000000  7.50000000
   6.40958522  6.40958522  7.50000000
   4.27056279  6.42558284 13.93949128
   6.41191132  8.54495087 13.94300099
   4.27086767  8.54343918 11.76883490
   6.41109223  6.40884646 11.77634932
   4.27305681  2.13652841  9.63652841
   6.40958522  4.27305681  9.63652841
   4.27305681  4.27305681  7.50000000
   6.40958522  2.13652841  7.50000000
   4.27185313  2.11779265 13.91729551
   6.42502656  4.27428039 13.95031072
   4.26821902  4.27431392 11.79514548
   6.41275566  2.13703575 11.77544546

--------------------------------------- Iteration      FINAL  ---------------------------------------

--------------------OUTCAR has been truncated-------------------------

[...]

--------------------OUTCAR has been truncated-------------------------

  DFT-D2 method for vdW energy calculation

  Parameters of vdW forcefield:
         C6(Jnm^6/mol)     R0(A)
   Mg       0.630          1.243
   O        0.700          1.342

  vdW correction parametrized for the method 3ü      

  IVDW =   1
  VDW_RADIUS =    50.000 A
  VDW_S6 =     1.050
  VDW_SR =     1.000
  VDW_D =    20.000
  LVDW_EWALD = F

  Number of pair interactions contributing to vdW energy:  705227
  Edisp (eV):   -4.82941

 VOLUME and BASIS-vectors are now :
  energy-cutoff  :      600.00
  volume of cell :     1563.67
      direct lattice vectors                 reciprocal lattice vectors
     8.546113626  0.000000000  0.000000000     0.117012252  0.000000000  0.000000000
     0.000000000  8.546113626  0.000000000     0.000000000  0.117012252  0.000000000
     0.000000000  0.000000000 21.409585219     0.000000000  0.000000000  0.046708051

  length of vectors
     8.546113626  8.546113626 21.409585219     0.117012252  0.117012252  0.046708051

 FORCES acting on ions:
    Electron-Ion                     Ewald-Force                    Non-Local-Force
   -.107E+00 0.351E+00 0.201E+04   0.108E+00 -.358E+00 -.200E+04   -.465E-03 0.427E-02 -.633E+01
   -.193E+00 0.236E-02 0.201E+04   0.196E+00 -.268E-02 -.200E+04   -.204E-02 0.189E-03 -.631E+01
   -.286E+00 -.689E-01 0.666E+03   0.272E+00 0.769E-01 -.667E+03   0.913E-02 -.514E-02 0.333E+00
   -.125E+01 0.174E+01 0.664E+03   0.128E+01 -.184E+01 -.664E+03   -.208E-01 0.637E-01 0.444E+00
   -.157E+01 0.223E+01 -.665E+03   0.157E+01 -.230E+01 0.666E+03   0.206E-01 0.584E-01 -.233E+00
   -.563E+00 0.112E+00 -.663E+03   0.528E+00 -.843E-01 0.663E+03   0.371E-02 -.320E-01 -.862E-01
   -.139E+01 0.139E+00 -.199E+04   0.132E+01 -.161E+00 0.199E+04   0.869E-01 0.202E-02 0.546E+01
   -.523E+01 0.110E+02 -.198E+04   0.484E+01 -.111E+02 0.198E+04   0.316E+00 -.173E+00 0.533E+01
   -.113E+00 -.352E+00 0.201E+04   0.114E+00 0.358E+00 -.200E+04   -.771E-03 -.428E-02 -.633E+01
   -.250E+00 -.189E-02 0.201E+04   0.257E+00 0.231E-02 -.200E+04   -.434E-02 -.246E-03 -.636E+01
   -.535E+00 0.753E-01 0.663E+03   0.578E+00 -.835E-01 -.664E+03   -.282E-01 0.515E-02 0.392E+00
   -.114E+01 -.175E+01 0.664E+03   0.114E+01 0.185E+01 -.664E+03   0.177E-03 -.648E-01 0.461E+00
   -.172E+01 -.226E+01 -.667E+03   0.175E+01 0.233E+01 0.667E+03   -.453E-02 -.555E-01 -.255E+00
   -.458E+01 -.127E+00 -.684E+03   0.483E+01 0.970E-01 0.684E+03   -.239E+00 0.325E-01 0.243E-01
   -.509E+01 -.140E+00 -.199E+04   0.597E+01 0.159E+00 0.198E+04   -.529E+00 0.892E-03 0.519E+01
   -.292E+01 -.110E+02 -.199E+04   0.239E+01 0.111E+02 0.198E+04   0.358E+00 0.205E+00 0.551E+01
   0.107E+00 0.408E+00 0.201E+04   -.108E+00 -.418E+00 -.200E+04   0.850E-03 0.676E-02 -.635E+01
   0.192E+00 0.791E-02 0.201E+04   -.196E+00 -.861E-02 -.200E+04   0.232E-02 0.450E-03 -.632E+01
   0.268E+00 0.217E-01 0.666E+03   -.262E+00 -.521E-01 -.666E+03   -.416E-02 0.197E-01 0.276E+00
   0.121E+01 0.154E+01 0.665E+03   -.126E+01 -.158E+01 -.665E+03   0.280E-01 0.224E-01 0.432E+00
   0.204E+01 0.513E+01 -.673E+03   -.206E+01 -.553E+01 0.673E+03   -.145E-01 0.342E+00 -.474E+00
   0.519E+00 0.271E+00 -.664E+03   -.480E+00 -.269E+00 0.664E+03   -.674E-02 -.106E-01 -.803E-01
   0.157E+01 0.199E+01 -.199E+04   -.150E+01 -.215E+01 0.198E+04   -.852E-01 0.560E-01 0.551E+01
   0.273E+01 0.270E+01 -.199E+04   -.229E+01 -.203E+01 0.198E+04   -.321E+00 -.524E+00 0.560E+01
   0.113E+00 -.409E+00 0.201E+04   -.114E+00 0.419E+00 -.200E+04   0.103E-02 -.646E-02 -.634E+01
   0.250E+00 -.790E-02 0.201E+04   -.256E+00 0.858E-02 -.200E+04   0.455E-02 -.429E-03 -.633E+01
   0.527E+00 -.474E-01 0.660E+03   -.576E+00 0.692E-01 -.660E+03   0.322E-01 -.146E-01 0.569E+00
   0.111E+01 -.155E+01 0.665E+03   -.112E+01 0.158E+01 -.666E+03   0.428E-02 -.221E-01 0.420E+00
   0.214E+01 -.502E+01 -.668E+03   -.219E+01 0.543E+01 0.669E+03   0.113E-01 -.348E+00 -.645E+00
   0.307E+01 -.294E+00 -.671E+03   -.331E+01 0.292E+00 0.671E+03   0.224E+00 0.104E-01 -.677E-01
   0.206E+02 -.259E+01 -.204E+04   -.202E+02 0.276E+01 0.203E+04   -.802E+00 -.366E-01 0.627E+01
   0.733E+00 -.266E+01 -.199E+04   -.144E+00 0.195E+01 0.199E+04   -.379E+00 0.551E+00 0.572E+01
   -.437E+00 0.103E+01 0.499E+03   0.457E+00 -.104E+01 -.499E+03   -.216E-01 0.537E-02 -.625E-01
   -.450E+00 0.329E-01 0.499E+03   0.462E+00 -.439E-01 -.499E+03   -.155E-01 0.127E-01 0.161E-01
   -.668E-01 -.318E-02 0.151E+04   0.658E-01 0.401E-02 -.151E+04   0.131E-02 -.105E-02 0.316E+01
   -.178E+00 0.296E+00 0.151E+04   0.185E+00 -.308E+00 -.151E+04   -.799E-02 0.153E-01 0.315E+01
   -.164E+01 0.242E+01 -.151E+04   0.195E+01 -.275E+01 0.152E+04   -.366E+00 0.331E+00 -.474E+01
   -.126E+01 0.237E-01 -.151E+04   0.120E+01 -.114E+00 0.152E+04   0.107E+00 0.121E+00 -.462E+01
   -.363E+00 -.103E+00 -.494E+03   0.378E+00 0.959E-01 0.494E+03   -.250E-01 0.113E-01 0.183E+00
   -.225E+01 0.374E+01 -.495E+03   0.224E+01 -.378E+01 0.494E+03   0.392E-01 0.803E-01 0.559E+00
   -.463E+00 -.104E+01 0.499E+03   0.473E+00 0.105E+01 -.499E+03   -.108E-01 -.545E-02 -.874E-01
   -.780E+00 -.249E-01 0.496E+03   0.735E+00 0.333E-01 -.495E+03   0.512E-01 -.960E-02 -.188E+00
   -.892E-01 0.339E-02 0.151E+04   0.946E-01 -.422E-02 -.151E+04   -.671E-02 0.104E-02 0.315E+01
   -.167E+00 -.296E+00 0.151E+04   0.170E+00 0.308E+00 -.151E+04   -.343E-02 -.151E-01 0.315E+01
   -.194E+01 -.240E+01 -.151E+04   0.226E+01 0.273E+01 0.152E+04   -.369E+00 -.324E+00 -.460E+01
   -.136E+02 -.127E-01 -.152E+04   0.138E+02 0.143E+00 0.153E+04   0.152E+00 -.170E+00 -.467E+01
   -.209E+01 0.129E+00 -.496E+03   0.225E+01 -.122E+00 0.496E+03   -.207E+00 -.119E-01 0.331E+00
   -.169E+01 -.376E+01 -.497E+03   0.166E+01 0.381E+01 0.496E+03   0.631E-01 -.888E-01 0.398E+00
   0.423E+00 0.134E+01 0.496E+03   -.427E+00 -.128E+01 -.496E+03   0.450E-02 -.687E-01 -.177E+00
   0.432E+00 0.617E-01 0.500E+03   -.434E+00 -.653E-01 -.500E+03   0.349E-02 0.372E-02 -.198E-01
   0.673E-01 0.783E-02 0.151E+04   -.660E-01 -.104E-01 -.151E+04   -.166E-02 0.320E-02 0.315E+01
   0.179E+00 0.274E+00 0.151E+04   -.185E+00 -.279E+00 -.151E+04   0.747E-02 0.699E-02 0.315E+01
   0.374E+01 0.750E+01 -.151E+04   -.416E+01 -.760E+01 0.151E+04   0.468E+00 -.630E-01 -.400E+01
   0.112E+01 0.210E+00 -.151E+04   -.105E+01 -.294E+00 0.152E+04   -.121E+00 0.106E+00 -.450E+01
   0.397E+00 0.392E+00 -.491E+03   -.414E+00 -.416E+00 0.490E+03   0.277E-01 0.392E-01 0.461E+00
   0.193E+01 0.195E+01 -.494E+03   -.192E+01 -.191E+01 0.494E+03   -.329E-01 -.508E-01 0.441E+00
   0.457E+00 -.134E+01 0.497E+03   -.458E+00 0.129E+01 -.496E+03   0.577E-04 0.569E-01 -.135E+00
   0.763E+00 -.636E-01 0.497E+03   -.712E+00 0.676E-01 -.496E+03   -.597E-01 -.429E-02 -.104E+00
   0.897E-01 -.748E-02 0.151E+04   -.948E-01 0.104E-01 -.151E+04   0.648E-02 -.363E-02 0.314E+01
   0.167E+00 -.274E+00 0.151E+04   -.170E+00 0.280E+00 -.151E+04   0.312E-02 -.699E-02 0.315E+01
   0.374E+01 -.691E+01 -.150E+04   -.411E+01 0.690E+01 0.151E+04   0.413E+00 0.181E+00 -.353E+01
   0.116E+01 -.299E+00 -.151E+04   -.481E+00 0.413E+00 0.151E+04   -.813E+00 -.143E+00 -.376E+01
   0.326E+01 -.454E+00 -.517E+03   -.342E+01 0.471E+00 0.518E+03   0.209E+00 -.322E-01 -.779E+00
   0.139E+01 -.195E+01 -.494E+03   -.136E+01 0.191E+01 0.494E+03   -.616E-01 0.479E-01 0.397E+00
   0.208E+01 -.117E+00 0.143E+02   -.110E-12 -.277E-12 -.614E-11   -.190E+01 0.107E+00 -.126E+02

 POSITION                                       TOTAL-FORCE (eV/Angst)
      0.00000      6.40959      7.50000         0.000262     -0.001800      0.629325
      2.13653      0.00000      7.50000         0.000926     -0.000093      0.624856
      0.00000      0.00000      9.63653        -0.004116      0.002291      0.015373
      2.13653      6.40959      9.63653         0.009702     -0.026260      0.026926
      8.54259      6.40794     11.77872         0.026159     -0.006827      0.028504
      2.13784      0.00167     11.77466        -0.028756     -0.006634     -0.004973
      8.54109      0.00129     13.90011         0.017177     -0.018051     -0.244897
      2.13032      6.42944     13.87972        -0.046553     -0.230762     -0.031638
      0.00000      2.13653      7.50000         0.000361      0.001825      0.630962
      2.13653      4.27306      7.50000         0.001615      0.000162      0.637010
      0.00000      4.27306      9.63653         0.011584     -0.002312      0.046899
      2.13653      2.13653      9.63653         0.001383      0.027123      0.023086
      8.54368      2.13812     11.78077         0.027401      0.006949      0.017860
      2.14524      4.27166     11.79105        -0.011806      0.005140      0.121536
      8.52891      4.27160     13.90145         0.281390      0.018483     -0.136164
      2.13606      2.11689     13.89511        -0.135566      0.219197     -0.185401
      4.27306      6.40959      7.50000        -0.000379     -0.002553      0.635094
      6.40959      0.00000      7.50000        -0.000984     -0.000177      0.627713
      4.27306      0.00000      9.63653         0.001563     -0.008130      0.024014
      6.40959      6.40959      9.63653        -0.013718     -0.009960      0.010636
      4.27431      6.39923     11.79176        -0.027407     -0.027387     -0.039643
      6.40658      0.00086     11.77694         0.029417     -0.008212     -0.015572
      4.27527      0.00327     13.89177        -0.019143     -0.087309     -0.232306
      6.41053      6.41793     13.89659         0.085178      0.086558     -0.255152
      4.27306      2.13653      7.50000        -0.000413      0.002489      0.631381
      6.40959      4.27306      7.50000        -0.001672      0.000216      0.630085
      4.27306      4.27306      9.63653        -0.013110      0.005382      0.037884
      6.40959      2.13653      9.63653        -0.003849      0.009946      0.008022
      4.27394      2.14574     11.79050        -0.029558      0.029491     -0.090319
      6.40013      4.27201     11.78881         0.010862      0.007908     -0.081623
      4.31916      4.26391     14.02521        -0.478141      0.116888     -0.971085
      6.40737      2.12779     13.90228         0.161633     -0.096859     -0.336446
      0.00000      6.40959      9.63653        -0.005147      0.001403      0.025036
      2.13653      0.00000      9.63653        -0.006023      0.003396      0.034303
      0.00000      0.00000      7.50000         0.000462     -0.000339     -0.271266
      2.13653      6.40959      7.50000        -0.002647      0.005104     -0.273947
      8.54406      6.41631     13.94646        -0.110320      0.043325     -0.245193
      2.13132      8.54434     13.94170         0.065140      0.048629     -0.206212
      0.00046      8.54549     11.77323        -0.013444      0.006085     -0.003087
      2.13286      6.40485     11.77874         0.028865      0.048549     -0.024083
      0.00000      2.13653      9.63653        -0.001906     -0.001343      0.025400
      2.13653      4.27306      9.63653         0.013661     -0.002540      0.036232
      0.00000      4.27306      7.50000        -0.002252      0.000372     -0.274697
      2.13653      2.13653      7.50000        -0.001104     -0.005021     -0.273653
      8.54415      2.12984     13.94589        -0.103335     -0.042191     -0.205884
      2.09812      4.27581     13.99970         0.410283     -0.063861     -0.339918
      0.00285      4.27372     11.77960        -0.077678     -0.007045     -0.004699
      2.13184      2.14137     11.78010         0.041977     -0.050933     -0.014159
      4.27306      6.40959      9.63653         0.000271     -0.020290      0.043177
      6.40959      0.00000      9.63653         0.002514      0.000658      0.031002
      4.27306      0.00000      7.50000        -0.000565      0.001083     -0.273327
      6.40959      6.40959      7.50000         0.002470      0.002317     -0.273306
      4.27056      6.42558     13.93949         0.116798     -0.178896     -0.006712
      6.41191      8.54495     13.94300        -0.069294      0.037939     -0.177053
      4.27087      8.54344     11.76883         0.014896      0.021499      0.069390
      6.41109      6.40885     11.77635        -0.027934     -0.013741      0.032056
      4.27306      2.13653      9.63653        -0.001131      0.016617      0.053166
      6.40959      4.27306      9.63653        -0.016491     -0.000811      0.056280
      4.27306      4.27306      7.50000         0.002222     -0.001211     -0.277702
      6.40959      2.13653      7.50000         0.001023     -0.002272     -0.272888
      4.27185      2.11779     13.91730         0.101887      0.202413      0.180706
      6.42503      4.27428     13.95031        -0.250841     -0.049429      0.009174
      4.26822      4.27431     11.79515         0.078907     -0.019407     -0.008421
      6.41276      2.13704     11.77545        -0.042708      0.013218      0.048336
    total drift:                               -0.000989     -0.001149      0.012040

  FREE ENERGIE OF THE ION-ELECTRON SYSTEM (eV)
  free  energy   TOTEN  =      -437.05713063 eV

  energy  without entropy=     -437.05713063  energy(sigma->0) =     -437.05713063