 vasp.6.3.0 20Jan22 (build Mar 11 2022 13:48:16) complex

 executed on             LinuxIFC date 2024.02.15  03:33:34

 INCAR:
   SYSTEM = Oxide-Surface
   ISMEAR = 0
   SIGMA = 0.05
   EDIFF = 1E-5
   ALGO = ALL
   ISTART = 0
   IBRION = -1
   NSW = 0
   ISYM = 2
   DIPOL = 0.5 0.5 0.5
   IDIPOL = 3
   LDIPOL = .TRUE.
   GGA = MK
   LUSE_VDW = .TRUE.
   PARAM1 = 0.1234
   PARAM2 = 0.711357
   ZAB_VDW = -1.8867
   AGGAC = 0.0
   ENCUT = 600
   PREC = Accurate
   LASPH = .TRUE.
   LREAL = .FALSE.
   ISPIN = 1
   NELM = 200
   NELMIN = 8
   NCORE = 19
   KPAR = 1
   LWAVE = .FALSE.
   LCHARG = .FALSE.

 POTCAR:    PAW_PBE C 08Apr2002
 POTCAR:    PAW_PBE O 08Apr2002
 POTCAR:    PAW_PBE H 15Jun2001
 POTCAR:    PAW_PBE Ti_pv 07Sep2000
 POTCAR:    PAW_PBE O 08Apr2002
|               ----> ADVICE to this user running VASP <----                  |
|     You have switched on vdW-DFT.                                           |
|     This routine was written and supplied by Jiri Klimes. We recommend      |
|     that you carefully read and cite the following publications:            |
|       J. Klimes, D.R. Bowler, A. Michelides                                 |
|          J. Phys.: Cond Matt. 22 022201 (2010)                              |
|       J. Klimes, D.R. Bowler, A. Michelides                                 |
|          Phys. Rev. B. 83, 195131 (2011)                                    |
|     and references therein.                                                 |

   TITEL  = PAW_PBE C 08Apr2002
   POMASS =   12.011; ZVAL   =    4.000    mass and valenz
   ENMAX  =  400.000; ENMIN  =  300.000 eV

[...]

   TITEL  = PAW_PBE H 15Jun2001
   POMASS =    1.000; ZVAL   =    1.000    mass and valenz
   ENMAX  =  250.000; ENMIN  =  200.000 eV

   TITEL  = PAW_PBE Ti_pv 07Sep2000
   POMASS =   47.880; ZVAL   =   10.000    mass and valenz
   ENMAX  =  222.335; ENMIN  =  166.751 eV

   TITEL  = PAW_PBE O 08Apr2002
   POMASS =   16.000; ZVAL   =    6.000    mass and valenz
   ENMAX  =  400.000; ENMIN  =  300.000 eV

  PAW_PBE C 08Apr2002                   :
  PAW_PBE O 08Apr2002                   :
  PAW_PBE H 15Jun2001                   :
  PAW_PBE Ti_pv 07Sep2000               :
  PAW_PBE O 08Apr2002                   :

 POSCAR:  C  O  H Ti  O
  positions in direct lattice
 exchange correlation table for  LEXCH =       43
   RHO(1)=    0.500       N(1)  =     2000
   RHO(2)=  100.500       N(2)  =     4000

 ion  position               nearest neighbor table
   1  0.510  0.588  0.811-   3 1.09   5 1.10   6 1.10   2 1.45
   2  0.539  0.498  0.782-   4 1.00   1 1.45  86 2.18
   3  0.427  0.597  0.810-   1 1.09
   4  0.615  0.493  0.780-   2 1.00
   5  0.534  0.564  0.845-   1 1.10
   6  0.549  0.667  0.802-   1 1.10
   7  0.750  0.625  0.287-  88 1.95 148 1.95 147 1.95  87 1.95  90 1.98 169 1.98  17 2.96  37 2.96

   8  0.000  0.750  0.287-  89 1.95  90 1.95 109 1.95 110 1.95  91 1.98  38 2.96  18 2.96
   9  0.000  0.625  0.394-  91 1.95 151 1.95  92 1.95 152 1.95  93 1.98  94 1.98  19 2.96  39 2.96

[...]

  87  0.750  0.750  0.245-   7 1.95  17 1.95
  88  0.750  0.750  0.329-   7 1.95  17 1.95  10 1.98
  89  0.098  0.625  0.287-   8 1.95  38 1.95  47 1.98
  90  0.902  0.625  0.287-   8 1.95  38 1.95   7 1.98
  91  0.000  0.750  0.352-   9 1.95  19 1.95   8 1.98
  92  0.000  0.750  0.435-   9 1.95  19 1.95  12 1.98
  93  0.848  0.625  0.394-  10 1.95  40 1.95   9 1.98
  94  0.152  0.625  0.394-  50 1.95  80 1.95   9 1.98
  95  0.750  0.750  0.458-  11 1.95  21 1.95  10 1.98
  96  0.750  0.750  0.542-  11 1.95  21 1.95  14 2.09
  97  0.098  0.625  0.500-  12 1.95  42 1.95  51 1.98
  98  0.902  0.625  0.500-  12 1.95  42 1.95  11 1.98
  99  0.001  0.750  0.565-  23 1.90  13 1.90  12 2.00
 100  1.000  0.750  0.649-  16 1.81  13 2.02  23 2.02
 101  0.851  0.625  0.607-  14 1.93  44 1.93  13 2.03
 102  0.150  0.625  0.607-  13 1.87  84 2.02  54 2.02
 103  0.754  0.751  0.671-  14 1.87  15 2.08  25 2.09
 104  0.748  0.749  0.756-  15 1.83  25 1.84
 105  0.095  0.625  0.719-  46 1.94  16 1.95  55 2.03
 106  0.906  0.624  0.720-  46 1.95  16 1.96  15 2.02
 107  0.750  0.000  0.245-  17 1.95  27 1.95
 108  0.750  0.000  0.329-  17 1.95  27 1.95  20 1.98
 109  0.098  0.875  0.287-   8 1.95  18 1.95  57 1.98
 110  0.902  0.875  0.287-   8 1.95  18 1.95  17 1.98
 111  0.000  0.000  0.352-  19 1.95  29 1.95  18 1.98
 112  0.000  0.000  0.435-  19 1.95  29 1.95  22 1.98
 113  0.848  0.875  0.394-  10 1.95  20 1.95  19 1.98
 114  0.152  0.875  0.394-  50 1.95  60 1.95  19 1.98
 115  0.750  0.000  0.458-  21 1.95  31 1.95  20 1.98
 116  0.750  0.000  0.542-  21 1.95  31 1.95  24 2.10
 117  0.098  0.875  0.500-  12 1.95  22 1.95  61 1.98
 118  0.902  0.875  0.500-  12 1.95  22 1.95  21 1.98
 119  0.001  0.000  0.565-  33 1.90  23 1.90  22 2.00
 120  0.000  0.000  0.649-  26 1.81  33 2.02  23 2.02
 121  0.851  0.876  0.607-  24 1.93  14 1.93  23 2.04
 122  0.150  0.875  0.607-  23 1.87  54 2.02  64 2.02
 123  0.751  0.000  0.672-  24 1.87  35 2.09  25 2.09
 124  0.750  1.000  0.756-  35 1.83  25 1.84
 125  0.094  0.875  0.719-  16 1.94  26 1.95  65 2.04
 126  0.906  0.875  0.719-  16 1.94  26 1.95  25 2.04
 127  0.750  0.250  0.245-  27 1.95  37 1.95
 128  0.750  0.250  0.329-  27 1.95  37 1.95  30 1.98
 129  0.098  0.125  0.287-  18 1.95  28 1.95  67 1.98
 130  0.902  0.125  0.287-  18 1.95  28 1.95  27 1.98
 131  0.000  0.250  0.352-  29 1.95  39 1.95  28 1.98
 132  0.000  0.250  0.435-  29 1.95  39 1.95  32 1.98
 133  0.848  0.125  0.394-  20 1.95  30 1.95  29 1.98
 134  0.152  0.125  0.394-  60 1.95  70 1.95  29 1.98
 135  0.750  0.250  0.458-  31 1.95  41 1.95  30 1.98
 136  0.750  0.250  0.542-  31 1.95  41 1.95  34 2.09
 137  0.098  0.125  0.500-  22 1.95  32 1.95  71 1.98
 138  0.902  0.125  0.500-  22 1.95  32 1.95  31 1.98
 139  0.001  0.250  0.565-  43 1.90  33 1.90  32 2.00
 140  0.000  0.250  0.649-  36 1.81  43 2.02  33 2.02
 141  0.851  0.125  0.607-  24 1.93  34 1.93  33 2.04
 142  0.150  0.125  0.607-  33 1.86  64 2.02  74 2.02
 143  0.753  0.250  0.671-  34 1.87  45 2.06  35 2.10
 144  0.749  0.251  0.756-  45 1.83  35 1.84
 145  0.094  0.125  0.719-  36 1.94  26 1.95  75 2.04
 146  0.906  0.125  0.719-  36 1.94  26 1.95  35 2.04
[...]
 232  0.500  0.500  0.435-  49 1.95  79 1.95  82 1.98
 233  0.348  0.375  0.394-  70 1.95  80 1.95  79 1.98
 234  0.652  0.375  0.394-  30 1.95  40 1.95  79 1.98
 235  0.250  0.500  0.458-  51 1.95  81 1.95  80 1.98
 236  0.250  0.500  0.542-  51 1.95  81 1.95  84 2.11
 237  0.598  0.375  0.500-  72 1.95  82 1.95  41 1.98
 238  0.402  0.375  0.500-  72 1.95  82 1.95  81 1.98
 239  0.501  0.500  0.566-  53 1.90  83 1.90  82 2.00
 240  0.500  0.500  0.650-  86 1.91  53 1.98  83 1.98
 241  0.350  0.375  0.607-  74 1.92  84 1.93  83 2.04
 242  0.651  0.375  0.608-  83 1.88  34 2.01  44 2.02
 243  0.250  0.500  0.672-  84 1.86  55 2.09  85 2.10
 244  0.252  0.500  0.756-  85 1.84  55 1.84
 245  0.597  0.371  0.715-  76 1.92  86 1.96  45 2.02
 246  0.407  0.374  0.718-  86 1.93  76 1.94  85 2.03

  LATTYP: Found a simple orthorhombic cell.
 ALAT       =    11.8303781148
 B/A-ratio  =     1.0992024327
 C/A-ratio  =     2.5825673970

  Lattice vectors:

 A1 = (   0.0000000000, -11.8303781148,   0.0000000000)
 A2 = (  13.0039804036,   0.0000000000,   0.0000000000)
 A3 = (   0.0000000000,   0.0000000000,  30.5527488131)

Analysis of symmetry for initial positions (statically):
 Subroutine PRICEL returns:
 Original cell was already a primitive cell.

 Routine SETGRP: Setting up the symmetry group for a
 simple orthorhombic supercell.

 Subroutine GETGRP returns: Found  1 space group operations
 (whereof  1 operations were pure point group operations)
 out of a pool of  8 trial point group operations.

The static configuration has the point symmetry C_1 .

Analysis of symmetry for dynamics (positions and initial velocities):
 Subroutine PRICEL returns:
 Original cell was already a primitive cell.

[...]

The dynamic configuration has the point symmetry C_1 .

Analysis of constrained symmetry for selective dynamics:
 Subroutine PRICEL returns:
 Original cell was already a primitive cell.

 Routine SETGRP: Setting up the symmetry group for a
 simple orthorhombic supercell.

 Subroutine GETGRP returns: Found  1 space group operations
 (whereof  1 operations were pure point group operations)
 out of a pool of  8 trial point group operations.

The constrained configuration has the point symmetry C_1 .

 Subroutine INISYM returns: Found  1 space group operations
 (whereof  1 operations are pure point group operations),
 and found     1 'primitive' translations

                                     Primitive cell

  volume of cell :    4700.2961

  direct lattice vectors                    reciprocal lattice vectors
    13.003980404  0.000000000  0.000000000     0.076899531  0.000000000  0.000000000
     0.000000000 11.830378115  0.000000000     0.000000000  0.084528152  0.000000000
     0.000000000  0.000000000 30.552748813     0.000000000  0.000000000  0.032730279

  length of vectors
    13.003980404 11.830378115 30.552748813     0.076899531  0.084528152  0.032730279

  position of ions in fractional coordinates (direct lattice)
     0.510331046  0.587956007  0.811456567
     0.538671440  0.497713104  0.781633741
     0.426741788  0.597312864  0.809779257
     0.615374851  0.493003635  0.780229999
     0.533730470  0.564408842  0.844772367
     0.548744893  0.667393848  0.802204187
     0.750000000  0.625000000  0.287188045
     0.000000000  0.750000000  0.287188045
     0.000000000  0.625000000  0.393594023
     0.750000000  0.750000000  0.393594023
     0.750000000  0.625000000  0.500000000
     0.000000000  0.750000000  0.500000000
     0.006993774  0.625073986  0.604046202
     0.756133557  0.750114422  0.610207977
     0.750759752  0.625797847  0.719102266
     0.999978673  0.750342000  0.708177627
     0.750000000  0.875000000  0.287188045
     0.000000000  0.000000000  0.287188045
     0.000000000  0.875000000  0.393594023
     0.750000000  0.000000000  0.393594023
     0.750000000  0.875000000  0.500000000
     0.000000000  0.000000000  0.500000000
     0.007105127  0.875049078  0.604101504
     0.755700079  0.000050128  0.610520273
     0.749628850  0.874940193  0.720168330
     0.000248360  0.999945581  0.708144814
     0.750000000  0.125000000  0.287188045
     0.000000000  0.250000000  0.287188045
     0.000000000  0.125000000  0.393594023
     0.750000000  0.250000000  0.393594023
     0.750000000  0.125000000  0.500000000
     0.000000000  0.250000000  0.500000000
     0.007272160  0.124967895  0.604110878
     0.756020659  0.249869324  0.610140302
     0.749590896  0.124216859  0.720174278
     0.000192105  0.249631163  0.708168764
     0.750000000  0.375000000  0.287188045
     0.000000000  0.500000000  0.287188045
     0.000000000  0.375000000  0.393594023
     0.750000000  0.500000000  0.393594023
     0.750000000  0.375000000  0.500000000
     0.000000000  0.500000000  0.500000000
     0.006984987  0.374982529  0.604028350
     0.756360084  0.500008577  0.610371278
     0.751441947  0.373222885  0.719136832
     0.000822413  0.500125693  0.708109682
[...]
   6.59513585  7.36647884 18.49572115
   3.33091824  8.87269145 18.65124436
   3.25537352  7.39780518 22.00009556
   6.51185509  8.87430202 21.59708263
   3.25099510 10.35158085  8.77438420
   6.50199020  0.00000000  8.77438420
   6.50199020 10.35158085 12.02537931
   3.25099510  0.00000000 12.02537931
[...]
   6.50199020  5.91518906 13.29976351
   4.52537931  4.43639179 12.02537931
   8.47860110  4.43639179 12.02537931
   3.25099510  5.91518906 14.00199020
   3.25099510  5.91518906 16.55075861
   7.77637441  4.43639179 15.27637441
   5.22760600  4.43639179 15.27637441
   6.51379401  5.91397452 17.27820944
   6.50128743  5.91934280 19.84479795
   4.55310556  4.43707079 18.55133706
   8.46901735  4.43627040 18.56160861
   3.25381643  5.91924173 20.51844726
   3.27788571  5.91810083 23.08995196
   7.75932721  4.39470262 21.83015712
   5.28648191  4.42570273 21.93276342

--------------------------------------- Iteration      FINAL  ---------------------------------------

--------------------OUTCAR has been truncated-------------------------

[...]

--------------------OUTCAR has been truncated-------------------------

  FORCE on cell =-STRESS in cart. coord.  units (eV):
  Direction    XX          YY          ZZ          XY          YZ          ZX
  Alpha Z  4711.39482  4711.39482  4711.39482
  Ewald  975073.37112992493.99983************   -70.65177   132.68342   -80.57161
  Hartree************************************   -38.13573    77.43561   -52.56835
  E(xc)   -8665.24495 -8660.33332 -8662.44137     0.00536    -0.02644    -0.05449
  Local  ************************************   103.17619  -201.04570   130.21827
  n-local -5506.60066 -5430.36435 -5547.83056    -1.02894     1.82373    -0.72166
  augment  5255.99840  5232.33136  5262.08564     0.43206    -0.75643     0.04215
  Kinetic 28823.92670 28368.93821 28877.80611     6.17341   -10.33280     3.88150
  Fock        0.00000     0.00000     0.00000     0.00000     0.00000     0.00000
  Total      43.56438    -8.72667    -6.53971    -0.02943    -0.21861     0.22580
  in kB      14.84967    -2.97464    -2.22917    -0.01003    -0.07452     0.07697

 VOLUME and BASIS-vectors are now :
  energy-cutoff  :      600.00
  volume of cell :     4700.30
      direct lattice vectors                 reciprocal lattice vectors
    13.003980404  0.000000000  0.000000000     0.076899531  0.000000000  0.000000000
     0.000000000 11.830378115  0.000000000     0.000000000  0.084528152  0.000000000
     0.000000000  0.000000000 30.552748813     0.000000000  0.000000000  0.032730279

  length of vectors
    13.003980404 11.830378115 30.552748813     0.076899531  0.084528152  0.032730279

 FORCES acting on ions:
    Electron-Ion                     Ewald-Force                    Non-Local-Force
   0.372E+02 -.909E+02 -.161E+04   -.397E+02 0.959E+02 0.161E+04   0.245E+01 -.516E+01 -.475E+01
   0.252E+02 0.126E+03 -.251E+04   -.483E+02 -.151E+03 0.250E+04   0.230E+02 0.256E+02 0.992E+01
   0.578E+02 -.156E+02 -.394E+03   -.638E+02 0.162E+02 0.393E+03   0.593E+01 -.631E+00 0.230E+00
   -.693E+02 0.159E+02 -.428E+03   0.770E+02 -.166E+02 0.427E+03   -.752E+01 0.602E+00 0.363E+00
   -.117E+02 0.627E+01 -.385E+03   0.132E+02 -.771E+01 0.390E+03   -.156E+01 0.143E+01 -.540E+01
   -.189E+02 -.610E+02 -.392E+03   0.215E+02 0.659E+02 0.391E+03   -.261E+01 -.488E+01 0.134E+01
   -.201E+00 -.190E-01 0.380E+04   0.198E+00 0.192E-01 -.380E+04   0.113E-02 -.180E-04 0.371E+00
   -.604E-01 -.654E-01 0.398E+04   0.617E-01 0.656E-01 -.397E+04   -.246E-03 -.187E-04 -.370E+01
   -.177E+00 -.488E-01 0.194E+04   0.182E+00 0.489E-01 -.194E+04   -.847E-03 0.966E-04 -.408E-01
   -.478E+00 -.740E-01 0.194E+04   0.468E+00 0.743E-01 -.194E+04   0.284E-02 0.520E-04 0.200E+00
   -.193E+01 -.113E+00 0.160E+02   0.188E+01 0.982E-01 -.152E+02   0.123E-01 0.597E-03 -.123E+00
   0.116E+01 -.939E+00 0.238E+02   -.117E+01 0.944E+00 -.248E+02   0.374E-02 -.281E-02 0.332E+00
   0.135E+02 -.194E+01 -.186E+04   -.137E+02 0.194E+01 0.186E+04   0.614E-01 -.679E-02 0.867E-01
   -.120E+01 -.977E+01 -.191E+04   0.113E+01 0.978E+01 0.191E+04   -.261E-01 -.102E-01 -.536E-01
   -.100E+03 -.174E+02 -.371E+04   0.999E+02 0.172E+02 0.371E+04   0.166E+00 0.134E+00 0.537E-01
   -.531E+01 -.551E+01 -.378E+04   0.535E+01 0.550E+01 0.378E+04   -.483E-01 -.112E-01 0.835E+00
   -.209E+00 -.702E-01 0.380E+04   0.205E+00 0.704E-01 -.380E+04   0.114E-02 0.147E-04 0.371E+00
   -.579E-01 -.324E-01 0.398E+04   0.592E-01 0.324E-01 -.397E+04   -.256E-03 -.798E-05 -.370E+01
   -.144E+00 -.152E+00 0.194E+04   0.149E+00 0.152E+00 -.194E+04   -.829E-03 0.872E-04 -.409E-01
   -.562E+00 -.856E-01 0.194E+04   0.552E+00 0.851E-01 -.194E+04   0.263E-02 -.631E-04 0.200E+00
   -.328E+01 -.997E+00 0.145E+02   0.326E+01 0.102E+01 -.137E+02   0.898E-02 -.605E-03 -.125E+00
   0.158E+01 -.286E+00 0.223E+02   -.159E+01 0.286E+00 -.233E+02   0.349E-02 -.390E-03 0.329E+00
   0.163E+02 -.303E+01 -.186E+04   -.165E+02 0.304E+01 0.186E+04   0.617E-01 -.836E-02 0.897E-01
   0.237E+01 -.177E+01 -.193E+04   -.244E+01 0.177E+01 0.193E+04   -.347E-01 0.991E-03 -.669E-01
   -.303E+02 -.297E+02 -.376E+04   0.303E+02 0.297E+02 0.376E+04   0.600E-01 0.133E-01 -.687E-01
   -.466E+01 -.229E+01 -.378E+04   0.464E+01 0.229E+01 0.378E+04   0.252E-01 -.157E-02 0.876E+00
   -.204E+00 0.190E-01 0.380E+04   0.200E+00 -.193E-01 -.380E+04   0.112E-02 0.321E-04 0.371E+00
   -.610E-01 0.654E-01 0.398E+04   0.624E-01 -.655E-01 -.397E+04   -.275E-03 0.240E-04 -.370E+01
   -.148E+00 0.520E-01 0.194E+04   0.154E+00 -.520E-01 -.194E+04   -.958E-03 -.517E-04 -.408E-01
   -.440E+00 0.744E-01 0.194E+04   0.430E+00 -.746E-01 -.194E+04   0.271E-02 -.746E-04 0.201E+00
   -.312E+01 0.433E+00 0.140E+02   0.309E+01 -.472E+00 -.132E+02   0.101E-01 0.225E-02 -.124E+00
   0.116E+01 0.967E+00 0.232E+02   -.116E+01 -.972E+00 -.243E+02   0.281E-02 0.257E-02 0.333E+00
   0.175E+02 0.156E+01 -.186E+04   -.178E+02 -.157E+01 0.186E+04   0.667E-01 0.679E-02 0.940E-01
   -.842E-01 0.913E+01 -.191E+04   0.871E-02 -.913E+01 0.191E+04   -.219E-01 -.126E-02 -.677E-01
   -.223E+02 0.149E+02 -.376E+04   0.222E+02 -.149E+02 0.376E+04   0.540E-01 -.157E-01 -.819E-01
   -.443E+01 0.492E+01 -.378E+04   0.446E+01 -.491E+01 0.378E+04   -.369E-01 0.819E-02 0.836E+00
   -.196E+00 0.703E-01 0.380E+04   0.192E+00 -.703E-01 -.380E+04   0.111E-02 -.209E-04 0.371E+00
   -.635E-01 0.324E-01 0.398E+04   0.648E-01 -.324E-01 -.397E+04   -.267E-03 0.684E-05 -.370E+01
   -.182E+00 0.149E+00 0.194E+04   0.188E+00 -.149E+00 -.194E+04   -.950E-03 -.999E-04 -.408E-01
   -.360E+00 0.853E-01 0.194E+04   0.350E+00 -.848E-01 -.194E+04   0.257E-02 -.241E-04 0.200E+00
   -.173E+01 0.682E+00 0.155E+02   0.168E+01 -.653E+00 -.148E+02   0.130E-01 -.133E-02 -.122E+00
   0.101E+01 0.301E+00 0.247E+02   -.102E+01 -.300E+00 -.257E+02   0.230E-02 -.513E-03 0.331E+00
   0.139E+02 0.342E+01 -.186E+04   -.141E+02 -.342E+01 0.186E+04   0.599E-01 0.600E-02 0.871E-01
   -.241E+01 0.183E+01 -.190E+04   0.238E+01 -.184E+01 0.190E+04   -.742E-01 0.259E-02 -.504E-01
   -.842E+02 0.261E+02 -.372E+04   0.842E+02 -.258E+02 0.372E+04   0.986E-01 -.181E+00 0.578E-01
   -.729E+01 0.291E+01 -.377E+04   0.726E+01 -.292E+01 0.377E+04   0.300E-01 0.481E-02 0.789E+00
   0.196E+00 -.146E-01 0.380E+04   -.192E+00 0.145E-01 -.380E+04   -.104E-02 0.140E-04 0.371E+00
   0.660E-01 -.538E-01 0.398E+04   -.672E-01 0.541E-01 -.397E+04   0.247E-03 -.441E-04 -.370E+01
   0.303E+00 0.148E+00 0.195E+04   -.309E+00 -.136E+00 -.194E+04   0.563E-03 -.250E-02 -.426E-01
   0.356E+00 -.270E-01 0.194E+04   -.346E+00 0.273E-01 -.194E+04   -.173E-02 -.169E-04 0.196E+00
   0.527E+00 0.161E+00 0.135E+02   -.471E+00 -.176E+00 -.127E+02   -.820E-02 0.900E-03 -.132E+00
   0.343E+01 0.881E+00 0.286E+02   -.346E+01 -.966E+00 -.294E+02   0.607E-02 0.401E-01 0.254E+00
   0.216E+02 -.132E+02 -.184E+04   -.218E+02 0.134E+02 0.184E+04   0.347E-01 -.971E-01 0.588E-01
   0.217E+02 -.678E+01 -.192E+04   -.217E+02 0.678E+01 0.192E+04   -.385E-01 0.643E-02 -.611E-01
   0.653E+02 -.154E+02 -.373E+04   -.654E+02 0.154E+02 0.373E+04   0.634E-01 0.118E-01 -.857E-01
   0.247E+02 -.818E+02 -.368E+04   -.246E+02 0.820E+02 0.368E+04   -.151E+00 -.607E-01 0.984E+00
   0.203E+00 -.662E-01 0.380E+04   -.200E+00 0.666E-01 -.380E+04   -.108E-02 -.118E-04 0.371E+00
   0.636E-01 -.407E-01 0.398E+04   -.649E-01 0.408E-01 -.397E+04   0.251E-03 -.210E-05 -.370E+01
   0.274E+00 -.218E-01 0.195E+04   -.280E+00 0.215E-01 -.194E+04   0.711E-03 -.102E-02 -.433E-01
   0.434E+00 -.955E-01 0.194E+04   -.424E+00 0.955E-01 -.194E+04   -.173E-02 0.840E-04 0.196E+00
[...]
   -.531E+02 0.307E-01 0.116E+04   0.571E+02 -.314E-01 -.116E+04   -.352E+01 0.113E-02 0.152E+00
   0.533E+02 0.407E-01 0.116E+04   -.573E+02 -.411E-01 -.116E+04   0.353E+01 0.596E-03 0.159E+00
   0.151E+00 0.161E+00 0.514E+03   -.126E+00 -.163E+00 -.518E+03   -.357E-01 0.403E-02 0.412E+01
   0.300E+01 0.675E+00 -.514E+03   -.324E+01 -.677E+00 0.521E+03   0.226E+00 0.314E-02 -.699E+01
   -.548E+02 0.611E-02 0.160E+02   0.594E+02 -.755E-02 -.162E+02   -.501E+01 0.210E-01 0.263E+00
   0.559E+02 -.615E-01 0.130E+02   -.605E+02 0.562E-01 -.132E+02   0.504E+01 0.276E-01 0.221E+00
   0.129E+02 0.150E+01 -.607E+03   -.140E+02 -.158E+01 0.601E+03   0.111E+01 0.752E-01 0.675E+01
   0.192E+02 0.297E+01 -.159E+04   -.203E+02 -.289E+01 0.160E+04   0.119E+01 -.756E-01 -.203E+01
   -.488E+02 0.396E+01 -.111E+04   0.551E+02 -.398E+01 0.111E+04   -.621E+01 0.280E-01 0.126E+01
   0.228E+00 0.634E+01 -.112E+04   -.202E+00 -.650E+01 0.112E+04   0.499E-01 0.158E+00 0.526E+00
   0.256E+02 0.287E+01 -.180E+04   -.261E+02 -.292E+01 0.180E+04   0.438E+00 0.470E-01 -.204E+01
   0.594E+02 0.103E+02 -.271E+04   -.591E+02 -.103E+02 0.273E+04   -.243E+00 0.406E-01 -.204E+02
   -.518E+02 0.573E+02 -.221E+04   0.576E+02 -.570E+02 0.221E+04   -.580E+01 -.325E+00 -.674E+00
   0.702E+02 0.494E+02 -.228E+04   -.763E+02 -.495E+02 0.229E+04   0.608E+01 0.990E-01 -.309E+01
   0.807E+01 -.179E+02 0.830E+02   -.625E-12 -.995E-13 0.568E-10   -.807E+01 0.179E+02 -.830E+02

 POSITION                                       TOTAL-FORCE (eV/Angst)
      6.63633      6.95574     24.79223        -0.005825     -0.114295     -0.016030
      7.00487      5.88813     23.88106        -0.170897      0.114637     -0.054905
      5.54934      7.06644     24.74098        -0.066285     -0.002169     -0.005001
      8.00232      5.83242     23.83817         0.163421     -0.045713     -0.003410
      6.94062      6.67717     25.81012         0.004414     -0.013413      0.004175
      7.13587      7.89552     24.50954         0.043919      0.065685     -0.035742
      9.75299      7.39399      8.77438        -0.002628      0.000185     -3.543477
      0.00000      8.87278      8.77438         0.001115      0.000149      2.689858
      0.00000      7.39399     12.02538         0.004607      0.000193      0.519819
      9.75299      8.87278     12.02538        -0.007525      0.000320     -0.728430
      9.75299      7.39399     15.27637        -0.033944     -0.014463      0.625057
      0.00000      8.87278     15.27637        -0.002810      0.001996     -0.720924
      0.09095      7.39486     18.45527        -0.079377      0.000605      0.087629
      9.83275      8.87414     18.64353        -0.045367      0.001304     -0.070785
      9.76287      7.40343     21.97055         0.031958      0.007952      0.046193
     13.00370      8.87683     21.63677         0.001424     -0.009030      0.167094
      9.75299     10.35158      8.77438        -0.002704      0.000203     -3.543691
      0.00000      0.00000      8.77438         0.001129      0.000048      2.689643
      0.00000     10.35158     12.02538         0.004483     -0.000128      0.519973
      9.75299      0.00000     12.02538        -0.007625     -0.000543     -0.729546
      9.75299     10.35158     15.27637        -0.017810      0.023128      0.633016
      0.00000      0.00000     15.27637        -0.002318     -0.000212     -0.716683
      0.09239     10.35216     18.45696        -0.085196      0.000972      0.089239
      9.82711      0.00059     18.65307        -0.051048      0.000177     -0.072697
      9.74816     10.35087     22.00312         0.011738      0.010299      0.059181
      0.00323     11.82973     21.63577         0.004964      0.002021      0.168282
      9.75299      1.47880      8.77438        -0.002655     -0.000344     -3.543980
      0.00000      2.95759      8.77438         0.001125     -0.000142      2.689706
      0.00000      1.47880     12.02538         0.004787     -0.000062      0.519903
      9.75299      2.95759     12.02538        -0.007217     -0.000328     -0.730479
      9.75299      1.47880     15.27637        -0.017340     -0.036675      0.623715
      0.00000      2.95759     15.27637         0.000806     -0.002514     -0.720380
      0.09457      1.47842     18.45725        -0.090747     -0.000393      0.087191
      9.83128      2.95605     18.64146        -0.048929      0.000867     -0.065836
      9.74767      1.46953     22.00330         0.009104      0.002169      0.061513
      0.00250      2.95323     21.63650         0.001106      0.009354      0.169331
      9.75299      4.43639      8.77438        -0.002589     -0.000031     -3.543844
      0.00000      5.91519      8.77438         0.001130     -0.000060      2.689879
      0.00000      4.43639     12.02538         0.004957     -0.000026      0.519669
      9.75299      5.91519     12.02538        -0.007289      0.000490     -0.729216
      9.75299      4.43639     15.27637        -0.034363      0.027754      0.617076
      0.00000      5.91519     15.27637        -0.000772      0.000551     -0.724041
      0.09083      4.43619     18.45473        -0.079743     -0.000584      0.089212
      9.83569      5.91529     18.64852        -0.050629     -0.000219     -0.084234
      9.77174      4.41537     21.97161         0.014007     -0.008152      0.053323
      0.01069      5.91668     21.63470         0.000438     -0.002821      0.170358
      3.25100      7.39399      8.77438         0.002727     -0.000087     -3.541710
      6.50199      8.87278      8.77438        -0.000982      0.000272      2.696572
      6.50199      7.39399     12.02538        -0.004541      0.008759      0.544682
      3.25100      8.87278     12.02538         0.008251      0.000348     -0.715230
      3.25100      7.39399     15.27637         0.048231     -0.014354      0.666123
      6.50199      8.87278     15.27637        -0.024032     -0.045419     -0.590165
      6.59514      7.36648     18.49572        -0.077801      0.009085      0.072808
      3.33092      8.87269     18.65124        -0.051471     -0.003147     -0.074126
      3.25537      7.39781     22.00010        -0.006309      0.000262      0.052806
      6.51186      8.87430     21.59708        -0.012602      0.038435      0.170783
      3.25100     10.35158      8.77438         0.002801      0.000371     -3.541832
      6.50199      0.00000      8.77438        -0.000982      0.000014      2.696380
      6.50199     10.35158     12.02538        -0.004850     -0.001337      0.545516
      3.25100      0.00000     12.02538         0.008477      0.000094     -0.714446
[...]
      6.50199      5.91519     13.29976         0.002998     -0.000659     -0.111641
      4.52538      4.43639     12.02538         0.443739      0.000382      0.048769
      8.47860      4.43639     12.02538        -0.438455      0.000148      0.050651
      3.25100      5.91519     14.00199        -0.011031      0.002299     -0.120955
      3.25100      5.91519     16.55076        -0.008672      0.000191      0.100742
      7.77637      4.43639     15.27637        -0.398276      0.019523      0.062926
      5.22761      4.43639     15.27637         0.430898      0.022284      0.079527
      6.51379      5.91397     17.27821        -0.006887     -0.001872     -0.070683
      6.50129      5.91934     19.84480        -0.000738      0.002250     -0.035253
      4.55311      4.43707     18.55134         0.060436     -0.001495     -0.008643
      8.46902      4.43627     18.56161         0.075863     -0.002578     -0.001599
      3.25382      5.91924     20.51845        -0.000623      0.000256      0.111735
      3.27789      5.91810     23.08995        -0.001256      0.002025     -0.020123
      7.75933      4.39470     21.83016         0.026367      0.004727      0.027720
      5.28648      4.42570     21.93276        -0.034793     -0.017399      0.018929
    total drift:                               -0.008066      0.000673     -0.062676

  FREE ENERGIE OF THE ION-ELECTRON SYSTEM (eV)
  free  energy   TOTEN  =     -1768.70310296 eV

  energy  without entropy=    -1768.70310296  energy(sigma->0) =    -1768.70310296