 vasp.6.4.2 20Jul23 (build Feb 22 2024 13:53:45) complex
 executed on              LinuxNV date 2024.08.27  14:49:59
 OpenACC runtime initialized ...    4 GPUs detected

 INCAR:
   SYSTEM = Oxide-Surface
   ISMEAR = 0
   SIGMA = 0.05
   EDIFF = 1E-5
   ALGO = Normal
   IBRION = -1
   NSW = 0
   ISYM = 0
   DIPOL = 0.5 0.5 0.5
   IDIPOL = 3
   LDIPOL = .TRUE.
   ISTART = 1
   METAGGA = R2SCAN
   ENCUT = 1000
   PREC = Normal
   PRECFOCK = Normal
   LASPH = .TRUE.
   LREAL = Auto
   ISPIN = 1
   NELM = 200
   NELMIN = 8
   NCORE = 1
   KPAR = 1
   LWAVE = .FALSE.
   LCHARG = .FALSE.

 POTCAR:    PAW_PBE C_h 06Feb2004
 POTCAR:    PAW_PBE H_h 06Feb2004
 POTCAR:    PAW_PBE Mg_sv 12Apr2007
 POTCAR:    PAW_PBE O_h 06Feb2004
 POTCAR:    PAW_PBE C_h 06Feb2004
   VRHFIN =C: s2p2

   TITEL  = PAW_PBE C_h 06Feb2004
   POMASS =   12.011; ZVAL   =    4.000    mass and valenz
   ENMAX  =  700.000; ENMIN  =  500.000 eV

[...]

   TITEL  = PAW_PBE Mg_sv 12Apr2007
   POMASS =   24.305; ZVAL   =   10.000    mass and valenz
   ENMAX  =  495.223; ENMIN  =  371.417 eV

   TITEL  = PAW_PBE O_h 06Feb2004
   POMASS =   16.000; ZVAL   =    6.000    mass and valenz
   ENMAX  =  700.000; ENMIN  =  500.000 eV

 Optimization of the real space projectors (new method)

 maximal supplied QI-value         = 34.20
 optimisation between [QCUT,QGAM] = [ 16.08, 32.15] = [ 72.37,289.48] Ry
 Optimized for a Real-space Cutoff    0.71 Angstroem

   l    n(q)    QCUT    max X(q) W(low)/X(q) W(high)/X(q)  e(spline)
   0      7    16.076   134.812    0.49E-03    0.92E-03    0.59E-07
   0      7    16.076    80.524    0.48E-03    0.91E-03    0.58E-07
   1      6    16.076    79.026    0.37E-03    0.58E-03    0.12E-06
   1      6    16.076    45.188    0.36E-03    0.56E-03    0.12E-06
 Optimization of the real space projectors (new method)

[...]

   l    n(q)    QCUT    max X(q) W(low)/X(q) W(high)/X(q)  e(spline)
   0      9    16.140     8.730    0.14E-04    0.12E-04    0.27E-07
   0      9    16.140     8.910    0.19E-04    0.17E-04    0.41E-07
   1      9    16.140     2.513    0.16E-04    0.28E-04    0.54E-07
   1      9    16.140     3.341    0.27E-04    0.13E-03    0.17E-06
   2      9    16.140     3.683    0.18E-03    0.21E-03    0.81E-07
 Optimization of the real space projectors (new method)

 maximal supplied QI-value         = 34.20
 optimisation between [QCUT,QGAM] = [ 16.08, 32.15] = [ 72.37,289.48] Ry
 Optimized for a Real-space Cutoff    0.71 Angstroem

   l    n(q)    QCUT    max X(q) W(low)/X(q) W(high)/X(q)  e(spline)
   0      7    16.076   280.207    0.42E-03    0.69E-03    0.60E-07
   0      7    16.076   228.978    0.42E-03    0.69E-03    0.61E-07
   1      6    16.076    86.127    0.11E-03    0.66E-03    0.10E-06
   1      6    16.076    65.368    0.11E-03    0.65E-03    0.10E-06
  PAW_PBE C_h 06Feb2004                 :
  PAW_PBE H_h 06Feb2004                 :
  PAW_PBE Mg_sv 12Apr2007               :
  PAW_PBE O_h 06Feb2004                 :

 POSCAR:  C  H Mg  O
  positions in direct lattice

 METAGGA = R2SCAN                                      LMAXTAU =  6    LMIXTAU =  F

 ion  position               nearest neighbor table
   1  0.625  0.500  0.760-   3 1.10   2 1.10   4 1.10   5 1.10
   2  0.625  0.606  0.797-   1 1.10
   3  0.625  0.394  0.797-   1 1.10
   4  0.732  0.500  0.723-   1 1.10
   5  0.518  0.500  0.723-   1 1.10
   6  0.125  0.750  0.203-
   7  0.375  0.000  0.203-
   8  0.125  0.000  0.327-
   9  0.375  0.750  0.327-
  10  0.125  0.750  0.452-
  11  0.375  1.000  0.452-
  12  0.125  1.000  0.576-
  13  0.375  0.750  0.576-
  14  0.125  0.250  0.203-
  15  0.375  0.500  0.203-
  16  0.125  0.500  0.327-
  17  0.375  0.250  0.327-
  18  0.125  0.250  0.452-
  19  0.375  0.500  0.452-
  20  0.125  0.500  0.576-
  21  0.375  0.250  0.576-
  22  0.625  0.750  0.203-
  23  0.875  0.000  0.203-
  24  0.625  0.000  0.327-
  25  0.875  0.750  0.327-
  26  0.625  0.750  0.452-
  27  0.875  0.000  0.452-
  28  0.625  1.000  0.576-
  29  0.875  0.750  0.576-
  30  0.625  0.250  0.203-
  31  0.875  0.500  0.203-
  32  0.625  0.500  0.327-
  33  0.875  0.250  0.327-
  34  0.625  0.250  0.452-
  35  0.875  0.500  0.452-
  36  0.625  0.500  0.576-
  37  0.875  0.250  0.576-
  38  0.125  0.750  0.327-
  39  0.375  0.000  0.327-
  40  0.125  0.000  0.203-
  41  0.375  0.750  0.203-
  42  0.125  0.750  0.578-
  43  0.375  0.000  0.579-
  44  0.125  1.000  0.452-
  45  0.375  0.750  0.452-
  46  0.125  0.250  0.327-
  47  0.375  0.500  0.327-
  48  0.125  0.500  0.203-
  49  0.375  0.250  0.203-
  50  0.125  0.250  0.578-
  51  0.375  0.500  0.578-
  52  0.125  0.500  0.452-
  53  0.375  0.250  0.452-
  54  0.625  0.750  0.327-
  55  0.875  0.000  0.327-
  56  0.625  0.000  0.203-
  57  0.875  0.750  0.203-
  58  0.625  0.750  0.578-
  59  0.875  0.000  0.579-
  60  0.625  1.000  0.452-
  61  0.875  0.750  0.452-
  62  0.625  0.250  0.327-
  63  0.875  0.500  0.327-
  64  0.625  0.500  0.203-
  65  0.875  0.250  0.203-
  66  0.625  0.250  0.578-
  67  0.875  0.500  0.578-
  68  0.625  0.500  0.452-
  69  0.875  0.250  0.452-

IMPORTANT INFORMATION: All symmetrisations will be switched off!
NOSYMM: (Re-)initialisation of all symmetry stuff for point group C_1.

                                     Primitive cell

  volume of cell :    1211.2538

  direct lattice vectors                    reciprocal lattice vectors
     8.440984654  0.000000000  0.000000000     0.118469591  0.000000000  0.000000000
     0.000000000  8.440984654  0.000000000     0.000000000  0.118469591  0.000000000
     0.000000000  0.000000000 17.000000000     0.000000000  0.000000000  0.058823529

  length of vectors
     8.440984654  8.440984654 17.000000000     0.118469591  0.118469591  0.058823529

  position of ions in fractional coordinates (direct lattice)
     0.624874723  0.499997702  0.760129327
     0.624874667  0.606400246  0.797180401
     0.624874661  0.393601766  0.797179749
     0.731963124  0.500000082  0.723349296
     0.517786221  0.500000086  0.723349275
     0.124874701  0.750000001  0.202819599
     0.374874701  0.000000001  0.202819599
     0.124874701  0.000000001  0.326951726
     0.374874701  0.750000001  0.326951726
     0.124874704  0.750032169  0.451932988
     0.374867470  0.999999999  0.451925450
     0.124874712  0.999999992  0.575783509
     0.374991216  0.750097341  0.575612586
     0.124874701  0.250000001  0.202819599
     0.374874701  0.500000001  0.202819599
     0.124874701  0.500000001  0.326951726
     0.374874701  0.250000001  0.326951726
     0.124874708  0.249967823  0.451932992
     0.374983146  0.500000002  0.451948183
     0.124874712  0.499999995  0.575568334
     0.374991205  0.249902632  0.575612581
     0.624874701  0.750000001  0.202819599
     0.874874701  0.000000001  0.202819599
     0.624874701  0.000000001  0.326951726
     0.874874701  0.750000001  0.326951726
     0.624874696  0.749901113  0.451984522
     0.874881955  0.000000006  0.451925445
     0.624874708  0.999999999  0.575658965
     0.874758227  0.750097345  0.575612601
     0.624874701  0.250000001  0.202819599
     0.874874701  0.500000001  0.202819599
     0.624874701  0.500000001  0.326951726
     0.874874701  0.250000001  0.326951726
     0.624874702  0.250098875  0.451984502
     0.874766288  0.499999992  0.451948190
     0.624874715  0.499999989  0.576325730
     0.874758224  0.249902626  0.575612601
     0.124874701  0.750000001  0.326951726
     0.374874701  0.000000001  0.326951726
     0.124874701  0.000000001  0.202819599
     0.374874701  0.750000001  0.202819599
     0.124874712  0.750041777  0.578461591
     0.374814565  0.000000004  0.578506137
     0.124874716  0.999999982  0.451658755
     0.374798799  0.750012793  0.451587177
     0.124874701  0.250000001  0.326951726
     0.374874701  0.500000001  0.326951726
     0.124874701  0.500000001  0.202819599
     0.374874701  0.250000001  0.202819599
     0.124874718  0.249958210  0.578461567
     0.374624152  0.499999983  0.578487550
     0.124874718  0.500000004  0.451540272
     0.374798803  0.249987199  0.451587172
     0.624874701  0.750000001  0.326951726
     0.874874701  0.000000001  0.326951726
     0.624874701  0.000000001  0.202819599
     0.874874701  0.750000001  0.202819599
     0.624874705  0.750141603  0.578186521
     0.874934875  0.000000005  0.578506145
     0.624874715  0.999999988  0.451528368
     0.874950615  0.750012792  0.451587179
     0.624874701  0.250000001  0.326951726
     0.874874701  0.500000001  0.326951726
     0.624874701  0.500000001  0.202819599
     0.874874701  0.250000001  0.202819599
     0.624874705  0.249858389  0.578186513
     0.875125299  0.499999988  0.578487554
     0.624874718  0.499999993  0.451751169
     0.874950602  0.249987190  0.451587179

  ion indices of the primitive-cell ions
   primitive index   ion index
                 1           1
                 2           2
                 3           3
                 4           4
                 5           5
                 6           6
                 7           7
                 8           8
                 9           9
                10          10
                11          11
                12          12
                13          13
                14          14
                15          15
                16          16
                17          17
                18          18
                19          19
                20          20
                21          21
                22          22
                23          23
                24          24
                25          25
                26          26
                27          27
                28          28
                29          29
                30          30
                31          31
                32          32
                33          33
                34          34
                35          35
                36          36
                37          37
                38          38
                39          39
                40          40
                41          41
                42          42
                43          43
                44          44
                45          45
                46          46
                47          47
                48          48
                49          49
                50          50
                51          51
                52          52
                53          53
                54          54
                55          55
                56          56
                57          57
                58          58
                59          59
                60          60
                61          61
                62          62
                63          63
                64          64
                65          65
                66          66
                67          67
                68          68
                69          69

 KPOINTS: pymatgen v2020.8.13 with grid density =

Automatic generation of k-mesh.
 Grid dimensions read from file:
 generate k-points for:    2    2    1

 Generating k-lattice:

[...]
  augment   834.94778   832.49020   825.35411     0.00002     0.00023     0.00108
  Kinetic 12593.41116 12593.85024 12605.23893     0.00001     0.00008     0.00309
  Fock        0.00000     0.00000     0.00000     0.00000     0.00000     0.00000
  Total     -36.26824   -38.49663    -7.41710     0.00001    -0.00052     0.05881
  in kB     -47.97356   -50.92114    -9.81092     0.00001    -0.00068     0.07780

 VOLUME and BASIS-vectors are now :
  energy-cutoff  :     1000.00
  volume of cell :     1211.25
      direct lattice vectors                 reciprocal lattice vectors
     8.440984654  0.000000000  0.000000000     0.118469591  0.000000000  0.000000000
     0.000000000  8.440984654  0.000000000     0.000000000  0.118469591  0.000000000
     0.000000000  0.000000000 17.000000000     0.000000000  0.000000000  0.058823529

  length of vectors
     8.440984654  8.440984654 17.000000000     0.118469591  0.118469591  0.058823529

 FORCES acting on ions
    electron-ion (+dipol)            ewald-force                    non-local-force                 convergence-correction
   -.729E-04 -.162E-02 -.674E+03   -.198E-04 0.141E-02 0.674E+03   0.158E-01 0.170E-02 -.135E+00   -.155E-05 -.553E-05 0.300E-03
   -.992E-05 -.431E+02 -.151E+03   -.217E-04 0.474E+02 0.154E+03   0.624E-03 -.461E+01 -.323E+01   -.412E-06 0.962E-04 0.277E-03
   -.682E-05 0.431E+02 -.151E+03   -.246E-04 -.474E+02 0.154E+03   0.636E-03 0.461E+01 -.323E+01   -.502E-06 -.964E-04 0.277E-03
   -.436E+02 -.831E-03 -.186E+03   0.480E+02 0.885E-03 0.183E+03   -.468E+01 -.110E-03 0.312E+01   0.952E-04 -.617E-06 -.400E-04
   0.436E+02 -.833E-03 -.186E+03   -.480E+02 0.887E-03 0.183E+03   0.467E+01 -.109E-03 0.312E+01   -.963E-04 -.551E-06 -.399E-04
   -.337E-02 -.775E+00 0.244E+04   -.362E-05 0.774E+00 -.243E+04   0.894E-02 0.183E-03 -.960E+01   -.206E-04 0.747E-04 -.761E-03
   0.804E+00 0.996E-05 0.244E+04   -.806E+00 -.717E-05 -.243E+04   0.305E-02 0.369E-05 -.961E+01   -.923E-04 -.148E-06 -.768E-03
   -.153E-02 -.573E-05 0.823E+03   -.690E-05 -.756E-07 -.824E+03   0.775E-02 -.512E-07 0.671E+00   -.379E-05 0.767E-05 -.183E-02
   0.833E+00 -.882E+00 0.825E+03   -.832E+00 0.882E+00 -.825E+03   0.195E-02 -.145E-03 0.644E+00   0.104E-04 -.982E-06 -.175E-02
   -.223E-02 -.290E+01 -.786E+03   -.280E-04 0.290E+01 0.786E+03   0.451E-02 -.891E-02 -.251E+00   -.384E-05 0.786E-04 -.128E-02
   0.291E+01 0.571E-04 -.786E+03   -.290E+01 -.539E-04 0.786E+03   -.514E-02 -.136E-06 -.231E+00   -.403E-04 0.815E-06 -.126E-02
   -.136E-02 0.105E-03 -.239E+04   0.258E-04 -.874E-04 0.239E+04   0.760E-02 -.130E-05 0.810E+01   -.318E-05 -.180E-04 -.201E-02
   0.184E+02 -.185E+02 -.237E+04   -.184E+02 0.186E+02 0.236E+04   -.455E-01 -.704E-01 0.809E+01   -.142E-04 0.636E-04 -.192E-02
   -.337E-02 0.775E+00 0.244E+04   -.324E-05 -.774E+00 -.243E+04   0.895E-02 -.182E-03 -.960E+01   -.258E-04 -.751E-04 -.748E-03
   0.102E+01 -.110E-04 0.244E+04   -.102E+01 0.705E-05 -.243E+04   0.181E-02 0.103E-04 -.960E+01   -.643E-04 0.164E-05 -.659E-03
   -.150E-02 0.456E-05 0.825E+03   -.208E-04 -.986E-06 -.825E+03   0.774E-02 0.713E-06 0.618E+00   -.138E-04 -.448E-05 -.177E-02
   0.833E+00 0.882E+00 0.825E+03   -.832E+00 -.882E+00 -.825E+03   0.194E-02 0.148E-03 0.644E+00   -.309E-05 -.282E-06 -.175E-02
   -.220E-02 0.290E+01 -.786E+03   -.460E-04 -.290E+01 0.786E+03   0.451E-02 0.890E-02 -.251E+00   -.303E-05 -.814E-04 -.130E-02
   0.482E+01 -.205E-04 -.778E+03   -.479E+01 0.188E-04 0.779E+03   -.342E-01 0.162E-05 -.257E+00   0.145E-03 -.365E-05 -.144E-02
   -.138E-02 -.892E-04 -.238E+04   0.447E-04 0.706E-04 0.237E+04   0.656E-02 -.110E-04 0.806E+01   -.193E-05 0.219E-04 -.181E-02
   0.184E+02 0.185E+02 -.237E+04   -.184E+02 -.186E+02 0.236E+04   -.454E-01 0.704E-01 0.809E+01   -.175E-05 -.628E-04 -.192E-02
   -.340E-02 -.987E+00 0.244E+04   0.404E-05 0.985E+00 -.243E+04   0.896E-02 0.166E-02 -.961E+01   0.191E-04 0.458E-04 -.639E-03
   -.805E+00 0.688E-05 0.244E+04   0.806E+00 -.778E-05 -.243E+04   -.316E-03 -.467E-05 -.961E+01   0.871E-04 0.247E-05 -.745E-03
   -.155E-02 0.433E-04 0.825E+03   0.892E-05 -.406E-04 -.825E+03   0.776E-02 -.156E-04 0.599E+00   0.355E-05 -.583E-05 -.174E-02
   -.832E+00 -.882E+00 0.825E+03   0.832E+00 0.882E+00 -.825E+03   0.261E-02 -.156E-03 0.644E+00   -.823E-05 -.572E-05 -.178E-02
   -.248E-02 -.487E+01 -.778E+03   0.102E-03 0.484E+01 0.778E+03   0.458E-02 0.341E-01 -.428E+00   -.816E-06 -.854E-04 -.141E-02
   -.291E+01 0.106E-03 -.786E+03   0.290E+01 -.104E-03 0.786E+03   0.690E-02 -.696E-05 -.232E+00   0.316E-04 0.353E-05 -.124E-02
   -.146E-02 0.200E-03 -.238E+04   0.662E-04 -.176E-03 0.237E+04   0.649E-02 0.914E-04 0.809E+01   0.104E-04 -.136E-05 -.199E-02
   -.184E+02 -.185E+02 -.237E+04   0.184E+02 0.186E+02 0.236E+04   0.480E-01 -.700E-01 0.809E+01   0.170E-04 0.714E-04 -.191E-02
   -.340E-02 0.987E+00 0.244E+04   0.334E-05 -.985E+00 -.243E+04   0.896E-02 -.195E-02 -.961E+01   0.240E-04 -.459E-04 -.644E-03
   -.102E+01 -.531E-05 0.244E+04   0.102E+01 0.757E-05 -.243E+04   0.102E-02 0.666E-05 -.960E+01   0.675E-04 -.548E-05 -.639E-03
   -.158E-02 -.410E-04 0.826E+03   0.260E-04 0.395E-04 -.826E+03   0.777E-02 0.414E-05 0.683E+00   0.975E-05 0.194E-05 -.173E-02
   -.832E+00 0.882E+00 0.825E+03   0.832E+00 -.882E+00 -.825E+03   0.261E-02 0.157E-03 0.644E+00   0.153E-05 0.603E-05 -.179E-02
   -.242E-02 0.487E+01 -.778E+03   0.444E-04 -.484E+01 0.778E+03   0.457E-02 -.341E-01 -.428E+00   0.229E-05 0.933E-04 -.141E-02
   -.482E+01 -.356E-04 -.778E+03   0.479E+01 0.388E-04 0.779E+03   0.361E-01 0.620E-06 -.258E+00   -.144E-03 -.441E-05 -.144E-02
   -.152E-02 -.322E-03 -.231E+04   0.599E-04 0.293E-03 0.230E+04   0.704E-02 0.434E-04 0.785E+01   0.685E-06 -.151E-06 -.192E-02
   -.184E+02 0.185E+02 -.237E+04   0.184E+02 -.186E+02 0.236E+04   0.480E-01 0.700E-01 0.809E+01   -.550E-05 -.679E-04 -.193E-02
   0.146E-02 -.505E+00 0.494E+03   -.963E-05 0.496E+00 -.493E+03   -.324E-02 0.110E-01 -.744E-01   -.509E-05 0.273E-04 -.820E-03
   0.503E+00 0.115E-04 0.494E+03   -.494E+00 -.108E-04 -.493E+03   -.121E-01 -.601E-05 -.774E-01   -.212E-04 0.310E-05 -.810E-03
   0.733E-03 0.451E-05 0.148E+04   -.143E-05 -.290E-05 -.148E+04   -.250E-02 -.118E-05 0.235E+01   0.661E-05 -.195E-05 -.172E-03
   0.544E+00 -.528E+00 0.148E+04   -.546E+00 0.527E+00 -.148E+04   0.204E-02 0.891E-03 0.234E+01   -.516E-04 0.409E-04 -.108E-03
   0.747E-03 -.607E+01 -.146E+04   0.345E-04 0.606E+01 0.147E+04   -.829E-03 0.265E-02 -.449E+01   -.212E-05 0.950E-04 -.172E-02
   0.589E+01 0.116E-03 -.146E+04   -.590E+01 -.118E-03 0.147E+04   0.117E-01 0.486E-05 -.451E+01   -.971E-04 -.325E-06 -.176E-02
   0.171E-02 -.528E-06 -.468E+03   -.162E-04 -.201E-06 0.467E+03   -.956E-04 -.331E-05 0.266E+00   -.441E-05 0.250E-05 -.790E-03
   0.229E+01 -.228E+01 -.463E+03   -.228E+01 0.228E+01 0.463E+03   -.125E-01 0.413E-02 0.306E+00   0.209E-04 0.174E-04 -.821E-03
   0.146E-02 0.505E+00 0.494E+03   -.103E-04 -.496E+00 -.493E+03   -.323E-02 -.110E-01 -.745E-01   -.621E-05 -.287E-04 -.812E-03
   0.561E+00 -.816E-05 0.494E+03   -.574E+00 0.860E-05 -.494E+03   0.161E-01 0.115E-05 -.751E-01   0.360E-04 -.142E-05 -.748E-03
   0.748E-03 -.433E-05 0.148E+04   -.258E-05 0.282E-05 -.148E+04   -.250E-02 0.284E-06 0.235E+01   -.108E-04 0.305E-05 -.110E-03
   0.544E+00 0.528E+00 0.148E+04   -.546E+00 -.527E+00 -.148E+04   0.204E-02 -.889E-03 0.234E+01   -.491E-04 -.421E-04 -.107E-03
   0.776E-03 0.607E+01 -.146E+04   -.355E-06 -.606E+01 0.147E+04   -.848E-03 -.266E-02 -.449E+01   0.674E-05 -.973E-04 -.173E-02
   0.189E+02 -.984E-04 -.144E+04   -.188E+02 0.917E-04 0.144E+04   -.116E+00 0.121E-04 -.455E+01   0.169E-03 -.377E-05 -.148E-02
   0.184E-02 -.393E-06 -.464E+03   -.896E-05 -.271E-06 0.463E+03   -.256E-02 -.220E-06 0.330E+00   -.336E-05 0.895E-08 -.910E-03
   0.229E+01 0.228E+01 -.463E+03   -.228E+01 -.228E+01 0.463E+03   -.125E-01 -.413E-02 0.306E+00   0.191E-04 -.172E-04 -.821E-03
   0.142E-02 -.567E+00 0.494E+03   0.157E-04 0.581E+00 -.494E+03   -.322E-02 -.179E-01 -.803E-01   0.611E-05 -.343E-04 -.730E-03
   -.506E+00 0.169E-04 0.494E+03   0.494E+00 -.164E-04 -.493E+03   0.148E-01 -.564E-05 -.775E-01   0.235E-04 0.266E-05 -.817E-03
   0.746E-03 0.583E-05 0.148E+04   0.157E-05 -.613E-05 -.148E+04   -.251E-02 0.426E-06 0.234E+01   -.253E-05 -.146E-05 -.947E-04
   -.546E+00 -.528E+00 0.148E+04   0.546E+00 0.527E+00 -.148E+04   0.509E-03 0.895E-03 0.234E+01   0.490E-04 0.293E-04 -.862E-04
   0.730E-03 -.187E+02 -.144E+04   0.653E-04 0.186E+02 0.145E+04   0.599E-03 0.110E+00 -.457E+01   -.148E-06 -.168E-03 -.157E-02
   -.590E+01 0.129E-03 -.146E+04   0.590E+01 -.130E-03 0.147E+04   0.270E-02 0.310E-05 -.451E+01   0.878E-04 -.108E-05 -.177E-02
   0.181E-02 0.401E-04 -.464E+03   0.306E-04 -.365E-04 0.463E+03   -.259E-02 -.115E-04 0.294E+00   0.379E-05 0.317E-06 -.864E-03
   -.229E+01 -.228E+01 -.463E+03   0.228E+01 0.228E+01 0.463E+03   0.162E-01 0.268E-02 0.306E+00   -.211E-04 0.221E-04 -.827E-03
   0.143E-02 0.567E+00 0.494E+03   0.926E-05 -.581E+00 -.494E+03   -.322E-02 0.178E-01 -.801E-01   0.615E-05 0.363E-04 -.735E-03
   -.564E+00 -.115E-04 0.494E+03   0.574E+00 0.129E-04 -.494E+03   -.134E-01 0.227E-05 -.752E-01   -.331E-04 -.340E-05 -.767E-03
   0.737E-03 -.288E-05 0.148E+04   0.278E-05 0.605E-05 -.148E+04   -.251E-02 -.129E-04 0.234E+01   0.805E-05 -.789E-06 -.871E-05
   -.546E+00 0.528E+00 0.148E+04   0.546E+00 -.527E+00 -.148E+04   0.513E-03 -.896E-03 0.234E+01   0.491E-04 -.277E-04 -.831E-04
   0.758E-03 0.187E+02 -.144E+04   0.340E-04 -.186E+02 0.145E+04   0.606E-03 -.110E+00 -.457E+01   -.189E-06 0.170E-03 -.157E-02
   -.189E+02 -.922E-04 -.144E+04   0.188E+02 0.834E-04 0.144E+04   0.133E+00 0.868E-05 -.455E+01   -.164E-03 0.350E-06 -.148E-02
   0.155E-02 -.394E-04 -.460E+03   0.392E-04 0.367E-04 0.459E+03   0.466E-03 0.182E-04 0.148E+00   -.484E-05 -.408E-05 -.803E-03
   -.229E+01 0.228E+01 -.463E+03   0.228E+01 -.228E+01 0.463E+03   0.162E-01 -.268E-02 0.306E+00   -.223E-04 -.215E-04 -.831E-03
   -.322E-01 -.194E-02 0.257E+02   0.391E-12 0.227E-12 -.301E-11   0.172E+00 0.198E-02 -.258E+02   -.313E-04 -.728E-05 -.719E-01

 POSITION                                       TOTAL-FORCE (eV/Angst)
      5.27456      4.22047     12.92220         0.013703      0.001574      0.043822
      5.27456      5.11862     13.55207        -0.001437     -0.251417     -0.175720
      5.27456      3.32239     13.55206        -0.001425      0.250131     -0.174843
      6.17849      4.22049     12.29694        -0.227330     -0.000057      0.158506
      4.37063      4.22049     12.29694         0.220946     -0.000057      0.157912
      1.05407      6.33074      3.44793         0.003519     -0.000092      0.474570
      3.16431      0.00000      3.44793        -0.001203      0.000006      0.472297
      1.05407      0.00000      5.55818         0.004185      0.000001      0.031941
      3.16431      6.33074      5.55818         0.001323     -0.000042      0.033110
      1.05407      6.33101      7.68286         0.000220     -0.003953      0.042200
      3.16425      8.44098      7.68273         0.002180      0.000003      0.039503
      1.05407      8.44098      9.78832         0.004228     -0.000003     -0.086215
      3.16530      6.33156      9.78541        -0.009832      0.002882     -0.102172
      1.05407      2.11025      3.44793         0.003524      0.000092      0.474549
      3.16431      4.22049      3.44793        -0.000648      0.000007      0.472570
      1.05407      4.22049      5.55818         0.004181     -0.000001      0.033465
      3.16431      2.11025      5.55818         0.001315      0.000042      0.033072
      1.05407      2.10997      7.68286         0.000223      0.003951      0.042200
      3.16523      4.22049      7.68312        -0.004773     -0.000004      0.041558
      1.05407      4.22049      9.78466         0.003197     -0.000008     -0.101072
      3.16530      2.10942      9.78541        -0.009800     -0.002887     -0.102223
      5.27456      6.33074      3.44793         0.003555     -0.000415      0.476860
      7.38480      0.00000      3.44793        -0.000353     -0.000004      0.472306
      5.27456      0.00000      5.55818         0.004189     -0.000019      0.036022
      7.38480      6.33074      5.55818         0.000318     -0.000047      0.033099
      5.27456      6.32990      7.68374         0.000178      0.008169      0.039637
      7.38487      0.00000      7.68273        -0.004175     -0.000002      0.038844
      5.27456      8.44098      9.78620         0.003076      0.000114     -0.097885
      7.38382      6.33156      9.78541         0.012393      0.003293     -0.102330
      5.27456      2.11025      3.44793         0.003557      0.000120      0.476961
      7.38480      4.22049      3.44793        -0.000818      0.000003      0.472666
      5.27456      4.22049      5.55818         0.004199      0.000004      0.038238
      7.38480      2.11025      5.55818         0.000327      0.000047      0.033084
      5.27456      2.11108      7.68374         0.000169     -0.008179      0.040127
      7.38389      4.22049      7.68312         0.002854     -0.000001      0.041183
      5.27456      4.22049      9.79754         0.003556      0.000013     -0.022283
      7.38382      2.10942      9.78541         0.012371     -0.003287     -0.102341
      1.05407      6.33074      5.55818        -0.003921      0.002526      0.062121
      3.16431      0.00000      5.55818        -0.005263     -0.000002      0.055907
      1.05407      0.00000      3.44793        -0.003917     -0.000003     -0.399477
      3.16431      6.33074      3.44793        -0.002010      0.000198     -0.406464
      1.05407      6.33109      9.83385        -0.002215     -0.004365     -0.133421
      3.16380      0.00000      9.83460         0.007024      0.000003     -0.141444
      1.05407      8.44098      7.67820        -0.000529     -0.000003      0.011554
      3.16367      6.33085      7.67698        -0.002150      0.000390      0.014421
      1.05407      2.11025      5.55818        -0.003916     -0.002529      0.062094
      3.16431      4.22049      5.55818         0.001194     -0.000000      0.059174
      1.05407      4.22049      3.44793        -0.003925      0.000001     -0.398521
      3.16431      2.11025      3.44793        -0.002012     -0.000198     -0.406453
      1.05407      2.10989      9.83385        -0.002233      0.004359     -0.133421
      3.16220      4.22049      9.83429        -0.008086      0.000001     -0.134900
      1.05407      4.22049      7.67618        -0.002851     -0.000001      0.023739
      3.16367      2.11014      7.67698        -0.002151     -0.000393      0.014415
      5.27456      6.33074      5.55818        -0.003910     -0.004130      0.064381
      7.38480      0.00000      5.55818         0.001128     -0.000003      0.055877
      5.27456      0.00000      3.44793        -0.003922     -0.000000     -0.400323
      7.38480      6.33074      3.44793        -0.002362      0.000196     -0.406504
      5.27456      6.33193      9.82917        -0.000763      0.008078     -0.125132
      7.38531      0.00000      9.83460        -0.001248      0.000001     -0.141494
      5.27456      8.44098      7.67598        -0.002870     -0.000006      0.021876
      7.38544      6.33085      7.67698        -0.000567     -0.001080      0.014276
      5.27456      2.11025      5.55818        -0.003909      0.004078      0.064521
      7.38480      4.22049      5.55818        -0.005326     -0.000000      0.059052
      5.27456      4.22049      3.44793        -0.003921     -0.000010     -0.400394
      7.38480      2.11025      3.44793        -0.002362     -0.000199     -0.406506
      5.27456      2.10905      9.82917        -0.000759     -0.007975     -0.125218
      7.38692      4.22049      9.83429         0.016710      0.000000     -0.133259
      5.27456      4.22049      7.67977        -0.000082      0.000011      0.012032
      7.38544      2.11014      7.67698        -0.000567      0.001079      0.014277
    total drift:                                0.140049      0.000037     -0.117515

  FREE ENERGIE OF THE ION-ELECTRON SYSTEM (eV)
  free  energy   TOTEN  =      -532.28186416 eV

  energy  without entropy=     -532.28186416  energy(sigma->0) =     -532.28186416

     |            E. Caldeweyher, S. Ehlert & S. Grimme          |
     |          Mulliken Center for Theoretical Chemistry        |
     |                    University of Bonn                     |

Rational (Becke-Johnson) damping: r2scan-D4-ATM
  s6         1.0000
  s8         0.6019
  s9         1.0000
  a1         0.5156
  a2         5.7734
 alp        16.0000

Dispersion energy:      -1.1565910277892E-01 Eh