 vasp.6.3.0 20Jan22 (build Dec 25 2023 18:06:01) complex
 executed on        HPECrayEX_GCC date 2024.01.24  03:03:18

 INCAR:
   SYSTEM = MgO-rocksalt
   ISMEAR = 0
   SIGMA = 0.05
   EDIFF = 1E-8
   ALGO = ALL
   ISTART = 0
   IBRION = 5
   POTIM = 0.01
   NFREE = 2
   ISYM = 0
   DIPOL = 0.5 0.5 0.5
   IDIPOL = 3
   LDIPOL = .TRUE.
   GGA = RE
   IVDW = 13
   VDW_S8 = 1.7468
   VDW_A1 = 0.5363
   VDW_A2 = 3.0726
   ENCUT = 600
   PREC = Accurate
   LASPH = .TRUE.
   LREAL = .FALSE.
   ISPIN = 1
   NELM = 200
   NELMIN = 8
   NCORE = 8
   KPAR = 1
   LWAVE = .FALSE.
   LCHARG = .FALSE.

 POTCAR:    PAW_PBE H 15Jun2001
 POTCAR:    PAW_PBE O 08Apr2002
 POTCAR:    PAW_PBE Ti_pv 07Sep2000
 POTCAR:    PAW_PBE O 08Apr2002
 POTCAR:    PAW_PBE H 15Jun2001
   VRHFIN =H: ultrasoft test

   TITEL  = PAW_PBE H 15Jun2001
   POMASS =    1.000; ZVAL   =    1.000    mass and valenz
   ENMAX  =  250.000; ENMIN  =  200.000 eV

   TITEL  = PAW_PBE O 08Apr2002
   POMASS =   16.000; ZVAL   =    6.000    mass and valenz
   ENMAX  =  400.000; ENMIN  =  300.000 eV

   TITEL  = PAW_PBE Ti_pv 07Sep2000
   POMASS =   47.880; ZVAL   =   10.000    mass and valenz
   ENMAX  =  222.335; ENMIN  =  166.751 eV

   TITEL  = PAW_PBE O 08Apr2002
   POMASS =   16.000; ZVAL   =    6.000    mass and valenz
   ENMAX  =  400.000; ENMIN  =  300.000 eV

  PAW_PBE H 15Jun2001                   :
  PAW_PBE O 08Apr2002                   :
  PAW_PBE Ti_pv 07Sep2000               :
  PAW_PBE O 08Apr2002                   :

 POSCAR:  H  O Ti  O
  positions in direct lattice
|           W    W    AA    RRRRR   N    N  II  N    N   GGGG   !!!           |
|           W    W   A  A   R    R  NN   N  II  NN   N  G    G  !!!           |
|           W    W  A    A  R    R  N N  N  II  N N  N  G       !!!           |
|           W WW W  AAAAAA  RRRRR   N  N N  II  N  N N  G  GGG   !            |
|           WW  WW  A    A  R   R   N   NN  II  N   NN  G    G                |
|           W    W  A    A  R    R  N    N  II  N    N   GGGG   !!!           |
|     Specifying the vdW parameters                                           |
|     VDW_S8 = 1.747                                                          |
|     VDW_A1 = 0.536                                                          |
|     VDW_A2 = 3.073                                                          |
|     in the INCAR file will overwrite the defaults for revpbe. Please        |
|     make sure that is what you intended.                                    |

 ion  position               nearest neighbor table
   1  0.511  0.550  0.802-   3 0.97
   2  0.614  0.496  0.783-   3 1.00
   3  0.537  0.491  0.783-   1 0.97   2 1.00  83 2.23
   4  0.750  0.625  0.287-  85 1.95 145 1.95 144 1.95  84 1.95  87 1.98 166 1.98  14 2.96  34 2.96

   5  0.000  0.750  0.287-  86 1.95  87 1.95 106 1.95 107 1.95  88 1.98  35 2.96  15 2.96
   6  0.000  0.625  0.394-  88 1.95 148 1.95  89 1.95 149 1.95  90 1.98  91 1.98  16 2.96  36 2.96

[...]

  84  0.750  0.750  0.245-   4 1.95  14 1.95
  85  0.750  0.750  0.329-   4 1.95  14 1.95   7 1.98
  86  0.098  0.625  0.287-   5 1.95  35 1.95  44 1.98
  87  0.902  0.625  0.287-   5 1.95  35 1.95   4 1.98
  88  0.000  0.750  0.352-   6 1.95  16 1.95   5 1.98
  89  0.000  0.750  0.435-   6 1.95  16 1.95   9 1.98
  90  0.848  0.625  0.394-   7 1.95  37 1.95   6 1.98
  91  0.152  0.625  0.394-  47 1.95  77 1.95   6 1.98
  92  0.750  0.750  0.458-   8 1.95  18 1.95   7 1.98
  93  0.750  0.750  0.542-   8 1.95  18 1.95  11 2.10
  94  0.098  0.625  0.500-   9 1.95  39 1.95  48 1.98
  95  0.902  0.625  0.500-   9 1.95  39 1.95   8 1.98
  96  0.001  0.750  0.565-  20 1.90  10 1.90   9 2.00
  97  0.000  0.750  0.649-  13 1.81  10 2.02  20 2.02
  98  0.851  0.625  0.607-  11 1.93  41 1.93  10 2.03
  99  0.151  0.625  0.607-  10 1.87  51 2.02  81 2.02
 100  0.754  0.751  0.671-  11 1.87  12 2.08  22 2.09
 101  0.750  0.749  0.756-  12 1.83  22 1.84
 102  0.095  0.625  0.719-  43 1.94  13 1.95  52 2.03
 103  0.907  0.624  0.720-  43 1.95  13 1.96  12 2.02
 104  0.750  0.000  0.245-  14 1.95  24 1.95
 105  0.750  0.000  0.329-  14 1.95  24 1.95  17 1.98
 106  0.098  0.875  0.287-   5 1.95  15 1.95  54 1.98
 107  0.902  0.875  0.287-   5 1.95  15 1.95  14 1.98
 108  0.000  0.000  0.352-  16 1.95  26 1.95  15 1.98
 109  0.000  0.000  0.435-  16 1.95  26 1.95  19 1.98
 110  0.848  0.875  0.394-   7 1.95  17 1.95  16 1.98
 111  0.152  0.875  0.394-  47 1.95  57 1.95  16 1.98
 112  0.750  0.000  0.458-  18 1.95  28 1.95  17 1.98
 113  0.750  0.000  0.542-  18 1.95  28 1.95  21 2.10
 114  0.098  0.875  0.500-   9 1.95  19 1.95  58 1.98
 115  0.902  0.875  0.500-   9 1.95  19 1.95  18 1.98
 116  0.001  1.000  0.565-  30 1.90  20 1.90  19 2.00
 117  0.000  1.000  0.649-  23 1.81  20 2.02  30 2.02
 118  0.851  0.875  0.607-  21 1.93  11 1.93  20 2.04
 119  0.151  0.875  0.607-  20 1.87  51 2.02  61 2.02
 120  0.752  1.000  0.672-  21 1.87  32 2.09  22 2.10
 121  0.751  1.000  0.756-  32 1.83  22 1.84
 122  0.095  0.875  0.718-  13 1.94  23 1.95  62 2.04
 123  0.907  0.875  0.719-  13 1.94  23 1.95  22 2.04
 124  0.750  0.250  0.245-  24 1.95  34 1.95
 125  0.750  0.250  0.329-  24 1.95  34 1.95  27 1.98
 126  0.098  0.125  0.287-  15 1.95  25 1.95  64 1.98
 127  0.902  0.125  0.287-  15 1.95  25 1.95  24 1.98
 128  0.000  0.250  0.352-  26 1.95  36 1.95  25 1.98
 129  0.000  0.250  0.435-  26 1.95  36 1.95  29 1.98
 130  0.848  0.125  0.394-  17 1.95  27 1.95  26 1.98
 131  0.152  0.125  0.394-  57 1.95  67 1.95  26 1.98
 132  0.750  0.250  0.458-  28 1.95  38 1.95  27 1.98
 133  0.750  0.250  0.542-  28 1.95  38 1.95  31 2.10
 134  0.098  0.125  0.500-  19 1.95  29 1.95  68 1.98
 135  0.902  0.125  0.500-  19 1.95  29 1.95  28 1.98
 136  0.001  0.250  0.565-  40 1.90  30 1.90  29 2.00
 137  0.000  0.250  0.649-  33 1.81  40 2.02  30 2.02
 138  0.851  0.125  0.607-  21 1.93  31 1.93  30 2.04
 139  0.151  0.125  0.607-  30 1.87  61 2.02  71 2.02
 140  0.754  0.250  0.671-  31 1.87  42 2.07  32 2.10
 141  0.750  0.251  0.756-  42 1.83  32 1.84
 142  0.095  0.125  0.719-  33 1.94  23 1.95  72 2.04
 143  0.907  0.125  0.719-  33 1.94  23 1.95  32 2.04
[...]
 229  0.500  0.500  0.435-  46 1.95  76 1.95  79 1.98
 230  0.348  0.375  0.394-  67 1.95  77 1.95  76 1.98
 231  0.652  0.375  0.394-  27 1.95  37 1.95  76 1.98
 232  0.250  0.500  0.458-  48 1.95  78 1.95  77 1.98
 233  0.250  0.500  0.542-  48 1.95  78 1.95  81 2.11
 234  0.598  0.375  0.500-  69 1.95  79 1.95  38 1.98
 235  0.402  0.375  0.500-  69 1.95  79 1.95  78 1.98
 236  0.501  0.500  0.566-  50 1.90  80 1.90  79 2.00
 237  0.500  0.500  0.650-  83 1.89  50 1.99  80 1.99
 238  0.350  0.375  0.607-  71 1.92  81 1.93  80 2.04
 239  0.651  0.375  0.608-  80 1.87  31 2.02  41 2.02
 240  0.251  0.500  0.672-  81 1.86  52 2.09  82 2.10
 241  0.252  0.500  0.756-  82 1.84  52 1.84
 242  0.598  0.371  0.714-  73 1.92  83 1.96  42 2.02
 243  0.407  0.374  0.718-  83 1.93  73 1.94  82 2.03

IMPORTANT INFORMATION: All symmetrisations will be switched off!
NOSYMM: (Re-)initialisation of all symmetry stuff for point group C_1.

                                     Primitive cell

  volume of cell :    4700.2961

  direct lattice vectors                    reciprocal lattice vectors
    13.003980404  0.000000000  0.000000000     0.076899531  0.000000000  0.000000000
     0.000000000 11.830378115  0.000000000     0.000000000  0.084528152  0.000000000
     0.000000000  0.000000000 30.552748813     0.000000000  0.000000000  0.032730279

  length of vectors
    13.003980404 11.830378115 30.552748813     0.076899531  0.084528152  0.032730279

  position of ions in fractional coordinates (direct lattice)
     0.510874486  0.549744949  0.802031162
     0.613779755  0.496082292  0.783151407
     0.537360385  0.491119463  0.782809003
     0.750000000  0.625000000  0.287188045
     0.000000000  0.750000000  0.287188045
     0.000000000  0.625000000  0.393594023
     0.750000000  0.750000000  0.393594023
     0.750000000  0.625000000  0.500000000
     0.000000000  0.750000000  0.500000000
     0.007153851  0.625014308  0.604051248
     0.756304002  0.750075782  0.610262489
     0.751644692  0.625562917  0.719252858
     0.000794862  0.750172552  0.708180947
     0.750000000  0.875000000  0.287188045
     0.000000000  0.000000000  0.287188045
     0.000000000  0.875000000  0.393594023
     0.750000000  0.000000000  0.393594023
     0.750000000  0.875000000  0.500000000
     0.000000000  0.000000000  0.500000000
     0.007277969  0.874988203  0.604120477
     0.755823970  0.999936719  0.610540702
     0.750558456  0.874801778  0.720210742
     0.000972366  0.999860664  0.708137749
     0.750000000  0.125000000  0.287188045
     0.000000000  0.250000000  0.287188045
     0.000000000  0.125000000  0.393594023
     0.750000000  0.250000000  0.393594023
     0.750000000  0.125000000  0.500000000
     0.000000000  0.250000000  0.500000000
     0.007298258  0.124917644  0.604100230
     0.756284959  0.249808457  0.610237489
     0.750454270  0.124164987  0.720199614
     0.000891816  0.249547152  0.708163781
     0.750000000  0.375000000  0.287188045
     0.000000000  0.500000000  0.287188045
     0.000000000  0.375000000  0.393594023
     0.750000000  0.500000000  0.393594023
     0.750000000  0.375000000  0.500000000
     0.000000000  0.500000000  0.500000000
     0.007178713  0.374943068  0.604052437
     0.756563247  0.499958319  0.610421053
     0.752182607  0.373375021  0.719287257
     0.001629605  0.499997807  0.708113155
     0.250000000  0.625000000  0.287188045
     0.500000000  0.750000000  0.287188045
     0.500000000  0.625000000  0.393594023
     0.250000000  0.750000000  0.393594023
     0.250000000  0.625000000  0.500000000
     0.500000000  0.750000000  0.500000000
     0.507320083  0.622908111  0.605197857
     0.256313719  0.749863999  0.610535728
     0.251324883  0.625073828  0.720260147
     0.501526304  0.750046487  0.706999378
     0.250000000  0.875000000  0.287188045
     0.500000000  0.000000000  0.287188045
     0.500000000  0.875000000  0.393594023
     0.250000000  0.000000000  0.393594023
     0.250000000  0.875000000  0.500000000
     0.500000000  0.000000000  0.500000000
     0.507087916  0.874087949  0.603151519
[...]
     0.500000000  0.500000000  0.435304973
     0.347999548  0.375000000  0.393594023
     0.652000452  0.375000000  0.393594023
     0.250000000  0.500000000  0.458289049
     0.250000000  0.500000000  0.541710951
     0.597999548  0.375000000  0.500000000
     0.402000452  0.375000000  0.500000000
     0.501117386  0.499778844  0.565532930
     0.499713178  0.500386743  0.649591141
     0.350391877  0.374994760  0.607107718
     0.651325941  0.374991118  0.607676041
     0.251182300  0.500380033  0.671616784
     0.252350693  0.499836245  0.755769292
     0.597520163  0.371494485  0.714046372
     0.407335910  0.373881061  0.717873155

  ion indices of the primitive-cell ions
   primitive index   ion index
                 1           1
                 2           2
                 3           3
                 4           4
                 5           5
                 6           6
[...]
      9.83471      2.95533     18.64443        -0.002965      0.000745     -0.001455
      9.75889      1.46892     22.00408        -0.000677      0.000041     -0.003017
      0.01160      2.95224     21.63635         0.000098      0.000173     -0.001254
      9.75299      4.43639      8.77438        -0.002289     -0.000061     -3.377996
      0.00000      5.91519      8.77438         0.001109     -0.000037      2.808417
      0.00000      4.43639     12.02538         0.004790      0.000165      0.540838
      9.75299      5.91519     12.02538        -0.006282      0.000340     -0.722583
      9.75299      4.43639     15.27637        -0.030899      0.021453      0.632857
      0.00000      5.91519     15.27637        -0.000761      0.000346     -0.743373
      0.09335      4.43572     18.45546         0.002409     -0.000245     -0.000961
      9.83833      5.91470     18.65004        -0.000310     -0.001080     -0.001336
      9.78137      4.41717     21.97620        -0.002901      0.000556     -0.000428
      0.02119      5.91516     21.63480         0.000123      0.000144      0.000906
      3.25100      7.39399      8.77438         0.002409     -0.000038     -3.375805
      6.50199      8.87278      8.77438        -0.000938      0.000282      2.814180
      6.50199      7.39399     12.02538        -0.004375      0.008873      0.561406
      3.25100      8.87278     12.02538         0.007027      0.000322     -0.708459
      3.25100      7.39399     15.27637         0.039459     -0.011548      0.681723
      6.50199      8.87278     15.27637        -0.023732     -0.039829     -0.628893
      6.59718      7.36924     18.49046         0.002695     -0.003677      0.002848
      3.33310      8.87117     18.65354         0.002744     -0.001530     -0.001180
      3.26822      7.39486     22.00593        -0.000440     -0.000541     -0.001396
      6.52184      8.87333     21.60077         0.000261     -0.004244      0.000476
      3.25100     10.35158      8.77438         0.002506      0.000191     -3.375972
      6.50199      0.00000      8.77438        -0.000914      0.000039      2.814253
      6.50199     10.35158     12.02538        -0.004578     -0.000149      0.563745
      3.25100      0.00000     12.02538         0.007376     -0.000120     -0.708995
      3.25100     10.35158     15.27637         0.032270      0.004243      0.676173
      6.50199      0.00000     15.27637        -0.028207     -0.002926     -0.802861
      6.59416     10.34079     18.42794         0.002361     -0.002708      0.001859
[...]
      6.50199      5.91519     13.29976         0.003213     -0.000754     -0.121826
      4.52538      4.43639     12.02538         0.433064      0.000227      0.048109
      8.47860      4.43639     12.02538        -0.427901      0.000256      0.049810
      3.25100      5.91519     14.00199        -0.009537      0.000370     -0.107166
      3.25100      5.91519     16.55076        -0.007184     -0.002594      0.035072
      7.77637      4.43639     15.27637        -0.436333      0.019213      0.063785
      5.22761      4.43639     15.27637         0.470714      0.020792      0.086063
      6.51652      5.91257     17.27859         0.000605     -0.000016     -0.000392
      6.49826      5.91976     19.84679         0.002838      0.000235     -0.011937
      4.55649      4.43633     18.54881        -0.004096     -0.000529      0.000454
      8.46983      4.43629     18.56617         0.000571     -0.001736     -0.000677
      3.26637      5.91968     20.51974         0.001904     -0.000371      0.000969
      3.28156      5.91325     23.09083        -0.000777     -0.000125      0.001941
      7.77014      4.39492     21.81608         0.002752     -0.006902     -0.005015
      5.29699      4.42315     21.93300        -0.002139     -0.004219     -0.000306
    total drift:                               -0.009351     -0.003270     -0.031844

  FREE ENERGIE OF THE ION-ELECTRON SYSTEM (eV)
  free  energy   TOTEN  =     -2141.06341045 eV

  energy  without entropy=    -2141.06341045  energy(sigma->0) =    -2141.06341045

 d Force =-0.9553784E-04[-0.539E-02, 0.520E-02]  d Energy =-0.8289528E-04-0.126E-04
 d Force =-0.5121559E+02[-0.513E+02,-0.512E+02]  d Ewald  =-0.5121543E+02-0.161E-03

 Finite differences progress:
  Degree of freedom:   9/  9
  Displacement:        2/  2
  Total:              18/ 18

 SECOND DERIVATIVES (NOT SYMMETRIZED)
               1X          1Y          1Z          2X          2Y          2Z          3X          3Y          3Z
  1X   -10.437424   12.264574   10.055504    0.947096   -3.141079   -2.572298    9.611700   -9.376128   -7.307080
  1Y    12.273240  -24.796031  -20.786788    0.585608    0.105454   -0.111140  -12.995142   24.588063   20.886270
  1Z    10.061263  -20.781447  -18.810706    0.311371   -0.013752    0.063632  -10.118714   20.171075   18.505609
  2X     0.947677    0.587843    0.313825  -37.269043   -1.192122   -1.491832   37.094805    0.574847   -0.634381
  2Y    -3.141038    0.106967   -0.012795   -1.186073   -3.735420   -1.828477    4.423984    3.079666    2.062477
  2Z    -2.570756   -0.112058    0.063897   -1.492817   -1.829294   -4.028293    2.709858    1.924533    3.535822
  3X     9.603204  -12.988952  -10.108638   37.087145    4.428679    2.716604  -50.465375    8.989797    8.371062
  3Y    -9.382548   24.585390   20.174022    0.571536    3.073114    1.921906    8.998746  -29.171997  -22.435555
  3Z    -7.304774   20.881150   18.496635   -0.642612    2.065798    3.531833    8.378141  -22.410698  -26.455048

 Eigenvectors and eigenvalues of the dynamical matrix

   1 f  =  113.100557 THz   710.631760 2PiTHz 3772.628505 cm-1   467.746110 meV
             X         Y         Z           dx          dy          dz
      6.643402  6.503691 24.504257    -0.361644    0.679175    0.582816
      7.981580  5.868841 23.927428    -0.089650   -0.026148   -0.019605
      6.987824  5.810129 23.916967     0.113588   -0.161962   -0.141500
      9.752985  7.393986  8.774384            0           0           0
      0.000000  8.872784  8.774384            0           0           0
      0.000000  7.393986 12.025379            0           0           0
      9.752985  8.872784 12.025379            0           0           0
      9.752985  7.393986 15.276374            0           0           0
      0.000000  8.872784 15.276374            0           0           0
      0.093029  7.394156 18.455426            0           0           0
      9.834962  8.873680 18.645197            0           0           0
      9.774373  7.400646 21.975152            0           0           0
      0.010336  8.874825 21.636875            0           0           0
      9.752985 10.351581  8.774384            0           0           0
      0.000000  0.000000  8.774384            0           0           0
      0.000000 10.351581 12.025379            0           0           0
      9.752985  0.000000 12.025379            0           0           0
      9.752985 10.351581 15.276374            0           0           0
      0.000000  0.000000 15.276374            0           0           0
      0.094643 10.351441 18.457541            0           0           0
      9.828720 11.829629 18.653697            0           0           0
      9.760247 10.349236 22.004418            0           0           0
      0.012645 11.828730 21.635555            0           0           0
      9.752985  1.478797  8.774384            0           0           0
      0.000000  2.957595  8.774384            0           0           0
      0.000000  1.478797 12.025379            0           0           0
      9.752985  2.957595 12.025379            0           0           0
      9.752985  1.478797 15.276374            0           0           0
      0.000000  2.957595 15.276374            0           0           0
      0.094906  1.477823 18.456923            0           0           0
      9.834715  2.955329 18.644433            0           0           0
      9.758893  1.468919 22.004078            0           0           0
      0.011597  2.952237 21.636350            0           0           0
      9.752985  4.436392  8.774384            0           0           0
      0.000000  5.915189  8.774384            0           0           0
      0.000000  4.436392 12.025379            0           0           0
      9.752985  5.915189 12.025379            0           0           0
      9.752985  4.436392 15.276374            0           0           0
      0.000000  5.915189 15.276374            0           0           0
      0.093352  4.435718 18.455462            0           0           0
      9.838334  5.914696 18.650041            0           0           0
      9.781368  4.417168 21.976203            0           0           0
      0.021191  5.915163 21.634803            0           0           0
      3.250995  7.393986  8.774384            0           0           0
      6.501990  8.872784  8.774384            0           0           0
      6.501990  7.393986 12.025379            0           0           0
      3.250995  8.872784 12.025379            0           0           0
      3.250995  7.393986 15.276374            0           0           0
      6.501990  8.872784 15.276374            0           0           0
      6.597180  7.369238 18.490458            0           0           0
      3.333099  8.871175 18.653545            0           0           0
      3.268224  7.394860 22.005927            0           0           0
      6.521838  8.873334 21.600774            0           0           0
      3.250995 10.351581  8.774384            0           0           0
      6.501990  0.000000  8.774384            0           0           0
      6.501990 10.351581 12.025379            0           0           0
      3.250995  0.000000 12.025379            0           0           0
      3.250995 10.351581 15.276374            0           0           0
      6.501990  0.000000 15.276374            0           0           0
      6.594161 10.340791 18.427937            0           0           0
[...]
      6.501990  5.915189 13.299764            0           0           0
      4.525379  4.436392 12.025379            0           0           0
      8.478601  4.436392 12.025379            0           0           0
      3.250995  5.915189 14.001990            0           0           0
      3.250995  5.915189 16.550759            0           0           0
      7.776374  4.436392 15.276374            0           0           0
      5.227606  4.436392 15.276374            0           0           0
      6.516521  5.912573 17.278586            0           0           0
      6.498260  5.919764 19.846795            0           0           0
      4.556489  4.436330 18.548810            0           0           0
      8.469830  4.436287 18.566173            0           0           0
      3.266370  5.919685 20.519739            0           0           0
      3.281563  5.913252 23.090829            0           0           0
      7.770140  4.394920 21.816079            0           0           0
      5.296988  4.423154 21.932998            0           0           0

[...]

   9 f  =    4.784966 THz    30.064826 2PiTHz  159.609275 cm-1    19.789019 meV
             X         Y         Z           dx          dy          dz
      6.643402  6.503691 24.504257     0.331240    0.172305   -0.057259
      7.981580  5.868841 23.927428     0.217713    0.031101   -0.169261
      6.987824  5.810129 23.916967     0.798995    0.351207   -0.136227
      9.752985  7.393986  8.774384            0           0           0
      0.000000  8.872784  8.774384            0           0           0
      0.000000  7.393986 12.025379            0           0           0
      9.752985  8.872784 12.025379            0           0           0
      9.752985  7.393986 15.276374            0           0           0
      0.000000  8.872784 15.276374            0           0           0
      0.093029  7.394156 18.455426            0           0           0
      9.834962  8.873680 18.645197            0           0           0
      9.774373  7.400646 21.975152            0           0           0
      0.010336  8.874825 21.636875            0           0           0
      9.752985 10.351581  8.774384            0           0           0
      0.000000  0.000000  8.774384            0           0           0
      0.000000 10.351581 12.025379            0           0           0
      9.752985  0.000000 12.025379            0           0           0
      9.752985 10.351581 15.276374            0           0           0
      0.000000  0.000000 15.276374            0           0           0
      0.094643 10.351441 18.457541            0           0           0
      9.828720 11.829629 18.653697            0           0           0
      9.760247 10.349236 22.004418            0           0           0
      0.012645 11.828730 21.635555            0           0           0
      9.752985  1.478797  8.774384            0           0           0
      0.000000  2.957595  8.774384            0           0           0
      0.000000  1.478797 12.025379            0           0           0
      9.752985  2.957595 12.025379            0           0           0
      9.752985  1.478797 15.276374            0           0           0
      0.000000  2.957595 15.276374            0           0           0
      0.094906  1.477823 18.456923            0           0           0
      9.834715  2.955329 18.644433            0           0           0
      9.758893  1.468919 22.004078            0           0           0
      0.011597  2.952237 21.636350            0           0           0
      9.752985  4.436392  8.774384            0           0           0
      0.000000  5.915189  8.774384            0           0           0
      0.000000  4.436392 12.025379            0           0           0
      9.752985  5.915189 12.025379            0           0           0
      9.752985  4.436392 15.276374            0           0           0
      0.000000  5.915189 15.276374            0           0           0
      0.093352  4.435718 18.455462            0           0           0
      9.838334  5.914696 18.650041            0           0           0
      9.781368  4.417168 21.976203            0           0           0
      0.021191  5.915163 21.634803            0           0           0
      3.250995  7.393986  8.774384            0           0           0
      6.501990  8.872784  8.774384            0           0           0
      6.501990  7.393986 12.025379            0           0           0
      3.250995  8.872784 12.025379            0           0           0
      3.250995  7.393986 15.276374            0           0           0
      6.501990  8.872784 15.276374            0           0           0
      6.597180  7.369238 18.490458            0           0           0
      3.333099  8.871175 18.653545            0           0           0
      3.268224  7.394860 22.005927            0           0           0
      6.521838  8.873334 21.600774            0           0           0
      3.250995 10.351581  8.774384            0           0           0
      6.501990  0.000000  8.774384            0           0           0
      6.501990 10.351581 12.025379            0           0           0
      3.250995  0.000000 12.025379            0           0           0
      3.250995 10.351581 15.276374            0           0           0
      6.501990  0.000000 15.276374            0           0           0
      6.594161 10.340791 18.427937            0           0           0
[...]
      6.501990  5.915189 13.299764            0           0           0
      4.525379  4.436392 12.025379            0           0           0
      8.478601  4.436392 12.025379            0           0           0
      3.250995  5.915189 14.001990            0           0           0
      3.250995  5.915189 16.550759            0           0           0
      7.776374  4.436392 15.276374            0           0           0
      5.227606  4.436392 15.276374            0           0           0
      6.516521  5.912573 17.278586            0           0           0
      6.498260  5.919764 19.846795            0           0           0
      4.556489  4.436330 18.548810            0           0           0
      8.469830  4.436287 18.566173            0           0           0
      3.266370  5.919685 20.519739            0           0           0
      3.281563  5.913252 23.090829            0           0           0
      7.770140  4.394920 21.816079            0           0           0
      5.296988  4.423154 21.932998            0           0           0

 Finite differences POTIM=   1.0000000000000000E-002