 vasp.6.4.2 20Jul23 (build Feb 22 2024 13:53:45) complex
 executed on              LinuxNV date 2024.08.27  19:26:20
 OpenACC runtime initialized ...    4 GPUs detected

 INCAR:
   SYSTEM = Oxide-Surface
   ISMEAR = 0
   SIGMA = 0.05
   EDIFF = 1E-5
   ALGO = Normal
   IBRION = -1
   NSW = 0
   ISYM = 0
   DIPOL = 0.5 0.5 0.5
   IDIPOL = 3
   LDIPOL = .TRUE.
   ISTART = 1
   LHFCALC = .TRUE.
   GGA = PE
   IVDW = 21
   VDW_SR = 0.96
   HFRCUT = -1
   ENCUT = 520
   PREC = Normal
   PRECFOCK = Normal
   LASPH = .TRUE.
   LREAL = Auto
   ISPIN = 1
   NELM = 200
   NELMIN = 8
   NCORE = 1
   KPAR = 1
   LWAVE = .FALSE.
   LCHARG = .FALSE.

 POTCAR:    PAW_PBE H 15Jun2001
 POTCAR:    PAW_PBE O 08Apr2002
 POTCAR:    PAW_PBE Mg_pv 13Apr2007
 POTCAR:    PAW_PBE O 08Apr2002
 POTCAR:    PAW_PBE H 15Jun2001
   VRHFIN =H: ultrasoft test

   TITEL  = PAW_PBE H 15Jun2001
   POMASS =    1.000; ZVAL   =    1.000    mass and valenz
   ENMAX  =  250.000; ENMIN  =  200.000 eV

   TITEL  = PAW_PBE O 08Apr2002
   POMASS =   16.000; ZVAL   =    6.000    mass and valenz
   ENMAX  =  400.000; ENMIN  =  300.000 eV

   TITEL  = PAW_PBE Mg_pv 13Apr2007
   POMASS =   24.305; ZVAL   =    8.000    mass and valenz
   ENMAX  =  403.929; ENMIN  =  302.947 eV

   TITEL  = PAW_PBE O 08Apr2002
   POMASS =   16.000; ZVAL   =    6.000    mass and valenz
   ENMAX  =  400.000; ENMIN  =  300.000 eV

 Optimization of the real space projectors (new method)

 maximal supplied QI-value         = 34.20
 optimisation between [QCUT,QGAM] = [ 11.63, 23.26] = [ 37.87,151.49] Ry
 Optimized for a Real-space Cutoff    1.14 Angstroem

   l    n(q)    QCUT    max X(q) W(low)/X(q) W(high)/X(q)  e(spline)
   0      8    11.629    19.460    0.27E-03    0.65E-03    0.17E-06
   0      8    11.629    12.209    0.25E-03    0.62E-03    0.16E-06
   1      7    11.629     4.655    0.29E-03    0.85E-04    0.19E-06
 Optimization of the real space projectors (new method)

[...]

   l    n(q)    QCUT    max X(q) W(low)/X(q) W(high)/X(q)  e(spline)
   1      8    11.527     2.974    0.16E-03    0.13E-03    0.98E-07
   1      8    11.527     4.279    0.42E-03    0.30E-03    0.22E-06
   0      8    11.527    16.381    0.13E-03    0.20E-03    0.72E-07
   0      8    11.527     5.611    0.88E-04    0.13E-03    0.50E-07
   2      7    11.527     4.652    0.25E-03    0.73E-04    0.51E-07
 Optimization of the real space projectors (new method)

 maximal supplied QI-value         = 24.76
 optimisation between [QCUT,QGAM] = [ 11.64, 23.27] = [ 37.91,151.63] Ry
 Optimized for a Real-space Cutoff    1.04 Angstroem

   l    n(q)    QCUT    max X(q) W(low)/X(q) W(high)/X(q)  e(spline)
   0      7    11.635    20.381    0.14E-03    0.49E-03    0.18E-06
   0      7    11.635    15.268    0.16E-03    0.52E-03    0.19E-06
   1      7    11.635     5.964    0.30E-03    0.44E-03    0.22E-06
   1      7    11.635     5.382    0.27E-03    0.34E-03    0.19E-06
  PAW_PBE H 15Jun2001                   :
  PAW_PBE O 08Apr2002                   :
  PAW_PBE Mg_pv 13Apr2007               :
  PAW_PBE O 08Apr2002                   :

 POSCAR:  H  O Mg  O
  positions in direct lattice
 exchange correlation table for  LEXCH =        8
   RHO(1)=    0.500       N(1)  =     2000
   RHO(2)=  100.500       N(2)  =     4000

 ion  position               nearest neighbor table
   1  0.617  0.554  0.761-   3 0.97
   2  0.510  0.673  0.712-   3 1.01
   3  0.508  0.572  0.744-   1 0.97   2 1.01  34 2.25
   4  0.000  0.750  0.239-  36 2.11  46 2.11  55 2.11  38 2.11  39 2.11
   5  0.250  0.000  0.239-  37 2.11  47 2.11  54 2.11  38 2.11  39 2.11
   6  0.000  0.000  0.364-  38 2.11  44 2.11  53 2.11  37 2.11  36 2.11  42 2.11
   7  0.250  0.750  0.364-  39 2.11  45 2.11  52 2.11  37 2.11  36 2.11  43 2.12
   8  0.000  0.750  0.488-  50 2.11  42 2.11  43 2.11  36 2.12  59 2.12  40 2.15
   9  0.250  0.000  0.488-  51 2.11  43 2.11  58 2.11  42 2.11  37 2.12  41 2.15
  10  0.000  0.000  0.612-  48 2.10  41 2.10  57 2.11  42 2.11  40 2.11
  11  0.248  0.750  0.612-  40 2.09  43 2.10  49 2.11  41 2.11  56 2.13
  12  0.000  0.250  0.239-  44 2.11  46 2.11  38 2.11  63 2.11  47 2.11
  13  0.250  0.500  0.239-  45 2.11  47 2.11  39 2.11  62 2.11  46 2.11
  14  0.000  0.500  0.364-  46 2.11  44 2.11  36 2.11  61 2.11  45 2.11  50 2.11
  15  0.250  0.250  0.364-  47 2.11  45 2.11  37 2.11  60 2.11  44 2.11  51 2.12
  16  0.000  0.250  0.488-  51 2.11  50 2.11  67 2.11  42 2.11  44 2.12  48 2.15
  17  0.251  0.500  0.489-  66 2.11  51 2.11  43 2.11  49 2.12  50 2.12  45 2.13
  18  0.001  0.500  0.612-  49 2.09  65 2.10  50 2.11  48 2.11  40 2.12
  19  0.249  0.250  0.612-  48 2.10  41 2.11  51 2.11  49 2.11  64 2.12
  20  0.500  0.750  0.239-  52 2.11  55 2.11  39 2.11  62 2.11  54 2.11
  21  0.750  0.000  0.239-  53 2.11  54 2.11  38 2.11  63 2.11  55 2.11
  22  0.500  0.000  0.364-  54 2.11  53 2.11  37 2.11  60 2.11  52 2.11  58 2.12
  23  0.750  0.750  0.364-  55 2.11  52 2.11  36 2.11  61 2.11  53 2.11  59 2.12
  24  0.500  0.749  0.489-  66 2.10  43 2.10  59 2.11  58 2.11  52 2.13  56 2.20
  25  0.750  0.000  0.488-  67 2.11  58 2.11  42 2.11  59 2.11  53 2.12  57 2.15
  26  0.500  0.002  0.612-  64 2.07  56 2.09  58 2.11  41 2.11  57 2.12
  27  0.753  0.751  0.611-  59 2.08  40 2.09  57 2.10  65 2.11  56 2.13
  28  0.500  0.250  0.239-  60 2.11  62 2.11  63 2.11  54 2.11  47 2.11
  29  0.750  0.500  0.239-  61 2.11  62 2.11  63 2.11  55 2.11  46 2.11
  30  0.500  0.500  0.364-  62 2.11  61 2.11  60 2.11  52 2.11  45 2.11  66 2.14
  31  0.750  0.250  0.364-  63 2.11  61 2.11  60 2.11  53 2.11  44 2.11  67 2.12
  32  0.500  0.251  0.489-  51 2.11  66 2.11  67 2.11  58 2.12  60 2.13  64 2.14
  33  0.749  0.500  0.489-  66 2.10  67 2.11  59 2.11  50 2.12  61 2.13  65 2.15
  34  0.498  0.494  0.618-  64 2.08  49 2.11  65 2.14  66 2.19  56 2.20   3 2.25
  35  0.751  0.250  0.612-  48 2.10  67 2.10  57 2.11  64 2.12  65 2.12
  36  0.000  0.750  0.364-   4 2.11  14 2.11  23 2.11   6 2.11   7 2.11   8 2.12
  37  0.250  0.000  0.364-   5 2.11  15 2.11  22 2.11   6 2.11   7 2.11   9 2.12
  38  0.000  0.000  0.239-   6 2.11  12 2.11  21 2.11   5 2.11   4 2.11
  39  0.250  0.750  0.239-   7 2.11  13 2.11  20 2.11   5 2.11   4 2.11
  40  1.000  0.750  0.615-  27 2.09  11 2.09  10 2.11  18 2.12   8 2.15
  41  0.249  1.000  0.615-  10 2.10  19 2.11  11 2.11  26 2.11   9 2.15
  42  1.000  1.000  0.488-  10 2.11   8 2.11  25 2.11   9 2.11  16 2.11   6 2.11
  43  0.251  0.750  0.488-  11 2.10  24 2.10   9 2.11   8 2.11  17 2.11   7 2.12
  44  0.000  0.250  0.364-  12 2.11  14 2.11   6 2.11  31 2.11  15 2.11  16 2.12
  45  0.250  0.500  0.364-  13 2.11  15 2.11   7 2.11  30 2.11  14 2.11  17 2.13
  46  0.000  0.500  0.239-  14 2.11  12 2.11   4 2.11  29 2.11  13 2.11
  47  0.250  0.250  0.239-  15 2.11  13 2.11   5 2.11  28 2.11  12 2.11
  48  1.000  0.250  0.615-  35 2.10  10 2.10  19 2.10  18 2.11  16 2.15
  49  0.248  0.500  0.613-  18 2.09  11 2.11  34 2.11  19 2.11  17 2.12
  50  1.000  0.500  0.488-   8 2.11  18 2.11  16 2.11  14 2.11  33 2.12  17 2.12
  51  0.250  0.250  0.488-   9 2.11  32 2.11  16 2.11  17 2.11  19 2.11  15 2.12
  52  0.500  0.750  0.364-  20 2.11  23 2.11   7 2.11  30 2.11  22 2.11  24 2.13
  53  0.750  0.000  0.364-  21 2.11  22 2.11   6 2.11  31 2.11  23 2.11  25 2.12
  54  0.500  0.000  0.239-  22 2.11  21 2.11   5 2.11  28 2.11  20 2.11
  55  0.750  0.750  0.239-  23 2.11  20 2.11   4 2.11  29 2.11  21 2.11
  56  0.500  0.754  0.618-  26 2.09  11 2.13  27 2.13  24 2.20  34 2.20
  57  0.751  1.000  0.615-  27 2.10  10 2.11  35 2.11  26 2.12  25 2.15
  58  0.500  0.999  0.488-  26 2.11  25 2.11   9 2.11  24 2.11  22 2.12  32 2.12
  59  0.749  0.750  0.488-  27 2.08  24 2.11  25 2.11  33 2.11   8 2.12  23 2.12
  60  0.500  0.250  0.364-  28 2.11  30 2.11  31 2.11  22 2.11  15 2.11  32 2.13
  61  0.750  0.500  0.364-  29 2.11  30 2.11  31 2.11  23 2.11  14 2.11  33 2.13
  62  0.500  0.500  0.239-  30 2.11  29 2.11  28 2.11  20 2.11  13 2.11
  63  0.750  0.250  0.239-  31 2.11  29 2.11  28 2.11  21 2.11  12 2.11
  64  0.500  0.248  0.615-  26 2.07  34 2.08  35 2.12  19 2.12  32 2.14
  65  0.752  0.500  0.615-  18 2.10  27 2.11  35 2.12  34 2.14  33 2.15
  66  0.500  0.501  0.489-  24 2.10  33 2.10  17 2.11  32 2.11  30 2.14  34 2.19
  67  0.750  0.250  0.488-  35 2.10  25 2.11  33 2.11  32 2.11  16 2.11  31 2.12

IMPORTANT INFORMATION: All symmetrisations will be switched off!
NOSYMM: (Re-)initialisation of all symmetry stuff for point group C_1.

                                     Primitive cell

  volume of cell :    1211.2538

  direct lattice vectors                    reciprocal lattice vectors
     8.440984654  0.000000000  0.000000000     0.118469591  0.000000000  0.000000000
     0.000000000  8.440984654  0.000000000     0.000000000  0.118469591  0.000000000
     0.000000000  0.000000000 17.000000000     0.000000000  0.000000000  0.058823529

  length of vectors
     8.440984654  8.440984654 17.000000000     0.118469591  0.118469591  0.058823529

  position of ions in fractional coordinates (direct lattice)
     0.616832100  0.554429713  0.760553841
     0.510014054  0.672845498  0.712302790
     0.507589782  0.572189385  0.744476833
     0.000084749  0.750056171  0.239446159
     0.250084749  0.000056171  0.239446159
     0.000084749  0.000056171  0.363578286
     0.250084749  0.750056171  0.363578286
     0.000292034  0.749824964  0.488119943
     0.250127698  0.000181851  0.488431874
     0.000158555  0.000466213  0.612094268
     0.247767905  0.749974041  0.611893376
     0.000084749  0.250056171  0.239446159
     0.250084749  0.500056171  0.239446159
     0.000084749  0.500056171  0.363578286
     0.250084749  0.250056171  0.363578286
     0.000116012  0.250196651  0.488268359
     0.250770752  0.499798843  0.488884857
     0.000510418  0.499570052  0.611813977
     0.249067721  0.249912005  0.612281031
     0.500084749  0.750056171  0.239446159
     0.750084749  0.000056171  0.239446159
     0.500084749  0.000056171  0.363578286
     0.750084749  0.750056171  0.363578286
     0.499810778  0.749036438  0.488828048
     0.749862546  0.000340508  0.488298782
     0.499761848  0.002048857  0.612169767
     0.752549470  0.750728058  0.610753521
     0.500084749  0.250056171  0.239446159
     0.750084749  0.500056171  0.239446159
     0.500084749  0.500056171  0.363578286
     0.750084749  0.250056171  0.363578286
     0.499866424  0.250603695  0.488721432
     0.749099841  0.499734903  0.488964189
     0.498205335  0.493574688  0.618100110
     0.750753975  0.249613073  0.611923847
     0.000084749  0.750056171  0.363578286
     0.250084749  0.000056171  0.363578286
     0.000084749  0.000056171  0.239446159
     0.250084749  0.750056171  0.239446159
     0.999857188  0.750394105  0.614566772
     0.249346556  0.999943829  0.614781797
     0.999915251  0.999830927  0.487959860
     0.250643896  0.750289407  0.488342652
     0.000084749  0.250056171  0.363578286
     0.250084749  0.500056171  0.363578286
     0.000084749  0.500056171  0.239446159
     0.250084749  0.250056171  0.239446159
     0.999828427  0.249634011  0.614770607
     0.248265660  0.500148340  0.613489608
[...]
   O         196.877          4.873         19.183          3.55249603
   O         190.058          4.844         18.848          3.49043757
   O         191.832          4.852         18.936          3.50668681
   O         239.875          5.036         21.175          3.92128897
   O         242.185          5.044         21.277          3.94012717
   O         236.304          5.024         21.017          3.89199534
   O         235.639          5.021         20.987          3.88651211
   O         197.011          4.874         19.190          3.55370408
   O         196.896          4.873         19.184          3.55266560
   O         192.317          4.854         18.960          3.51111941
   O         194.442          4.863         19.064          3.53046025
   O         241.180          5.041         21.232          3.93194314
   O         241.433          5.042         21.244          3.93400159

  vdW correction parametrized for the method ³3>    þ

  IVDW =  21
  VDW_RADIUS =    50.000 A
  VDW_IDAMPF =  0
  VDW_S6 =     1.000
  VDW_SR =     0.960
  VDW_D =    20.000
  LVDW_ONECELL = F F F
  LVDW_SAMETYPE T T T T
  LVDW_EWALD = F

  Number of pair interactions contributing to vdW energy:  978030
  Edisp (eV):   -3.99357

 VOLUME and BASIS-vectors are now :
  energy-cutoff  :      520.00
  volume of cell :     1211.25
      direct lattice vectors                 reciprocal lattice vectors
     8.440984654  0.000000000  0.000000000     0.118469591  0.000000000  0.000000000
     0.000000000  8.440984654  0.000000000     0.000000000  0.118469591  0.000000000
     0.000000000  0.000000000 17.000000000     0.000000000  0.000000000  0.058823529

  length of vectors
     8.440984654  8.440984654 17.000000000     0.118469591  0.118469591  0.058823529

 FORCES acting on ions
    electron-ion (+dipol)            ewald-force                    non-local-force                 convergence-correction
   -.823E+02 0.155E+02 -.215E+03   0.897E+02 -.169E+02 0.218E+03   -.753E+01 0.141E+01 -.235E+01   0.356E-03 -.350E-04 0.229E-01
   0.641E+00 -.675E+02 -.198E+03   -.800E+00 0.731E+02 0.195E+03   0.927E-01 -.583E+01 0.370E+01   -.145E-03 -.247E-03 0.228E-01
   0.481E+02 0.269E+02 -.126E+04   -.858E+02 -.473E+02 0.127E+04   0.329E+02 0.179E+02 -.996E+01   -.348E-02 0.939E-04 0.138E+00
   -.547E-01 -.252E+00 0.172E+04   0.616E-01 0.247E+00 -.171E+04   -.493E-02 0.282E-02 -.674E+01   -.654E-04 0.765E-04 -.159E+00
   0.229E+00 -.160E+00 0.172E+04   -.224E+00 0.162E+00 -.171E+04   -.343E-02 -.145E-02 -.677E+01   -.592E-04 -.236E-04 -.159E+00
   -.155E+00 -.284E+00 0.587E+03   0.172E+00 0.320E+00 -.587E+03   -.107E-01 -.229E-01 0.401E+00   -.669E-04 -.118E-03 -.816E-01
   0.289E-01 -.546E-01 0.587E+03   0.537E-01 0.430E-01 -.587E+03   -.529E-01 0.587E-02 0.540E+00   0.197E-03 -.405E-04 -.814E-01
   -.393E+00 -.285E+01 -.534E+03   0.480E+00 0.279E+01 0.534E+03   -.732E-01 0.457E-01 -.110E+00   -.161E-03 -.127E-03 0.231E-01
   0.258E+01 -.107E+01 -.539E+03   -.253E+01 0.115E+01 0.539E+03   -.375E-01 -.638E-01 -.221E+00   0.528E-03 -.481E-03 0.235E-01
   -.918E+00 -.431E+01 -.168E+04   0.994E+00 0.448E+01 0.167E+04   -.652E-01 -.143E+00 0.571E+01   -.553E-04 -.689E-04 0.116E+00
   0.250E+02 -.211E+02 -.164E+04   -.260E+02 0.212E+02 0.164E+04   0.861E+00 -.230E-01 0.584E+01   0.263E-02 -.277E-03 0.115E+00
   -.442E-01 0.251E+00 0.172E+04   0.499E-01 -.246E+00 -.171E+04   -.412E-02 -.342E-02 -.677E+01   -.635E-04 -.801E-04 -.159E+00
   0.251E+00 0.162E+00 0.172E+04   -.242E+00 -.164E+00 -.171E+04   -.670E-02 0.868E-03 -.677E+01   -.920E-04 0.263E-04 -.159E+00
   -.101E+00 0.274E+00 0.588E+03   0.702E-01 -.315E+00 -.588E+03   0.195E-01 0.254E-01 0.318E+00   -.137E-03 0.978E-04 -.817E-01
   -.955E-01 0.217E-01 0.587E+03   0.912E-01 -.149E-01 -.587E+03   0.330E-02 -.289E-02 0.412E+00   0.177E-03 0.323E-04 -.817E-01
   -.636E-01 0.286E+01 -.540E+03   0.110E+00 -.280E+01 0.540E+03   -.393E-01 -.524E-01 -.113E+00   -.190E-03 0.137E-03 0.232E-01
   0.359E+01 0.111E+01 -.529E+03   -.335E+01 -.117E+01 0.530E+03   -.208E+00 0.535E-01 -.893E+00   0.677E-03 0.453E-03 0.238E-01
   -.118E+01 0.512E+01 -.167E+04   0.138E+01 -.527E+01 0.166E+04   -.166E+00 0.134E+00 0.573E+01   -.539E-03 0.634E-04 0.114E+00
   0.165E+02 0.180E+02 -.167E+04   -.168E+02 -.181E+02 0.166E+04   0.283E+00 0.483E-01 0.580E+01   0.404E-03 0.148E-03 0.115E+00
   0.557E-01 -.277E+00 0.172E+04   -.628E-01 0.266E+00 -.171E+04   0.387E-02 0.637E-02 -.677E+01   0.670E-04 0.111E-03 -.159E+00
   -.230E+00 -.171E+00 0.172E+04   0.225E+00 0.174E+00 -.171E+04   0.259E-02 -.224E-02 -.676E+01   0.600E-04 -.284E-04 -.159E+00
   0.147E+00 -.337E+00 0.586E+03   -.172E+00 0.290E+00 -.587E+03   0.151E-01 0.295E-01 0.453E+00   0.613E-04 -.141E-03 -.813E-01
   -.610E-01 -.714E-02 0.587E+03   -.232E-01 -.481E-01 -.587E+03   0.539E-01 0.340E-01 0.550E+00   -.162E-03 -.402E-04 -.813E-01
   0.407E+00 -.298E+01 -.538E+03   -.485E+00 0.274E+01 0.537E+03   0.663E-01 0.211E+00 0.818E+00   0.152E-03 -.931E-04 0.256E-01
   -.258E+01 -.142E+01 -.537E+03   0.254E+01 0.153E+01 0.537E+03   0.355E-01 -.970E-01 -.167E+00   -.535E-03 -.448E-03 0.235E-01
   0.117E+01 -.111E+02 -.166E+04   -.124E+01 0.116E+02 0.165E+04   0.617E-01 -.402E+00 0.562E+01   0.406E-04 -.229E-02 0.115E+00
   -.259E+02 -.220E+02 -.163E+04   0.270E+02 0.223E+02 0.162E+04   -.944E+00 -.231E+00 0.591E+01   -.269E-02 -.789E-03 0.114E+00
   0.441E-01 0.272E+00 0.172E+04   -.503E-01 -.262E+00 -.171E+04   0.327E-02 -.652E-02 -.676E+01   0.673E-04 -.109E-03 -.159E+00
   -.253E+00 0.173E+00 0.172E+04   0.243E+00 -.176E+00 -.171E+04   0.605E-02 0.149E-02 -.679E+01   0.885E-04 0.257E-04 -.159E+00
   0.836E-01 0.365E+00 0.585E+03   -.669E-01 -.337E+00 -.585E+03   -.116E-01 -.199E-01 0.651E+00   0.652E-04 0.114E-03 -.811E-01
   0.735E-01 -.299E-01 0.587E+03   -.765E-01 0.851E-01 -.587E+03   0.963E-03 -.337E-01 0.459E+00   -.157E-03 0.539E-04 -.815E-01
   0.669E-01 0.366E+01 -.531E+03   -.108E+00 -.347E+01 0.532E+03   0.359E-01 -.170E+00 -.444E+00   0.157E-03 0.210E-03 0.238E-01
   -.343E+01 0.149E+01 -.533E+03   0.318E+01 -.158E+01 0.534E+03   0.216E+00 0.824E-01 -.332E+00   -.553E-03 0.473E-03 0.246E-01
   0.473E+01 0.301E+02 -.156E+04   -.518E+01 -.320E+02 0.155E+04   0.379E+00 0.167E+01 0.254E+01   0.945E-03 0.408E-02 0.127E+00
   -.168E+02 0.182E+02 -.166E+04   0.171E+02 -.184E+02 0.165E+04   -.262E+00 0.185E+00 0.580E+01   -.370E-03 0.611E-03 0.115E+00
   -.280E-01 -.259E+00 0.440E+03   0.266E-01 0.244E+00 -.440E+03   -.322E-02 0.175E-01 0.187E-01   -.649E-04 -.257E-04 -.641E-01
   0.216E-01 -.385E-01 0.440E+03   -.170E-01 0.582E-01 -.439E+03   -.862E-02 -.261E-01 -.923E-01   0.119E-03 -.104E-03 -.641E-01
   -.397E-01 -.116E+00 0.129E+04   0.459E-01 0.122E+00 -.130E+04   -.575E-02 -.672E-02 0.304E+01   -.557E-04 -.226E-04 -.122E+00
   0.193E+00 -.195E+00 0.129E+04   -.183E+00 0.190E+00 -.130E+04   -.109E-01 0.646E-02 0.305E+01   -.519E-04 0.607E-04 -.121E+00
   -.223E+01 -.717E+01 -.127E+04   0.230E+01 0.706E+01 0.127E+04   -.600E-01 0.997E-01 -.456E+01   -.580E-04 0.165E-04 0.860E-01
   0.842E+01 -.584E+01 -.127E+04   -.821E+01 0.578E+01 0.128E+04   -.198E+00 0.515E-01 -.454E+01   0.583E-03 -.548E-03 0.865E-01
   -.374E+00 -.124E+01 -.401E+03   0.385E+00 0.127E+01 0.401E+03   -.110E-01 -.250E-01 0.173E+00   -.890E-04 -.178E-03 0.122E-01
   0.202E+01 -.246E+01 -.395E+03   -.210E+01 0.240E+01 0.395E+03   0.650E-01 0.474E-01 0.395E+00   0.626E-03 -.105E-03 0.128E-01
   0.611E-02 0.251E+00 0.440E+03   0.448E-02 -.230E+00 -.440E+03   -.168E-01 -.262E-01 -.725E-01   -.600E-04 0.329E-04 -.642E-01
   -.137E+00 0.397E-01 0.439E+03   0.847E-01 -.534E-01 -.439E+03   0.567E-01 0.164E-01 -.140E+00   0.138E-03 0.107E-03 -.641E-01
   -.382E-01 0.117E+00 0.129E+04   0.405E-01 -.123E+00 -.130E+04   -.109E-02 0.849E-02 0.304E+01   -.501E-04 0.232E-04 -.121E+00
   0.169E+00 0.194E+00 0.129E+04   -.167E+00 -.189E+00 -.130E+04   -.106E-02 -.465E-02 0.304E+01   -.346E-04 -.625E-04 -.121E+00
   -.930E+00 0.660E+01 -.127E+04   0.934E+00 -.650E+01 0.128E+04   -.470E-02 -.878E-01 -.453E+01   -.118E-03 -.115E-04 0.865E-01
   0.294E+02 0.817E+01 -.124E+04   -.291E+02 -.810E+01 0.124E+04   -.343E+00 -.693E-01 -.465E+01   0.197E-02 0.707E-03 0.860E-01
   0.283E-01 0.126E+01 -.395E+03   0.870E-02 -.129E+01 0.394E+03   -.306E-01 0.247E-01 0.243E+00   -.186E-03 0.178E-03 0.123E-01
   0.235E+01 0.241E+01 -.397E+03   -.235E+01 -.235E+01 0.397E+03   -.527E-02 -.584E-01 0.187E+00   0.288E-03 0.122E-03 0.122E-01
   0.360E-01 -.114E+00 0.439E+03   -.326E-01 0.166E+00 -.439E+03   -.660E-02 -.594E-01 -.125E+00   0.522E-04 -.423E-04 -.638E-01
   -.419E-01 -.770E-01 0.440E+03   0.469E-01 0.854E-01 -.440E+03   -.977E-02 -.133E-01 -.447E-01   -.122E-03 -.103E-03 -.641E-01
   0.405E-01 -.139E+00 0.129E+04   -.464E-01 0.137E+00 -.130E+04   0.837E-02 0.276E-02 0.305E+01   0.504E-04 -.640E-05 -.121E+00
   -.194E+00 -.194E+00 0.129E+04   0.184E+00 0.185E+00 -.130E+04   0.138E-01 0.114E-01 0.304E+01   0.508E-04 0.679E-04 -.121E+00
   0.378E+01 -.371E+02 -.121E+04   -.391E+01 0.369E+02 0.121E+04   0.116E+00 0.242E+00 -.188E+01   0.248E-03 -.251E-02 0.888E-01
   -.854E+01 -.718E+01 -.127E+04   0.832E+01 0.719E+01 0.127E+04   0.210E+00 -.669E-02 -.455E+01   -.570E-03 -.510E-03 0.863E-01
   0.411E+00 -.628E+00 -.397E+03   -.431E+00 0.669E+00 0.396E+03   0.182E-01 -.335E-01 0.294E+00   0.925E-04 -.589E-03 0.129E-01
   -.202E+01 -.207E+01 -.392E+03   0.210E+01 0.205E+01 0.391E+03   -.675E-01 0.171E-01 0.682E+00   -.609E-03 -.187E-03 0.128E-01
   -.191E-01 0.421E-01 0.439E+03   0.176E-01 -.708E-01 -.439E+03   -.991E-03 0.314E-01 -.838E-01   0.507E-04 0.446E-04 -.641E-01
   0.110E+00 0.926E-01 0.439E+03   -.406E-01 -.101E+00 -.439E+03   -.833E-01 0.102E-01 -.172E+00   -.119E-03 0.101E-03 -.640E-01
   0.396E-01 0.142E+00 0.129E+04   -.414E-01 -.140E+00 -.130E+04   0.344E-02 -.164E-02 0.304E+01   0.465E-04 0.309E-05 -.121E+00
   -.169E+00 0.192E+00 0.129E+04   0.167E+00 -.184E+00 -.130E+04   0.373E-02 -.937E-02 0.304E+01   0.351E-04 -.592E-04 -.121E+00
   0.112E+01 0.263E+02 -.125E+04   -.114E+01 -.263E+02 0.125E+04   0.174E-01 0.466E-01 -.445E+01   0.895E-04 0.111E-02 0.863E-01
   -.310E+02 0.106E+02 -.123E+04   0.304E+02 -.106E+02 0.124E+04   0.545E+00 -.448E-01 -.431E+01   -.224E-02 0.771E-03 0.864E-01
   -.134E+00 0.154E+00 -.403E+03   0.856E-01 -.223E+00 0.403E+03   0.447E-01 0.649E-01 -.698E+00   0.154E-03 0.505E-03 0.139E-01
   -.236E+01 0.202E+01 -.397E+03   0.235E+01 -.200E+01 0.396E+03   0.751E-02 -.211E-01 0.314E+00   -.265E-03 0.193E-03 0.124E-01
   -.310E+02 -.179E+02 0.319E+02   -.426E-12 0.174E-12 0.909E-12   0.259E+02 0.150E+02 -.257E+02   -.295E-02 0.343E-03 -.131E+01

 POSITION                                       TOTAL-FORCE (eV/Angst)
      5.20667      4.67993     12.92942        -0.517370      0.042506     -0.109917
      4.30502      5.67948     12.10915        -0.061784     -0.487507      0.252316
      4.28456      4.82984     12.65611         0.546496      0.431040     -0.332408
      0.00072      6.33121      4.07058         0.002378     -0.001667      0.538115
      2.11096      0.00047      4.07058         0.001802      0.000307      0.543519
      0.00072      0.00047      6.18083         0.005261      0.009838      0.026862
      2.11096      6.33121      6.18083         0.022558     -0.004808      0.031326
      0.00247      6.32926      8.29804         0.004710     -0.000839      0.042716
      2.11132      0.00153      8.30334         0.004164      0.001117      0.050033
      0.00134      0.00394     10.40560         0.003325      0.001354     -0.157802
      2.09141      6.33052     10.40219        -0.023523      0.007320     -0.156757
      0.00072      2.11072      4.07058         0.002101      0.001177      0.546312
      2.11096      4.22097      4.07058         0.002853     -0.000810      0.542830
      0.00072      4.22097      6.18083        -0.007332     -0.011432      0.050610
      2.11096      2.11072      6.18083         0.000461      0.003283      0.037976
      0.00098      2.11191      8.30056         0.002880      0.000272      0.044293
      2.11675      4.21879      8.31104         0.005179     -0.000269      0.051714
      0.00431      4.21686     10.40084         0.009007     -0.001495     -0.161799
      2.10238      2.10950     10.40878        -0.002534     -0.005691     -0.149184
      4.22121      6.33121      4.07058        -0.001349     -0.002806      0.544373
      6.33145      0.00047      4.07058        -0.000814      0.000577      0.542197
      4.22121      0.00047      6.18083        -0.006466     -0.012171      0.051860
      6.33145      6.33121      6.18083        -0.021392     -0.015895      0.027393
      4.21890      6.32261      8.31008        -0.001002      0.004506      0.025048
      6.32958      0.00287      8.30108        -0.000814      0.002622      0.048183
      4.21848      0.01729     10.40689        -0.000284      0.016543     -0.155595
      6.35226      6.33688     10.38281         0.028443      0.017910     -0.175687
      4.22121      2.11072      4.07058        -0.001111      0.002154      0.541475
      6.33145      4.22097      4.07058        -0.001909     -0.001058      0.549329
      4.22121      4.22097      6.18083         0.004160      0.005410      0.064988
      6.33145      2.11072      6.18083        -0.001316      0.016164      0.033697
      4.21936      2.11534      8.30826         0.000049      0.002225      0.049040
      6.32314      4.21825      8.31239        -0.001293     -0.001308      0.041170
      4.20534      4.16626     10.50770        -0.012648     -0.003392     -0.023839
      6.33710      2.10698     10.40271         0.006354     -0.013206     -0.161310
      0.00072      6.33121      6.18083        -0.003211      0.005821      0.074158
      2.11096      0.00047      6.18083        -0.003074     -0.011029      0.060314
      0.00072      0.00047      4.07058        -0.000501     -0.001999     -0.444018
      2.11096      6.33121      4.07058        -0.002178      0.002422     -0.441719
      8.43978      6.33407     10.44764        -0.002685      0.004971     -0.119085
      2.10473      8.44051     10.45129        -0.012205      0.004282     -0.121414
      8.44027      8.43956      8.29532        -0.000398     -0.001183      0.022617
      2.11568      6.33318      8.30183        -0.004542     -0.002899      0.028597
      0.00072      2.11072      6.18083        -0.007200     -0.010044      0.053363
      2.11096      4.22097      6.18083         0.017708      0.006457      0.083654
      0.00072      4.22097      4.07058         0.001161      0.003314     -0.446111
      2.11096      2.11072      4.07058         0.001270     -0.001084     -0.444190
      8.43954      2.10716     10.45110        -0.000417      0.001530     -0.123243
      2.09561      4.22174     10.42932        -0.021600     -0.010971     -0.119744
      8.43817      4.22188      8.29301         0.001804      0.000747      0.033616
      2.11019      2.10749      8.29677         0.002028     -0.001729      0.023411
      4.22121      6.33121      6.18083        -0.002289     -0.018389      0.080934
      6.33145      0.00047      6.18083        -0.004766     -0.007246      0.066244
      4.22121      0.00047      4.07058         0.004243      0.001343     -0.443618
      6.33145      6.33121      4.07058         0.006018      0.004181     -0.444016
      4.22225      6.36826     10.50560         0.009526      0.014086     -0.054322
      6.33563      8.44033     10.45062         0.017165      0.001576     -0.117458
      4.22117      8.43550      8.30013         0.002455      0.001294      0.026894
      6.32579      6.33148      8.30051         0.003636     -0.001196      0.037939
      4.22121      2.11072      6.18083        -0.000526      0.008988      0.089686
      6.33145      4.22097      6.18083        -0.028028      0.004551      0.077652
      4.22121      4.22097      4.07058         0.002488     -0.000262     -0.445820
      6.33145      2.11072      4.07058         0.002476     -0.002766     -0.446288
      4.22133      2.09157     10.44657         0.004349      0.006607     -0.122577
      6.34565      4.22345     10.45811         0.024189     -0.008849     -0.122337
      4.22248      4.22478      8.31865         0.003202      0.003119     -0.025133
      6.33062      2.10977      8.29826         0.000660      0.002388      0.028935
    total drift:                               -0.049993      0.005738      0.276178

  FREE ENERGIE OF THE ION-ELECTRON SYSTEM (eV)
  free  energy   TOTEN  =      -486.29494786 eV

  energy  without entropy=     -486.29494786  energy(sigma->0) =     -486.29494786