 vasp.6.4.2 20Jul23 (build Feb 22 2024 13:53:45) complex
 executed on              LinuxNV date 2024.08.27  19:22:31
 OpenACC runtime initialized ...    4 GPUs detected

 INCAR:
   SYSTEM = Oxide-Surface
   ISMEAR = 0
   SIGMA = 0.05
   EDIFF = 1E-5
   ALGO = Normal
   IBRION = -1
   NSW = 0
   ISYM = 0
   DIPOL = 0.5 0.5 0.5
   IDIPOL = 3
   LDIPOL = .TRUE.
   ISTART = 0
   LHFCALC = .FALSE.
   GGA = PE
   IVDW = 21
   VDW_SR = 0.96
   HFRCUT = -1
   ENCUT = 520
   PREC = Normal
   PRECFOCK = Normal
   LASPH = .TRUE.
   LREAL = Auto
   ISPIN = 1
   NELM = 200
   NELMIN = 8
   NCORE = 1
   KPAR = 1
   LWAVE = .TRUE.
   LCHARG = .FALSE.

 POTCAR:    PAW_PBE H 15Jun2001
 POTCAR:    PAW_PBE O 08Apr2002
 POTCAR:    PAW_PBE Mg_pv 13Apr2007
 POTCAR:    PAW_PBE O 08Apr2002
 POTCAR:    PAW_PBE H 15Jun2001
   VRHFIN =H: ultrasoft test

   TITEL  = PAW_PBE H 15Jun2001
   POMASS =    1.000; ZVAL   =    1.000    mass and valenz
   ENMAX  =  250.000; ENMIN  =  200.000 eV

   TITEL  = PAW_PBE O 08Apr2002
   POMASS =   16.000; ZVAL   =    6.000    mass and valenz
   ENMAX  =  400.000; ENMIN  =  300.000 eV

   TITEL  = PAW_PBE Mg_pv 13Apr2007
   POMASS =   24.305; ZVAL   =    8.000    mass and valenz
   ENMAX  =  403.929; ENMIN  =  302.947 eV

   TITEL  = PAW_PBE O 08Apr2002
   POMASS =   16.000; ZVAL   =    6.000    mass and valenz
   ENMAX  =  400.000; ENMIN  =  300.000 eV

 Optimization of the real space projectors (new method)

 maximal supplied QI-value         = 34.20
 optimisation between [QCUT,QGAM] = [ 11.63, 23.26] = [ 37.87,151.49] Ry
 Optimized for a Real-space Cutoff    1.14 Angstroem

   l    n(q)    QCUT    max X(q) W(low)/X(q) W(high)/X(q)  e(spline)
   0      8    11.629    19.460    0.27E-03    0.65E-03    0.17E-06
   0      8    11.629    12.209    0.25E-03    0.62E-03    0.16E-06
   1      7    11.629     4.655    0.29E-03    0.85E-04    0.19E-06
 Optimization of the real space projectors (new method)

[...]

   l    n(q)    QCUT    max X(q) W(low)/X(q) W(high)/X(q)  e(spline)
   1      8    11.527     2.974    0.16E-03    0.13E-03    0.98E-07
   1      8    11.527     4.279    0.42E-03    0.30E-03    0.22E-06
   0      8    11.527    16.381    0.13E-03    0.20E-03    0.72E-07
   0      8    11.527     5.611    0.88E-04    0.13E-03    0.50E-07
   2      7    11.527     4.652    0.25E-03    0.73E-04    0.51E-07
 Optimization of the real space projectors (new method)

 maximal supplied QI-value         = 24.76
 optimisation between [QCUT,QGAM] = [ 11.64, 23.27] = [ 37.91,151.63] Ry
 Optimized for a Real-space Cutoff    1.04 Angstroem

   l    n(q)    QCUT    max X(q) W(low)/X(q) W(high)/X(q)  e(spline)
   0      7    11.635    20.381    0.14E-03    0.49E-03    0.18E-06
   0      7    11.635    15.268    0.16E-03    0.52E-03    0.19E-06
   1      7    11.635     5.964    0.30E-03    0.44E-03    0.22E-06
   1      7    11.635     5.382    0.27E-03    0.34E-03    0.19E-06
  PAW_PBE H 15Jun2001                   :
  PAW_PBE O 08Apr2002                   :
  PAW_PBE Mg_pv 13Apr2007               :
  PAW_PBE O 08Apr2002                   :

 POSCAR:  H  O Mg  O
  positions in direct lattice
 exchange correlation table for  LEXCH =        8
   RHO(1)=    0.500       N(1)  =     2000
   RHO(2)=  100.500       N(2)  =     4000

 ion  position               nearest neighbor table
   1  0.617  0.554  0.761-   3 0.97
   2  0.510  0.673  0.712-   3 1.01
   3  0.508  0.572  0.744-   1 0.97   2 1.01  34 2.25
   4  0.000  0.750  0.239-  36 2.11  46 2.11  55 2.11  38 2.11  39 2.11
   5  0.250  0.000  0.239-  37 2.11  47 2.11  54 2.11  38 2.11  39 2.11
   6  0.000  0.000  0.364-  38 2.11  44 2.11  53 2.11  37 2.11  36 2.11  42 2.11
   7  0.250  0.750  0.364-  39 2.11  45 2.11  52 2.11  37 2.11  36 2.11  43 2.12
   8  0.000  0.750  0.488-  50 2.11  42 2.11  43 2.11  36 2.12  59 2.12  40 2.15
   9  0.250  0.000  0.488-  51 2.11  43 2.11  58 2.11  42 2.11  37 2.12  41 2.15
  10  0.000  0.000  0.612-  48 2.10  41 2.10  57 2.11  42 2.11  40 2.11
  11  0.248  0.750  0.612-  40 2.09  43 2.10  49 2.11  41 2.11  56 2.13
  12  0.000  0.250  0.239-  44 2.11  46 2.11  38 2.11  63 2.11  47 2.11
  13  0.250  0.500  0.239-  45 2.11  47 2.11  39 2.11  62 2.11  46 2.11
  14  0.000  0.500  0.364-  46 2.11  44 2.11  36 2.11  61 2.11  45 2.11  50 2.11
  15  0.250  0.250  0.364-  47 2.11  45 2.11  37 2.11  60 2.11  44 2.11  51 2.12
  16  0.000  0.250  0.488-  51 2.11  50 2.11  67 2.11  42 2.11  44 2.12  48 2.15
  17  0.251  0.500  0.489-  66 2.11  51 2.11  43 2.11  49 2.12  50 2.12  45 2.13
  18  0.001  0.500  0.612-  49 2.09  65 2.10  50 2.11  48 2.11  40 2.12
  19  0.249  0.250  0.612-  48 2.10  41 2.11  51 2.11  49 2.11  64 2.12
  20  0.500  0.750  0.239-  52 2.11  55 2.11  39 2.11  62 2.11  54 2.11
  21  0.750  0.000  0.239-  53 2.11  54 2.11  38 2.11  63 2.11  55 2.11
  22  0.500  0.000  0.364-  54 2.11  53 2.11  37 2.11  60 2.11  52 2.11  58 2.12
  23  0.750  0.750  0.364-  55 2.11  52 2.11  36 2.11  61 2.11  53 2.11  59 2.12
  24  0.500  0.749  0.489-  66 2.10  43 2.10  59 2.11  58 2.11  52 2.13  56 2.20
  25  0.750  0.000  0.488-  67 2.11  58 2.11  42 2.11  59 2.11  53 2.12  57 2.15
  26  0.500  0.002  0.612-  64 2.07  56 2.09  58 2.11  41 2.11  57 2.12
  27  0.753  0.751  0.611-  59 2.08  40 2.09  57 2.10  65 2.11  56 2.13
  28  0.500  0.250  0.239-  60 2.11  62 2.11  63 2.11  54 2.11  47 2.11
  29  0.750  0.500  0.239-  61 2.11  62 2.11  63 2.11  55 2.11  46 2.11
  30  0.500  0.500  0.364-  62 2.11  61 2.11  60 2.11  52 2.11  45 2.11  66 2.14
  31  0.750  0.250  0.364-  63 2.11  61 2.11  60 2.11  53 2.11  44 2.11  67 2.12
  32  0.500  0.251  0.489-  51 2.11  66 2.11  67 2.11  58 2.12  60 2.13  64 2.14
  33  0.749  0.500  0.489-  66 2.10  67 2.11  59 2.11  50 2.12  61 2.13  65 2.15
  34  0.498  0.494  0.618-  64 2.08  49 2.11  65 2.14  66 2.19  56 2.20   3 2.25
  35  0.751  0.250  0.612-  48 2.10  67 2.10  57 2.11  64 2.12  65 2.12
  36  0.000  0.750  0.364-   4 2.11  14 2.11  23 2.11   6 2.11   7 2.11   8 2.12
  37  0.250  0.000  0.364-   5 2.11  15 2.11  22 2.11   6 2.11   7 2.11   9 2.12
  38  0.000  0.000  0.239-   6 2.11  12 2.11  21 2.11   5 2.11   4 2.11
  39  0.250  0.750  0.239-   7 2.11  13 2.11  20 2.11   5 2.11   4 2.11
  40  1.000  0.750  0.615-  27 2.09  11 2.09  10 2.11  18 2.12   8 2.15
  41  0.249  1.000  0.615-  10 2.10  19 2.11  11 2.11  26 2.11   9 2.15
  42  1.000  1.000  0.488-  10 2.11   8 2.11  25 2.11   9 2.11  16 2.11   6 2.11
  43  0.251  0.750  0.488-  11 2.10  24 2.10   9 2.11   8 2.11  17 2.11   7 2.12
  44  0.000  0.250  0.364-  12 2.11  14 2.11   6 2.11  31 2.11  15 2.11  16 2.12
  45  0.250  0.500  0.364-  13 2.11  15 2.11   7 2.11  30 2.11  14 2.11  17 2.13
  46  0.000  0.500  0.239-  14 2.11  12 2.11   4 2.11  29 2.11  13 2.11
  47  0.250  0.250  0.239-  15 2.11  13 2.11   5 2.11  28 2.11  12 2.11
  48  1.000  0.250  0.615-  35 2.10  10 2.10  19 2.10  18 2.11  16 2.15
  49  0.248  0.500  0.613-  18 2.09  11 2.11  34 2.11  19 2.11  17 2.12
  50  1.000  0.500  0.488-   8 2.11  18 2.11  16 2.11  14 2.11  33 2.12  17 2.12
  51  0.250  0.250  0.488-   9 2.11  32 2.11  16 2.11  17 2.11  19 2.11  15 2.12
  52  0.500  0.750  0.364-  20 2.11  23 2.11   7 2.11  30 2.11  22 2.11  24 2.13
  53  0.750  0.000  0.364-  21 2.11  22 2.11   6 2.11  31 2.11  23 2.11  25 2.12
  54  0.500  0.000  0.239-  22 2.11  21 2.11   5 2.11  28 2.11  20 2.11
  55  0.750  0.750  0.239-  23 2.11  20 2.11   4 2.11  29 2.11  21 2.11
  56  0.500  0.754  0.618-  26 2.09  11 2.13  27 2.13  24 2.20  34 2.20
  57  0.751  1.000  0.615-  27 2.10  10 2.11  35 2.11  26 2.12  25 2.15
  58  0.500  0.999  0.488-  26 2.11  25 2.11   9 2.11  24 2.11  22 2.12  32 2.12
  59  0.749  0.750  0.488-  27 2.08  24 2.11  25 2.11  33 2.11   8 2.12  23 2.12
  60  0.500  0.250  0.364-  28 2.11  30 2.11  31 2.11  22 2.11  15 2.11  32 2.13
  61  0.750  0.500  0.364-  29 2.11  30 2.11  31 2.11  23 2.11  14 2.11  33 2.13
  62  0.500  0.500  0.239-  30 2.11  29 2.11  28 2.11  20 2.11  13 2.11
  63  0.750  0.250  0.239-  31 2.11  29 2.11  28 2.11  21 2.11  12 2.11
  64  0.500  0.248  0.615-  26 2.07  34 2.08  35 2.12  19 2.12  32 2.14
  65  0.752  0.500  0.615-  18 2.10  27 2.11  35 2.12  34 2.14  33 2.15
  66  0.500  0.501  0.489-  24 2.10  33 2.10  17 2.11  32 2.11  30 2.14  34 2.19
  67  0.750  0.250  0.488-  35 2.10  25 2.11  33 2.11  32 2.11  16 2.11  31 2.12

IMPORTANT INFORMATION: All symmetrisations will be switched off!
NOSYMM: (Re-)initialisation of all symmetry stuff for point group C_1.

                                     Primitive cell

  volume of cell :    1211.2538

  direct lattice vectors                    reciprocal lattice vectors
     8.440984654  0.000000000  0.000000000     0.118469591  0.000000000  0.000000000
     0.000000000  8.440984654  0.000000000     0.000000000  0.118469591  0.000000000
     0.000000000  0.000000000 17.000000000     0.000000000  0.000000000  0.058823529

  length of vectors
     8.440984654  8.440984654 17.000000000     0.118469591  0.118469591  0.058823529

  position of ions in fractional coordinates (direct lattice)
     0.616832100  0.554429713  0.760553841
     0.510014054  0.672845498  0.712302790
     0.507589782  0.572189385  0.744476833
     0.000084749  0.750056171  0.239446159
     0.250084749  0.000056171  0.239446159
     0.000084749  0.000056171  0.363578286
     0.250084749  0.750056171  0.363578286
     0.000292034  0.749824964  0.488119943
     0.250127698  0.000181851  0.488431874
     0.000158555  0.000466213  0.612094268
     0.247767905  0.749974041  0.611893376
     0.000084749  0.250056171  0.239446159
     0.250084749  0.500056171  0.239446159
     0.000084749  0.500056171  0.363578286
     0.250084749  0.250056171  0.363578286
     0.000116012  0.250196651  0.488268359
     0.250770752  0.499798843  0.488884857
     0.000510418  0.499570052  0.611813977
     0.249067721  0.249912005  0.612281031
     0.500084749  0.750056171  0.239446159
     0.750084749  0.000056171  0.239446159
     0.500084749  0.000056171  0.363578286
     0.750084749  0.750056171  0.363578286
     0.499810778  0.749036438  0.488828048
     0.749862546  0.000340508  0.488298782
     0.499761848  0.002048857  0.612169767
     0.752549470  0.750728058  0.610753521
     0.500084749  0.250056171  0.239446159
     0.750084749  0.500056171  0.239446159
     0.500084749  0.500056171  0.363578286
     0.750084749  0.250056171  0.363578286
     0.499866424  0.250603695  0.488721432
     0.749099841  0.499734903  0.488964189
     0.498205335  0.493574688  0.618100110
     0.750753975  0.249613073  0.611923847
     0.000084749  0.750056171  0.363578286
     0.250084749  0.000056171  0.363578286
     0.000084749  0.000056171  0.239446159
     0.250084749  0.750056171  0.239446159
     0.999857188  0.750394105  0.614566772
     0.249346556  0.999943829  0.614781797
     0.999915251  0.999830927  0.487959860
     0.250643896  0.750289407  0.488342652
     0.000084749  0.250056171  0.363578286
     0.250084749  0.500056171  0.363578286
     0.000084749  0.500056171  0.239446159
     0.250084749  0.250056171  0.239446159
     0.999828427  0.249634011  0.614770607
     0.248265660  0.500148340  0.613489608
[...]
  VDW_SR =     0.960
  VDW_D =    20.000
  LVDW_ONECELL = F F F
  LVDW_SAMETYPE T T T T
  LVDW_EWALD = F

  Number of pair interactions contributing to vdW energy:  978030
  Edisp (eV):   -3.65784

  FORCE on cell =-STRESS in cart. coord.  units (eV):
  Direction    XX          YY          ZZ          XY          YZ          ZX
  Alpha Z  1128.39523  1128.39523  1128.39523
  Ewald   83949.79579 83962.40352************   -13.83406   -25.87274    31.07587
  Hartree 94789.44925 94805.63887-88098.11659    -2.98266    -0.56805     6.78156
  E(xc)   -2493.14860 -2493.15855 -2498.11917    -0.05998    -0.26272     0.09541
  Local  ************************188379.74365    13.10210    16.10583   -29.85577
  n-local -2840.50453 -2840.25209 -2860.51986    -0.22939     0.25922     0.36421
  augment  1053.91702  1054.30394  1045.64612     0.23777     0.65928    -0.54827
  Kinetic  7447.48898  7452.82298  7499.75019     3.78991     9.72033    -7.87106
  Fock        0.00000     0.00000     0.00000     0.00000     0.00000     0.00000
  vdW        -5.20436    -5.19565    -3.64588    -0.00205     0.01613     0.00255
  Total     -19.92615   -19.77638     3.83565     0.02164     0.05728     0.04450
  in kB     -26.35717   -26.15906     5.07358     0.02863     0.07576     0.05886

 VOLUME and BASIS-vectors are now :
  energy-cutoff  :      520.00
  volume of cell :     1211.25
      direct lattice vectors                 reciprocal lattice vectors
     8.440984654  0.000000000  0.000000000     0.118469591  0.000000000  0.000000000
     0.000000000  8.440984654  0.000000000     0.000000000  0.118469591  0.000000000
     0.000000000  0.000000000 17.000000000     0.000000000  0.000000000  0.058823529

  length of vectors
     8.440984654  8.440984654 17.000000000     0.118469591  0.118469591  0.058823529

 FORCES acting on ions
    electron-ion (+dipol)            ewald-force                    non-local-force                 convergence-correction
   -.819E+02 0.154E+02 -.215E+03   0.897E+02 -.169E+02 0.218E+03   -.778E+01 0.146E+01 -.243E+01   0.197E-05 -.126E-04 -.119E-03
   0.678E+00 -.672E+02 -.198E+03   -.800E+00 0.731E+02 0.195E+03   0.103E+00 -.597E+01 0.377E+01   -.882E-05 -.644E-04 -.429E-04
   0.486E+02 0.272E+02 -.126E+04   -.858E+02 -.473E+02 0.127E+04   0.372E+02 0.201E+02 -.111E+02   -.125E-03 -.123E-03 -.105E-02
   -.552E-01 -.251E+00 0.172E+04   0.616E-01 0.247E+00 -.171E+04   -.485E-02 0.281E-02 -.702E+01   -.242E-04 -.110E-03 -.972E-03
   0.228E+00 -.161E+00 0.172E+04   -.224E+00 0.162E+00 -.171E+04   -.291E-02 -.102E-02 -.705E+01   -.292E-04 0.139E-03 -.103E-02
   -.156E+00 -.285E+00 0.587E+03   0.172E+00 0.320E+00 -.587E+03   -.120E-01 -.258E-01 0.449E+00   0.226E-04 0.389E-04 0.133E-02
   0.263E-01 -.538E-01 0.587E+03   0.537E-01 0.430E-01 -.587E+03   -.591E-01 0.606E-02 0.599E+00   -.631E-05 0.171E-04 0.143E-02
   -.400E+00 -.285E+01 -.534E+03   0.480E+00 0.279E+01 0.534E+03   -.776E-01 0.513E-01 -.132E+00   -.304E-04 0.362E-04 0.705E-03
   0.257E+01 -.108E+01 -.539E+03   -.253E+01 0.115E+01 0.539E+03   -.392E-01 -.708E-01 -.243E+00   -.866E-06 0.182E-04 0.595E-03
   -.927E+00 -.433E+01 -.168E+04   0.994E+00 0.448E+01 0.167E+04   -.668E-01 -.152E+00 0.598E+01   0.704E-04 0.715E-05 -.413E-03
   0.250E+02 -.211E+02 -.164E+04   -.260E+02 0.212E+02 0.164E+04   0.942E+00 -.286E-01 0.614E+01   -.551E-04 -.403E-04 -.142E-03
   -.449E-01 0.250E+00 0.172E+04   0.499E-01 -.246E+00 -.171E+04   -.385E-02 -.289E-02 -.705E+01   0.659E-05 0.104E-03 -.105E-02
   0.251E+00 0.162E+00 0.172E+04   -.242E+00 -.164E+00 -.171E+04   -.759E-02 0.948E-03 -.705E+01   -.307E-04 -.135E-03 -.103E-02
   -.999E-01 0.275E+00 0.588E+03   0.702E-01 -.315E+00 -.588E+03   0.218E-01 0.284E-01 0.356E+00   -.169E-04 -.241E-04 0.117E-02
   -.957E-01 0.212E-01 0.587E+03   0.912E-01 -.149E-01 -.587E+03   0.413E-02 -.286E-02 0.459E+00   0.159E-06 -.258E-04 0.142E-02
   -.670E-01 0.286E+01 -.539E+03   0.110E+00 -.280E+01 0.540E+03   -.415E-01 -.574E-01 -.131E+00   0.244E-04 -.316E-04 0.627E-03
   0.356E+01 0.111E+01 -.529E+03   -.335E+01 -.117E+01 0.530E+03   -.212E+00 0.600E-01 -.966E+00   -.398E-04 -.174E-04 0.599E-03
   -.120E+01 0.513E+01 -.166E+04   0.138E+01 -.527E+01 0.166E+04   -.174E+00 0.142E+00 0.601E+01   0.454E-04 -.340E-05 -.188E-03
   0.165E+02 0.180E+02 -.167E+04   -.168E+02 -.181E+02 0.166E+04   0.300E+00 0.515E-01 0.608E+01   0.112E-03 0.618E-04 -.201E-03
   0.562E-01 -.277E+00 0.172E+04   -.628E-01 0.266E+00 -.171E+04   0.454E-02 0.786E-02 -.705E+01   0.158E-04 -.102E-03 -.962E-03
   -.229E+00 -.172E+00 0.172E+04   0.225E+00 0.174E+00 -.171E+04   0.283E-02 -.201E-02 -.703E+01   0.264E-04 0.114E-03 -.996E-03
   0.148E+00 -.335E+00 0.586E+03   -.172E+00 0.290E+00 -.587E+03   0.166E-01 0.329E-01 0.503E+00   -.349E-04 0.504E-04 0.131E-02
   -.583E-01 -.528E-02 0.587E+03   -.232E-01 -.481E-01 -.587E+03   0.601E-01 0.379E-01 0.611E+00   0.211E-04 0.156E-05 0.144E-02
   0.413E+00 -.296E+01 -.538E+03   -.485E+00 0.274E+01 0.537E+03   0.713E-01 0.223E+00 0.906E+00   0.380E-04 0.658E-04 0.632E-03
   -.258E+01 -.143E+01 -.537E+03   0.254E+01 0.153E+01 0.537E+03   0.371E-01 -.105E+00 -.188E+00   -.104E-04 -.391E-04 0.635E-03
   0.117E+01 -.112E+02 -.166E+04   -.124E+01 0.116E+02 0.165E+04   0.631E-01 -.448E+00 0.589E+01   -.683E-04 0.147E-03 -.238E-03
   -.259E+02 -.221E+02 -.163E+04   0.270E+02 0.223E+02 0.162E+04   -.103E+01 -.249E+00 0.619E+01   0.837E-04 -.310E-04 -.277E-03
   0.447E-01 0.272E+00 0.172E+04   -.503E-01 -.262E+00 -.171E+04   0.376E-02 -.734E-02 -.704E+01   -.589E-05 0.972E-04 -.101E-02
   -.253E+00 0.174E+00 0.172E+04   0.243E+00 -.176E+00 -.171E+04   0.777E-02 0.173E-02 -.707E+01   0.335E-04 -.109E-03 -.100E-02
   0.839E-01 0.365E+00 0.585E+03   -.669E-01 -.337E+00 -.585E+03   -.136E-01 -.227E-01 0.712E+00   -.954E-05 -.372E-04 0.105E-02
   0.742E-01 -.318E-01 0.587E+03   -.765E-01 0.851E-01 -.587E+03   0.384E-03 -.375E-01 0.510E+00   0.197E-04 -.286E-05 0.135E-02
   0.700E-01 0.365E+01 -.531E+03   -.108E+00 -.347E+01 0.532E+03   0.380E-01 -.177E+00 -.490E+00   -.346E-04 -.546E-04 0.658E-03
   -.340E+01 0.149E+01 -.533E+03   0.318E+01 -.158E+01 0.534E+03   0.220E+00 0.908E-01 -.358E+00   0.445E-04 0.493E-04 0.571E-03
   0.479E+01 0.302E+02 -.156E+04   -.518E+01 -.320E+02 0.155E+04   0.381E+00 0.180E+01 0.259E+01   -.669E-04 -.169E-03 0.292E-04
   -.168E+02 0.182E+02 -.166E+04   0.171E+02 -.184E+02 0.165E+04   -.278E+00 0.198E+00 0.607E+01   -.957E-04 0.688E-04 -.303E-03
   -.280E-01 -.258E+00 0.440E+03   0.266E-01 0.244E+00 -.440E+03   -.246E-02 0.200E-01 0.347E-01   0.456E-05 0.170E-04 0.161E-02
   0.211E-01 -.393E-01 0.440E+03   -.170E-01 0.582E-01 -.439E+03   -.772E-02 -.292E-01 -.913E-01   -.998E-05 -.740E-05 0.160E-02
   -.402E-01 -.116E+00 0.129E+04   0.459E-01 0.122E+00 -.130E+04   -.685E-02 -.810E-02 0.348E+01   0.401E-04 -.612E-05 -.116E-02
   0.193E+00 -.195E+00 0.129E+04   -.183E+00 0.190E+00 -.130E+04   -.129E-01 0.667E-02 0.349E+01   -.292E-04 0.374E-04 -.984E-03
   -.224E+01 -.717E+01 -.127E+04   0.230E+01 0.706E+01 0.127E+04   -.557E-01 0.110E+00 -.509E+01   0.207E-04 -.880E-04 -.813E-03
   0.841E+01 -.583E+01 -.127E+04   -.821E+01 0.578E+01 0.128E+04   -.212E+00 0.535E-01 -.506E+01   0.920E-04 -.410E-04 -.779E-03
   -.375E+00 -.124E+01 -.401E+03   0.385E+00 0.127E+01 0.401E+03   -.113E-01 -.280E-01 0.189E+00   -.178E-04 -.218E-06 0.721E-03
   0.201E+01 -.246E+01 -.395E+03   -.210E+01 0.240E+01 0.395E+03   0.838E-01 0.538E-01 0.444E+00   -.380E-04 -.164E-04 0.733E-03
   0.546E-02 0.249E+00 0.440E+03   0.448E-02 -.230E+00 -.440E+03   -.174E-01 -.287E-01 -.702E-01   -.153E-05 -.303E-04 0.166E-02
   -.134E+00 0.404E-01 0.439E+03   0.847E-01 -.534E-01 -.439E+03   0.644E-01 0.191E-01 -.144E+00   0.741E-05 0.183E-04 0.165E-02
   -.388E-01 0.117E+00 0.129E+04   0.405E-01 -.123E+00 -.130E+04   -.136E-02 0.930E-02 0.348E+01   0.485E-04 0.961E-05 -.117E-02
   0.169E+00 0.193E+00 0.129E+04   -.167E+00 -.189E+00 -.130E+04   -.148E-02 -.542E-02 0.348E+01   -.173E-04 -.434E-04 -.117E-02
   -.935E+00 0.659E+01 -.127E+04   0.934E+00 -.650E+01 0.128E+04   0.972E-03 -.977E-01 -.505E+01   0.106E-04 0.786E-04 -.872E-03
   0.294E+02 0.816E+01 -.124E+04   -.291E+02 -.810E+01 0.124E+04   -.374E+00 -.694E-01 -.517E+01   0.507E-04 0.305E-04 -.566E-03
   0.269E-01 0.126E+01 -.395E+03   0.870E-02 -.129E+01 0.394E+03   -.344E-01 0.289E-01 0.256E+00   0.174E-04 0.583E-06 0.781E-03
   0.235E+01 0.241E+01 -.397E+03   -.235E+01 -.235E+01 0.397E+03   -.510E-02 -.633E-01 0.205E+00   -.896E-05 0.183E-04 0.722E-03
   0.359E-01 -.117E+00 0.439E+03   -.326E-01 0.166E+00 -.439E+03   -.594E-02 -.651E-01 -.127E+00   -.159E-04 0.746E-05 0.163E-02
   -.418E-01 -.771E-01 0.440E+03   0.469E-01 0.854E-01 -.440E+03   -.103E-01 -.152E-01 -.374E-01   0.183E-04 0.985E-06 0.164E-02
   0.410E-01 -.139E+00 0.129E+04   -.464E-01 0.137E+00 -.130E+04   0.862E-02 0.293E-02 0.349E+01   -.338E-04 0.112E-04 -.111E-02
   -.194E+00 -.194E+00 0.129E+04   0.184E+00 0.185E+00 -.130E+04   0.151E-01 0.125E-01 0.349E+01   0.259E-04 0.494E-04 -.991E-03
   0.381E+01 -.371E+02 -.121E+04   -.391E+01 0.369E+02 0.121E+04   0.994E-01 0.238E+00 -.206E+01   -.361E-04 0.730E-04 -.740E-03
   -.853E+01 -.718E+01 -.127E+04   0.832E+01 0.719E+01 0.127E+04   0.225E+00 -.577E-02 -.508E+01   -.971E-04 -.352E-04 -.878E-03
   0.412E+00 -.622E+00 -.397E+03   -.431E+00 0.669E+00 0.396E+03   0.200E-01 -.474E-01 0.326E+00   0.161E-04 0.231E-04 0.784E-03
   -.201E+01 -.207E+01 -.392E+03   0.210E+01 0.205E+01 0.391E+03   -.849E-01 0.181E-01 0.760E+00   0.245E-04 0.212E-04 0.728E-03
   -.188E-01 0.442E-01 0.439E+03   0.176E-01 -.708E-01 -.439E+03   0.410E-04 0.348E-01 -.802E-01   -.103E-04 -.144E-04 0.163E-02
   0.106E+00 0.929E-01 0.439E+03   -.406E-01 -.101E+00 -.439E+03   -.916E-01 0.125E-01 -.180E+00   0.272E-04 0.672E-05 0.166E-02
   0.402E-01 0.142E+00 0.129E+04   -.414E-01 -.140E+00 -.130E+04   0.278E-02 -.253E-02 0.348E+01   -.421E-04 -.134E-05 -.113E-02
   -.169E+00 0.192E+00 0.129E+04   0.167E+00 -.184E+00 -.130E+04   0.330E-02 -.110E-01 0.348E+01   0.758E-05 -.589E-04 -.112E-02
   0.113E+01 0.263E+02 -.125E+04   -.114E+01 -.263E+02 0.125E+04   0.120E-01 0.448E-01 -.496E+01   -.134E-04 0.630E-04 -.614E-03
   -.310E+02 0.106E+02 -.123E+04   0.304E+02 -.106E+02 0.124E+04   0.622E+00 -.569E-01 -.483E+01   -.235E-04 0.822E-05 -.642E-03
   -.133E+00 0.152E+00 -.403E+03   0.856E-01 -.223E+00 0.403E+03   0.501E-01 0.762E-01 -.764E+00   -.790E-05 -.164E-04 0.775E-03
   -.236E+01 0.202E+01 -.397E+03   0.235E+01 -.200E+01 0.396E+03   0.779E-02 -.224E-01 0.345E+00   0.164E-04 -.254E-04 0.737E-03
   -.300E+02 -.171E+02 0.272E+02   -.426E-12 0.174E-12 0.909E-12   0.299E+02 0.171E+02 -.269E+02   -.103E-03 -.252E-04 0.885E-02

 POSITION                                       TOTAL-FORCE (eV/Angst)
      5.20667      4.67993     12.92942         0.009736     -0.024347      0.023677
      4.30502      5.67948     12.10915        -0.017670      0.000364     -0.028872
      4.28456      4.82984     12.65611        -0.016210      0.023335     -0.039653
      0.00072      6.33121      4.07058         0.002181     -0.001465      0.313053
      2.11096      0.00047      4.07058         0.001524      0.000185      0.318478
      0.00072      0.00047      6.18083         0.005057      0.009694      0.027497
      2.11096      6.33121      6.18083         0.021588     -0.004811      0.033550
      0.00247      6.32926      8.29804         0.003529     -0.001185      0.043611
      2.11132      0.00153      8.30334         0.003114      0.001182      0.048131
      0.00134      0.00394     10.40560         0.001343     -0.000959      0.009979
      2.09141      6.33052     10.40219        -0.017550      0.007532      0.006158
      0.00072      2.11072      4.07058         0.001865      0.000936      0.321145
      2.11096      4.22097      4.07058         0.002786     -0.000744      0.317557
      0.00072      4.22097      6.18083        -0.007177     -0.011257      0.050977
      2.11096      2.11072      6.18083         0.000301      0.003362      0.039063
      0.00098      2.11191      8.30056         0.002283      0.000484      0.045199
      2.11675      4.21879      8.31104         0.000236     -0.000321      0.041566
      0.00431      4.21686     10.40084         0.005335      0.000707      0.005744
      2.10238      2.10950     10.40878         0.000614     -0.005356      0.015926
      4.22121      6.33121      4.07058        -0.001323     -0.002824      0.319130
      6.33145      0.00047      4.07058        -0.000728      0.000494      0.317028
      4.22121      0.00047      6.18083        -0.006318     -0.011701      0.053205
      6.33145      6.33121      6.18083        -0.020571     -0.015533      0.029722
      4.21890      6.32261      8.31008         0.000132      0.005570      0.033708
      6.32958      0.00287      8.30108         0.000048      0.002159      0.047693
      4.21848      0.01729     10.40689         0.001678      0.016445      0.009903
      6.35226      6.33688     10.38281         0.016843      0.011923     -0.000405
      4.22121      2.11072      4.07058        -0.001075      0.002135      0.316216
      6.33145      4.22097      4.07058        -0.002044     -0.001014      0.323781
      4.22121      4.22097      6.18083         0.004012      0.005246      0.069716
      6.33145      2.11072      6.18083        -0.001224      0.015726      0.035230
      4.21936      2.11534      8.30826         0.000512     -0.000577      0.045548
      6.32314      4.21825      8.31239         0.003685     -0.000832      0.037331
      4.20534      4.16626     10.50770        -0.003529     -0.001457      0.068717
      6.33710      2.10698     10.40271         0.002540     -0.009963      0.007263
      0.00072      6.33121      6.18083        -0.003156      0.005422      0.087497
      2.11096      0.00047      6.18083        -0.002661     -0.010573      0.075389
      0.00072      0.00047      4.07058        -0.000449     -0.001895     -0.527224
      2.11096      6.33121      4.07058        -0.002083      0.002188     -0.524985
      8.43978      6.33407     10.44764         0.000602      0.002800      0.018619
      2.10473      8.44051     10.45129        -0.005185      0.000366      0.017589
      8.44027      8.43956      8.29532        -0.000256     -0.001149      0.011158
      2.11568      6.33318      8.30183        -0.002360     -0.003535      0.015226
      0.00072      2.11072      6.18083        -0.006772     -0.009363      0.067728
      2.11096      4.22097      6.18083         0.016341      0.006242      0.099742
      0.00072      4.22097      4.07058         0.001160      0.003103     -0.528969
      2.11096      2.11072      4.07058         0.001223     -0.000981     -0.527250
      8.43954      2.10716     10.45110         0.000945      0.002900      0.014077
      2.09561      4.22174     10.42932        -0.013306     -0.007790      0.015982
      8.43817      4.22188      8.29301         0.001954      0.000749      0.016887
      2.11019      2.10749      8.29677         0.002166     -0.001026      0.011520
      4.22121      6.33121      6.18083        -0.001992     -0.016777      0.096758
      6.33145      0.00047      6.18083        -0.004652     -0.007129      0.080568
      4.22121      0.00047      4.07058         0.003888      0.001296     -0.526646
      6.33145      6.33121      4.07058         0.005652      0.003913     -0.527006
      4.22225      6.36826     10.50560        -0.002636      0.013127      0.023987
      6.33563      8.44033     10.45062         0.009846      0.000076      0.019799
      4.22117      8.43550      8.30013         0.002061     -0.001858      0.013267
      6.32579      6.33148      8.30051         0.001457     -0.001962      0.017489
      4.22121      2.11072      6.18083        -0.000432      0.008142      0.105052
      6.33145      4.22097      6.18083        -0.025912      0.004535      0.094103
      4.22121      4.22097      4.07058         0.002171     -0.000356     -0.529130
      6.33145      2.11072      4.07058         0.002227     -0.002606     -0.529196
      4.22133      2.09157     10.44657         0.002090      0.002352      0.008466
      6.34565      4.22345     10.45811         0.019168     -0.011221     -0.002574
      4.22248      4.22478      8.31865         0.002960      0.005131     -0.008559
      6.33062      2.10977      8.29826         0.000413      0.002748      0.014064
    total drift:                               -0.046696      0.005303      0.296186

  FREE ENERGIE OF THE ION-ELECTRON SYSTEM (eV)
  free  energy   TOTEN  =      -390.42454485 eV

  energy  without entropy=     -390.42454485  energy(sigma->0) =     -390.42454485

 writing wavefunctions