 vasp.6.3.0 20Jan22 (build Apr  1 2022 16:44:48) gamma-only
 executed on        HPECrayEX_GCC date 2023.02.22  23:58:44

 INCAR:
   SYSTEM = MgO-rocksalt
   ISMEAR = 0
   SIGMA = 0.05
   EDIFF = 1E-6
   ALGO = ALL
   ISTART = 0
   NSW = 0
   ISYM = 0
   ISIF = 2
   EDIFFG = -0.01
   DIPOL = 0.5 0.5 0.5
   IDIPOL = 3
   LDIPOL = .TRUE.
   LHFCALC = .TRUE.
   GGA = B5
   AEXX = 0.2
   AGGAX = 0.72
   AGGAC = 0.81
   ALDAC = 0.19
   IVDW = 1
   VDW_S6 = 1.05
   VDW_C6 = 0.63 0.70
   VDW_R0 = 1.243 1.342
   ENCUT = 520
   PREC = Accurate
   LASPH = .TRUE.
   LREAL = Auto
   ISPIN = 1
   NELM = 200
   NELMIN = 8
   NCORE = 8
   KPAR = 1
   LWAVE = .FALSE.
   LCHARG = .FALSE.

 POTCAR:    PAW_PBE Mg_pv 13Apr2007
 POTCAR:    PAW_PBE O 08Apr2002
 POTCAR:    PAW_PBE Mg_pv 13Apr2007
   VRHFIN =Mg: p6s2

   TITEL  = PAW_PBE Mg_pv 13Apr2007
   POMASS =   24.305; ZVAL   =    8.000    mass and valenz
   ENMAX  =  403.929; ENMIN  =  302.947 eV

   TITEL  = PAW_PBE O 08Apr2002
   POMASS =   16.000; ZVAL   =    6.000    mass and valenz
   ENMAX  =  400.000; ENMIN  =  300.000 eV

 Optimization of the real space projectors (new method)

 maximal supplied QI-value         = 18.90
 optimisation between [QCUT,QGAM] = [ 11.53, 23.24] = [ 37.21,151.29] Ry
 Optimized for a Real-space Cutoff    1.28 Angstroem

   l    n(q)    QCUT    max X(q) W(low)/X(q) W(high)/X(q)  e(spline)
   1      8    11.527     2.974    0.44E-04    0.56E-04    0.12E-06
   1      8    11.527     4.279    0.12E-03    0.12E-03    0.26E-06
   0      9    11.527    16.381    0.46E-04    0.64E-04    0.78E-07
   0      9    11.527     5.611    0.26E-04    0.43E-04    0.55E-07
   2      8    11.527     4.652    0.22E-03    0.72E-04    0.47E-07
 Optimization of the real space projectors (new method)

 maximal supplied QI-value         = 24.76
 optimisation between [QCUT,QGAM] = [ 11.64, 23.27] = [ 37.91,151.63] Ry
 Optimized for a Real-space Cutoff    1.14 Angstroem

   l    n(q)    QCUT    max X(q) W(low)/X(q) W(high)/X(q)  e(spline)
   0      8    11.635    20.381    0.10E-03    0.33E-03    0.24E-06
   0      8    11.635    15.268    0.11E-03    0.35E-03    0.26E-06
   1      7    11.635     5.964    0.24E-03    0.31E-03    0.30E-06
   1      7    11.635     5.382    0.22E-03    0.25E-03    0.26E-06
|               ----> ADVICE to this user running VASP <----                  |
|     You enforced a specific xc type in the INCAR file but a different       |
|     type was found in the POTCAR file.                                      |
|     I HOPE YOU KNOW WHAT YOU ARE DOING!                                     |

  PAW_PBE Mg_pv 13Apr2007               :
  PAW_PBE O 08Apr2002                   :

 POSCAR: Mg  O
  positions in direct lattice
  velocities in cartesian coordinates
 exchange correlation table for  LEXCH =       12
   RHO(1)=    0.500       N(1)  =     2000
   RHO(2)=  100.500       N(2)  =     4000

 ion  position               nearest neighbor table
   1  0.125  0.000  0.352- 131 2.10 132 2.10 148 2.10 171 2.10 129 2.10
   2  0.250  0.125  0.352- 131 2.10 132 2.10 140 2.10 147 2.10 130 2.10
   3  0.125  0.125  0.451- 129 2.10 130 2.10 137 2.10 146 2.10 131 2.10 135 2.10
   4  0.250  0.000  0.451- 129 2.10 130 2.10 145 2.10 170 2.10 132 2.10 136 2.10
   5  0.125  1.000  0.550- 135 2.10 175 2.10 136 2.10 152 2.10 129 2.11 133 2.13
   6  0.250  0.125  0.550- 144 2.10 136 2.10 135 2.10 151 2.10 130 2.11 134 2.13
   7  0.125  0.125  0.647- 135 2.09 133 2.10 150 2.10 134 2.10 141 2.10
   8  0.250  0.000  0.647- 136 2.09 134 2.10 174 2.10 133 2.10 149 2.10
   9  0.125  0.250  0.352- 131 2.10 139 2.10 140 2.10 156 2.10 137 2.10
  10  0.250  0.375  0.352- 139 2.10 140 2.10 155 2.10 164 2.10 138 2.10
  11  0.125  0.375  0.451- 137 2.10 138 2.10 154 2.10 161 2.10 139 2.10 143 2.10
  12  0.250  0.250  0.451- 130 2.10 137 2.10 138 2.10 153 2.10 140 2.10 144 2.10
  13  0.125  0.250  0.550- 144 2.10 160 2.10 135 2.10 143 2.10 137 2.11 141 2.13
  14  0.250  0.375  0.550- 144 2.10 168 2.10 143 2.10 159 2.10 138 2.11 142 2.13
  15  0.125  0.375  0.647- 143 2.09 165 2.10 158 2.10 141 2.10 142 2.10
  16  0.250  0.250  0.647- 144 2.09 134 2.10 141 2.10 157 2.10 142 2.10
  17  0.375  0.000  0.352- 132 2.10 147 2.10 187 2.10 212 2.10 145 2.10
  18  0.000  0.125  0.352- 131 2.10 148 2.10 156 2.10 211 2.10 146 2.10
  19  0.375  0.125  0.451- 130 2.10 145 2.10 153 2.10 210 2.10 147 2.10 151 2.10
  20  0.000  0.000  0.451- 129 2.10 146 2.10 186 2.10 209 2.10 148 2.10 152 2.10
  21  0.375  0.000  0.550- 151 2.10 191 2.10 136 2.10 216 2.10 145 2.11 149 2.13
  22  0.000  0.125  0.550- 135 2.10 215 2.10 160 2.10 152 2.10 146 2.11 150 2.13
  23  0.375  0.125  0.647- 151 2.09 214 2.10 149 2.10 134 2.10 157 2.10
  24  0.000  0.000  0.647- 152 2.09 133 2.10 150 2.10 190 2.10 213 2.10
  25  0.375  0.250  0.352- 140 2.10 147 2.10 155 2.10 220 2.10 153 2.10
  26  0.000  0.375  0.352- 139 2.10 156 2.10 180 2.10 219 2.10 154 2.10
  27  0.375  0.375  0.451- 138 2.10 153 2.10 177 2.10 218 2.10 155 2.10 159 2.10
  28  0.000  0.250  0.451- 137 2.10 146 2.10 154 2.10 217 2.10 156 2.10 160 2.10
  29  0.375  0.250  0.550- 144 2.10 224 2.10 151 2.10 159 2.10 153 2.11 157 2.13
  30  0.000  0.375  0.550- 143 2.10 223 2.10 160 2.10 184 2.10 154 2.11 158 2.13
  31  0.375  0.375  0.647- 159 2.09 181 2.10 222 2.10 142 2.10 157 2.10
  32  0.000  0.250  0.647- 160 2.09 141 2.10 221 2.10 150 2.10 158 2.10
  33  0.125  0.500  0.352- 139 2.10 163 2.10 164 2.10 180 2.10 161 2.10
  34  0.250  0.625  0.352- 163 2.10 164 2.10 172 2.10 179 2.10 162 2.10
  35  0.125  0.625  0.451- 161 2.10 162 2.10 169 2.10 178 2.10 163 2.10 167 2.10
  36  0.250  0.500  0.451- 138 2.10 161 2.10 162 2.10 177 2.10 164 2.10 168 2.10
  37  0.125  0.500  0.550- 143 2.10 167 2.10 168 2.10 184 2.10 161 2.11 165 2.13
  38  0.250  0.625  0.550- 176 2.10 168 2.10 167 2.10 183 2.10 162 2.11 166 2.13
  39  0.125  0.625  0.647- 167 2.09 165 2.10 182 2.10 173 2.10 166 2.10
  40  0.250  0.500  0.647- 168 2.09 142 2.10 166 2.10 165 2.10 181 2.10
  41  0.125  0.750  0.352- 163 2.10 171 2.10 172 2.10 188 2.10 169 2.10
  42  0.250  0.875  0.352- 132 2.10 171 2.10 172 2.10 187 2.10 170 2.10
  43  0.125  0.875  0.451- 129 2.10 169 2.10 170 2.10 186 2.10 171 2.10 175 2.10
  44  0.250  0.750  0.451- 162 2.10 169 2.10 170 2.10 185 2.10 172 2.10 176 2.10
  45  0.125  0.750  0.550- 176 2.10 192 2.10 175 2.10 167 2.10 169 2.11 173 2.13
  46  0.250  0.875  0.550- 176 2.10 136 2.10 175 2.10 191 2.10 170 2.11 174 2.13
  47  0.125  0.875  0.647- 175 2.09 133 2.10 190 2.10 173 2.10 174 2.10
  48  0.250  0.750  0.647- 176 2.09 173 2.10 166 2.10 174 2.10 189 2.10
  49  0.375  0.500  0.352- 155 2.10 164 2.10 179 2.10 244 2.10 177 2.10
  50  0.000  0.625  0.352- 163 2.10 180 2.10 188 2.10 243 2.10 178 2.10
  51  0.375  0.625  0.451- 162 2.10 177 2.10 185 2.10 242 2.10 179 2.10 183 2.10
  52  0.000  0.500  0.451- 154 2.10 161 2.10 178 2.10 241 2.10 180 2.10 184 2.10
  53  0.375  0.500  0.550- 159 2.10 183 2.10 168 2.10 248 2.10 177 2.11 181 2.13
  54  1.000  0.625  0.550- 167 2.10 247 2.10 192 2.10 184 2.10 178 2.11 182 2.13
  55  0.375  0.625  0.647- 183 2.09 246 2.10 181 2.10 166 2.10 189 2.10
  56  0.000  0.500  0.647- 184 2.09 182 2.10 158 2.10 165 2.10 245 2.10
  57  0.375  0.750  0.352- 172 2.10 179 2.10 187 2.10 252 2.10 185 2.10
  58  0.000  0.875  0.352- 148 2.10 171 2.10 188 2.10 251 2.10 186 2.10
  59  0.375  0.875  0.451- 145 2.10 170 2.10 185 2.10 250 2.10 187 2.10 191 2.10
  60  0.000  0.750  0.451- 169 2.10 178 2.10 186 2.10 249 2.10 188 2.10 192 2.10
[...]
 242  0.500  0.625  0.451-  51 2.10  99 2.10 116 2.10 124 2.10 114 2.10 118 2.11
 243  0.875  0.625  0.352-  50 2.10  98 2.10 113 2.10 121 2.10 115 2.10
 244  0.500  0.500  0.352-  49 2.10  90 2.10  97 2.10 114 2.10 116 2.10
 245  0.875  0.500  0.649- 104 2.10  95 2.10 119 2.10  56 2.10 117 2.13
 246  0.500  0.625  0.649- 128 2.10  55 2.10 103 2.10 120 2.10 118 2.13
 247  0.875  0.625  0.549- 119 2.09 117 2.10  54 2.10 115 2.10 102 2.10 125 2.10
 248  0.500  0.500  0.549- 120 2.09 101 2.10  94 2.10  53 2.10 118 2.10 116 2.10
 249  0.875  0.750  0.451-  60 2.10 108 2.10 115 2.10 123 2.10 121 2.10 125 2.11
 250  0.500  0.875  0.451-  59 2.10  84 2.10 107 2.10 124 2.10 122 2.10 126 2.11
 251  0.875  0.875  0.352-  58 2.10  81 2.10 106 2.10 121 2.10 123 2.10
 252  0.500  0.750  0.352-  57 2.10 105 2.10 114 2.10 122 2.10 124 2.10
 253  0.875  0.750  0.649-  64 2.10 127 2.10 119 2.10 112 2.10 125 2.13
 254  0.500  0.875  0.649- 128 2.10 111 2.10  63 2.10  88 2.10 126 2.13
 255  0.875  0.875  0.549- 127 2.09  85 2.10  62 2.10 110 2.10 123 2.10 125 2.10
 256  0.500  0.750  0.549- 128 2.09 118 2.10 126 2.10 109 2.10  61 2.10 124 2.10

IMPORTANT INFORMATION: All symmetrisations will be switched off!
NOSYMM: (Re-)initialisation of all symmetry stuff for point group C_1.

                                     Primitive cell

  volume of cell :    6019.7037

  direct lattice vectors                    reciprocal lattice vectors
    16.809723990  0.000000000  0.000000000     0.059489377  0.000000000  0.000000000
     0.000000000 16.809723990  0.000000000     0.000000000  0.059489377  0.000000000
     0.000000000  0.000000000 21.303646496     0.000000000  0.000000000  0.046940321

  length of vectors
    16.809723990 16.809723990 21.303646496     0.059489377  0.059489377  0.046940321

  position of ions in fractional coordinates (direct lattice)
     0.125000000  0.000000000  0.352052406
     0.250000000  0.125000000  0.352052406
     0.125000000  0.125000000  0.450684135
     0.250000000  0.000000000  0.450684135
     0.125000854  0.999999941  0.549630039
     0.250000068  0.125003637  0.549624292
     0.124999046  0.124999017  0.647272455
     0.249999989  0.000000076  0.647266021
     0.125000000  0.250000000  0.352052406
     0.250000000  0.375000000  0.352052406
     0.125000000  0.375000000  0.450684135
     0.250000000  0.250000000  0.450684135
     0.125003825  0.249999966  0.549624185
     0.250000042  0.374996302  0.549624289
     0.124999019  0.375000951  0.647272596
     0.249999969  0.249999943  0.647269070
     0.375000000  0.000000000  0.352052406
     0.000000000  0.125000000  0.352052406
     0.375000000  0.125000000  0.450684135
     0.000000000  0.000000000  0.450684135
     0.374999159  0.000000077  0.549630087
     0.000000003  0.125000642  0.549629905
     0.375000941  0.124999037  0.647272732
     0.000000056  0.000000079  0.647282649
     0.375000000  0.250000000  0.352052406
     0.000000000  0.375000000  0.352052406
     0.375000000  0.375000000  0.450684135
     0.000000000  0.250000000  0.450684135
     0.374996363  0.249999918  0.549624391
     0.000000021  0.374999232  0.549629981
     0.375000855  0.375000894  0.647273167
     0.000000052  0.249999988  0.647265324
     0.125000000  0.500000000  0.352052406
     0.250000000  0.625000000  0.352052406
     0.125000000  0.625000000  0.450684135
     0.250000000  0.500000000  0.450684135
     0.125000794  0.499999922  0.549630020
     0.250000037  0.625003550  0.549624174
     0.124999057  0.624999084  0.647272593
     0.249999957  0.500000023  0.647265736
     0.125000000  0.750000000  0.352052406
[...]
  14.70863670 10.50594504 11.70256696
   8.40486200  8.40486021 11.70355570
  14.70850849 12.60729299  9.60121550
   8.40486199 14.70850849  9.60121550
  14.70850849 14.70850849  7.50000000
   8.40486199 12.60729299  7.50000000
  14.70861960 12.60729452 13.83480652
   8.40486324 14.70845988 13.83490274
  14.70863492 14.70863747 11.70256839
   8.40486248 12.60729346 11.70266462

--------------------------------------- Iteration      FINAL  ---------------------------------------

--------------------OUTCAR has been truncated-------------------------

[...]

--------------------OUTCAR has been truncated-------------------------

  DFT-D2 method for vdW energy calculation

  Parameters of vdW forcefield:
         C6(Jnm^6/mol)     R0(A)
   Mg       0.630          1.243
   O        0.700          1.342

  vdW correction parametrized for the method           

  IVDW =   1
  VDW_RADIUS =    50.000 A
  VDW_S6 =     1.050
  VDW_SR =     1.000
  VDW_D =    20.000
  LVDW_EWALD = F

  Number of pair interactions contributing to vdW energy: 2891200
  Edisp (eV):  -20.72297

  FORCE on cell =-STRESS in cart. coord.  units (eV):
  Direction    XX          YY          ZZ          XY          YZ          ZX
  Alpha Z  3535.68617  3535.68617  3535.68617
  Ewald  654948.34312654948.34312************    -0.00000     0.00009     0.00001
  Hartree695304.26048695304.26038************     0.00001     0.00006    -0.00002
  E(xc)   -8008.20151 -8008.20151 -8021.27345    -0.00000     0.00000    -0.00000
  Local  ************************************    -0.00004    -0.00018     0.00009
  n-local -4698.20196 -4698.20203 -4786.16469     0.00003     0.00000     0.00001
  augment  3584.95986  3584.95987  3544.51070     0.00001     0.00000    -0.00001
  Kinetic 29358.17981 29358.17987 29508.32930     0.00006     0.00002    -0.00013
  Fock    -7960.46071 -7960.46070 -7947.66680    -0.00001    -0.00000     0.00001
  vdW       -30.28281   -30.28281   -24.64955     0.00000     0.00000     0.00000
  Total    -112.07556  -112.07549     5.00270     0.00006    -0.00001    -0.00005
  in kB     -29.82953   -29.82951     1.33150     0.00002    -0.00000    -0.00001

 VOLUME and BASIS-vectors are now :
  energy-cutoff  :      520.00
  volume of cell :     6019.70
      direct lattice vectors                 reciprocal lattice vectors
    16.809723990  0.000000000  0.000000000     0.059489377  0.000000000  0.000000000
     0.000000000 16.809723990  0.000000000     0.000000000  0.059489377  0.000000000
     0.000000000  0.000000000 21.303646496     0.000000000  0.000000000  0.046940321

  length of vectors
    16.809723990 16.809723990 21.303646496     0.059489377  0.059489377  0.046940321

 FORCES acting on ions:
    Electron-Ion                     Ewald-Force                    Non-Local-Force
   0.579E-02 -.884E-04 0.209E+04   -.592E-02 0.702E-04 -.209E+04   0.487E-03 0.783E-05 -.641E+01
   -.143E-03 0.338E-02 0.209E+04   0.138E-03 -.337E-02 -.209E+04   0.328E-05 -.257E-03 -.641E+01
   0.107E-01 0.112E-01 0.694E+03   -.118E-01 -.122E-01 -.694E+03   0.974E-03 0.976E-03 0.340E+00
   -.101E-03 -.439E-03 0.694E+03   0.118E-03 0.400E-03 -.694E+03   -.125E-04 0.289E-04 0.341E+00
   0.513E-03 -.367E-03 -.698E+03   -.349E-02 0.298E-03 0.698E+03   0.166E-02 0.456E-04 -.233E+00
   0.540E-04 -.116E-01 -.698E+03   -.351E-04 0.756E-02 0.698E+03   -.943E-05 0.172E-02 -.230E+00
   -.460E-01 -.471E-01 -.208E+04   0.433E-01 0.445E-01 0.207E+04   0.158E-02 0.158E-02 0.551E+01
   0.501E-03 0.269E-04 -.208E+04   -.466E-03 -.849E-04 0.207E+04   -.106E-04 0.268E-04 0.551E+01
   0.320E-02 0.215E-04 0.209E+04   -.320E-02 -.163E-04 -.209E+04   -.248E-03 -.209E-05 -.641E+01
   -.176E-03 -.336E-02 0.209E+04   0.191E-03 0.335E-02 -.209E+04   -.925E-05 0.255E-03 -.641E+01
   0.107E-01 -.110E-01 0.694E+03   -.118E-01 0.121E-01 -.694E+03   0.984E-03 -.994E-03 0.340E+00
   -.359E-03 0.127E-03 0.694E+03   0.408E-03 -.892E-04 -.694E+03   -.311E-04 -.226E-04 0.342E+00
   -.114E-01 0.320E-03 -.698E+03   0.733E-02 -.248E-03 0.698E+03   0.167E-02 -.434E-04 -.230E+00
   -.548E-03 0.120E-01 -.698E+03   0.639E-03 -.788E-02 0.698E+03   -.542E-04 -.172E-02 -.230E+00
   -.465E-01 0.472E-01 -.208E+04   0.438E-01 -.445E-01 0.207E+04   0.158E-02 -.159E-02 0.551E+01
   0.104E-02 -.151E-04 -.208E+04   -.100E-02 0.559E-04 0.207E+04   -.169E-04 -.139E-04 0.551E+01
   -.590E-02 -.169E-03 0.209E+04   0.605E-02 0.151E-03 -.209E+04   -.499E-03 0.141E-04 -.641E+01
   -.212E-03 0.597E-02 0.209E+04   0.186E-03 -.609E-02 -.209E+04   0.194E-04 0.480E-03 -.641E+01
   -.111E-01 0.110E-01 0.694E+03   0.122E-01 -.120E-01 -.694E+03   -.100E-02 0.966E-03 0.340E+00
   -.455E-03 -.178E-04 0.694E+03   0.395E-03 -.379E-04 -.694E+03   0.385E-04 0.343E-04 0.354E+00
   -.845E-03 -.382E-04 -.698E+03   0.386E-02 -.893E-04 0.698E+03   -.168E-02 0.731E-04 -.233E+00
   -.335E-03 0.137E-04 -.698E+03   0.266E-03 -.302E-02 0.698E+03   0.314E-04 0.172E-02 -.233E+00
   0.471E-01 -.465E-01 -.208E+04   -.445E-01 0.439E-01 0.207E+04   -.160E-02 0.158E-02 0.551E+01
   -.961E-04 -.723E-03 -.208E+04   0.504E-04 0.659E-03 0.207E+04   0.913E-05 0.303E-04 0.553E+01
   -.344E-02 -.219E-04 0.209E+04   0.345E-02 0.414E-04 -.209E+04   0.246E-03 -.623E-05 -.641E+01
   -.162E-03 -.596E-02 0.209E+04   0.138E-03 0.609E-02 -.209E+04   0.221E-04 -.482E-03 -.641E+01
   -.112E-01 -.108E-01 0.694E+03   0.123E-01 0.119E-01 -.694E+03   -.101E-02 -.987E-03 0.340E+00
   -.647E-03 0.183E-03 0.694E+03   0.576E-03 -.138E-03 -.694E+03   0.527E-04 -.290E-04 0.341E+00
   0.112E-01 -.663E-03 -.698E+03   -.718E-02 0.771E-03 0.698E+03   -.170E-02 -.418E-04 -.230E+00
   0.119E-03 -.503E-03 -.698E+03   -.243E-03 0.355E-02 0.698E+03   0.663E-04 -.172E-02 -.233E+00
   0.467E-01 0.464E-01 -.208E+04   -.441E-01 -.437E-01 0.207E+04   -.158E-02 -.159E-02 0.551E+01
   -.512E-04 0.690E-03 -.208E+04   -.894E-05 -.654E-03 0.207E+04   0.216E-04 -.272E-04 0.551E+01
   0.580E-02 0.909E-04 0.209E+04   -.594E-02 -.616E-04 -.209E+04   0.483E-03 -.179E-04 -.641E+01
   -.648E-04 0.357E-02 0.209E+04   0.590E-04 -.355E-02 -.209E+04   0.299E-05 -.256E-03 -.641E+01
   0.111E-01 0.113E-01 0.694E+03   -.122E-01 -.124E-01 -.694E+03   0.976E-03 0.972E-03 0.340E+00
   -.149E-03 0.317E-03 0.694E+03   0.189E-03 -.321E-03 -.694E+03   -.342E-04 0.140E-05 0.341E+00
   0.524E-03 -.660E-03 -.698E+03   -.356E-02 0.646E-03 0.698E+03   0.171E-02 0.273E-04 -.233E+00
   0.204E-03 -.116E-01 -.698E+03   -.155E-03 0.757E-02 0.698E+03   -.321E-04 0.173E-02 -.230E+00
   -.466E-01 -.469E-01 -.208E+04   0.440E-01 0.442E-01 0.207E+04   0.156E-02 0.158E-02 0.551E+01
   0.382E-03 -.631E-03 -.208E+04   -.324E-03 0.605E-03 0.207E+04   -.193E-04 0.248E-04 0.551E+01
   0.338E-02 -.260E-04 0.209E+04   -.338E-02 0.801E-05 -.209E+04   -.256E-03 0.158E-04 -.641E+01
   -.470E-04 -.359E-02 0.209E+04   0.545E-04 0.357E-02 -.209E+04   -.102E-04 0.261E-03 -.641E+01
   0.110E-01 -.115E-01 0.694E+03   -.121E-01 0.125E-01 -.694E+03   0.978E-03 -.957E-03 0.340E+00
   0.106E-03 -.127E-04 0.694E+03   -.846E-04 0.123E-04 -.694E+03   -.214E-04 -.524E-05 0.341E+00
   -.116E-01 0.587E-03 -.698E+03   0.755E-02 -.580E-03 0.698E+03   0.168E-02 -.222E-04 -.230E+00
   -.510E-04 0.113E-01 -.698E+03   0.147E-03 -.727E-02 0.698E+03   -.574E-04 -.172E-02 -.230E+00
   -.468E-01 0.470E-01 -.208E+04   0.441E-01 -.444E-01 0.207E+04   0.159E-02 -.159E-02 0.551E+01
   -.115E-03 0.137E-03 -.208E+04   0.157E-03 -.153E-03 0.207E+04   0.411E-06 0.184E-04 0.551E+01
   -.598E-02 0.212E-03 0.209E+04   0.612E-02 -.199E-03 -.209E+04   -.488E-03 -.627E-05 -.641E+01
   -.662E-04 0.598E-02 0.209E+04   0.747E-04 -.611E-02 -.209E+04   0.480E-05 0.486E-03 -.641E+01
   -.111E-01 0.116E-01 0.694E+03   0.122E-01 -.127E-01 -.694E+03   -.994E-03 0.986E-03 0.340E+00
   -.341E-03 -.130E-03 0.694E+03   0.297E-03 0.118E-03 -.694E+03   0.189E-04 0.438E-06 0.354E+00
   -.107E-02 0.376E-03 -.698E+03   0.417E-02 -.432E-03 0.698E+03   -.174E-02 0.340E-04 -.233E+00
   -.591E-03 0.643E-03 -.698E+03   0.584E-03 -.371E-02 0.698E+03   0.940E-05 0.174E-02 -.233E+00
   0.473E-01 -.471E-01 -.208E+04   -.446E-01 0.444E-01 0.207E+04   -.162E-02 0.159E-02 0.551E+01
   -.492E-03 -.168E-03 -.208E+04   0.452E-03 0.157E-03 0.207E+04   0.214E-04 0.930E-06 0.553E+01
   -.343E-02 -.164E-04 0.209E+04   0.343E-02 0.699E-05 -.209E+04   0.257E-03 0.515E-06 -.641E+01
   -.915E-04 -.600E-02 0.209E+04   0.669E-04 0.611E-02 -.209E+04   0.244E-04 -.480E-03 -.641E+01
   -.111E-01 -.117E-01 0.694E+03   0.121E-01 0.127E-01 -.694E+03   -.998E-03 -.953E-03 0.340E+00
   -.156E-03 -.294E-04 0.694E+03   0.118E-03 0.442E-04 -.694E+03   0.343E-04 -.773E-05 0.341E+00
[...]
   -.323E-02 0.319E-02 0.157E+04   0.332E-02 -.331E-02 -.158E+04   -.211E-03 0.208E-03 0.312E+01
   0.953E-04 0.143E-03 0.157E+04   -.784E-04 -.141E-03 -.158E+04   -.159E-04 0.872E-05 0.312E+01
   0.177E-01 -.106E-03 -.158E+04   -.161E-01 0.662E-04 0.159E+04   -.807E-03 0.662E-04 -.465E+01
   -.214E-03 -.187E-01 -.158E+04   0.215E-03 0.171E-01 0.159E+04   0.682E-05 0.829E-03 -.465E+01
   0.310E-01 -.319E-01 -.517E+03   -.299E-01 0.308E-01 0.517E+03   -.169E-02 0.174E-02 0.290E+00
   0.287E-03 0.436E-03 -.518E+03   -.296E-03 -.469E-03 0.517E+03   0.332E-05 0.469E-04 0.289E+00
   -.101E-01 -.115E-03 0.520E+03   0.106E-01 0.141E-03 -.520E+03   0.226E-03 -.342E-04 -.714E-01
   0.864E-04 -.271E-01 0.520E+03   -.752E-04 0.257E-01 -.520E+03   -.150E-04 0.288E-02 -.732E-01
   -.321E-02 -.318E-02 0.157E+04   0.333E-02 0.330E-02 -.158E+04   -.207E-03 -.214E-03 0.312E+01
   0.352E-04 0.420E-05 0.157E+04   -.431E-04 -.285E-05 -.158E+04   -.250E-05 0.107E-04 0.312E+01
   0.589E-01 0.357E-03 -.158E+04   -.565E-01 -.310E-03 0.159E+04   -.252E-02 -.694E-04 -.465E+01
   0.580E-03 0.181E-01 -.158E+04   -.587E-03 -.165E-01 0.159E+04   -.520E-05 -.798E-03 -.465E+01
   0.306E-01 0.318E-01 -.517E+03   -.296E-01 -.307E-01 0.517E+03   -.162E-02 -.165E-02 0.290E+00
   0.102E-03 -.248E-03 -.517E+03   -.105E-03 0.281E-03 0.517E+03   -.640E-05 -.402E-04 0.293E+00
   -.230E-04 -.242E-03 0.764E+02   -.519E-11 0.549E-12 0.637E-11   -.453E-04 0.272E-03 -.672E+02

 POSITION                                       TOTAL-FORCE (eV/Angst)
      2.10122      0.00000      7.50000         0.000337     -0.000012      0.407371
      4.20243      2.10122      7.50000         0.000001      0.000365      0.407429
      2.10122      2.10122      9.60122        -0.000139     -0.000135      0.015387
      4.20243      0.00000      9.60122         0.000004     -0.000004      0.016627
      2.10123     16.80972     11.70912        -0.000846     -0.000017      0.004595
      4.20243      2.10128     11.70900         0.000010     -0.001742      0.004446
      2.10120      2.10120     13.78926        -0.000572     -0.000550      0.045199
      4.20243      0.00000     13.78913         0.000022     -0.000025      0.047451
      2.10122      4.20243      7.50000         0.000360      0.000004      0.407450
      4.20243      6.30365      7.50000         0.000004     -0.000361      0.407436
      2.10122      6.30365      9.60122        -0.000137      0.000142      0.015408
      4.20243      4.20243      9.60122         0.000014      0.000013      0.015204
      2.10128      4.20243     11.70900        -0.001783      0.000020      0.004443
      4.20243      6.30358     11.70900         0.000028      0.001774      0.004446
      2.10120      6.30366     13.78927        -0.000564      0.000589      0.045175
      4.20243      4.20243     13.78919         0.000023      0.000020      0.046656
      6.30365      0.00000      7.50000        -0.000332     -0.000003      0.407312
      0.00000      2.10122      7.50000        -0.000001      0.000339      0.407377
      6.30365      2.10122      9.60122         0.000148     -0.000124      0.015419
      0.00000      0.00000      9.60122        -0.000019     -0.000015      0.018556
      6.30363      0.00000     11.70913         0.000870     -0.000040      0.004596
      0.00000      2.10123     11.70912        -0.000030     -0.000816      0.004581
      6.30366      2.10120     13.78927         0.000574     -0.000570      0.045184
      0.00000      0.00000     13.78948        -0.000035     -0.000031      0.046930
      6.30365      4.20243      7.50000        -0.000342      0.000014      0.407475
      0.00000      6.30365      7.50000         0.000003     -0.000331      0.407325
      6.30365      6.30365      9.60122         0.000154      0.000148      0.015440
      0.00000      4.20243      9.60122        -0.000008      0.000013      0.016624
      6.30359      4.20243     11.70900         0.001771      0.000055      0.004447
      0.00000      6.30363     11.70912        -0.000044      0.000863      0.004592
      6.30366      6.30366     13.78928         0.000620      0.000606      0.045169
      0.00000      4.20243     13.78911        -0.000034      0.000004      0.047413
      2.10122      8.40486      7.50000         0.000324      0.000008      0.407367
      4.20243     10.50608      7.50000        -0.000001      0.000370      0.407387
      2.10122     10.50608      9.60122        -0.000138     -0.000134      0.015402
      4.20243      8.40486      9.60122        -0.000001     -0.000004      0.016634
      2.10123      8.40486     11.70912        -0.000861      0.000014      0.004588
      4.20243     10.50614     11.70900         0.000013     -0.001734      0.004450
      2.10120     10.50606     13.78927        -0.000566     -0.000588      0.045181
      4.20243      8.40486     13.78912         0.000035      0.000003      0.047517
      2.10122     12.60729      7.50000         0.000355     -0.000000      0.407405
      4.20243     14.70851      7.50000        -0.000004     -0.000370      0.407472
      2.10122     14.70851      9.60122        -0.000147      0.000118      0.015395
      4.20243     12.60729      9.60122        -0.000005     -0.000010      0.015205
      2.10128     12.60729     11.70900        -0.001749     -0.000014      0.004427
      4.20243     14.70845     11.70900         0.000030      0.001734      0.004441
      2.10120     14.70852     13.78927        -0.000555      0.000560      0.045159
      4.20243     12.60729     13.78918         0.000042      0.000004      0.046685
      6.30365      8.40486      7.50000        -0.000323      0.000007      0.407352
      0.00000     10.50608      7.50000         0.000015      0.000337      0.407387
      6.30365     10.50608      9.60122         0.000142     -0.000137      0.015411
      0.00000      8.40486      9.60122        -0.000028     -0.000015      0.018567
      6.30363      8.40486     11.70913         0.000887     -0.000022      0.004620
     16.80972     10.50609     11.70912         0.000004     -0.000851      0.004585
      6.30366     10.50606     13.78927         0.000589     -0.000573      0.045149
      0.00000      8.40486     13.78948        -0.000016     -0.000011      0.046903
      6.30365     12.60729      7.50000        -0.000347     -0.000009      0.407424
      0.00000     14.70851      7.50000         0.000005     -0.000352      0.407353
      6.30365     14.70851      9.60122         0.000134      0.000127      0.015426
      0.00000     12.60729      9.60122         0.000004      0.000005      0.016628
[...]
      8.40486     10.50608      9.60122        -0.000000     -0.001731      0.030626
     14.70851     10.50608      7.50000        -0.000133      0.000098     -0.495943
      8.40486      8.40486      7.50000        -0.000001      0.000012     -0.499978
     14.70846      8.40486     13.83490         0.000555      0.000036     -0.004153
      8.40486     10.50613     13.83490         0.000010     -0.000543     -0.004173
     14.70864     10.50595     11.70257        -0.001017      0.001069     -0.004080
      8.40486      8.40486     11.70356        -0.000005      0.000021     -0.006627
     14.70851     12.60729      9.60122         0.000640     -0.000014      0.030783
      8.40486     14.70851      9.60122        -0.000005      0.001734      0.030625
     14.70851     14.70851      7.50000        -0.000095     -0.000108     -0.495952
      8.40486     12.60729      7.50000        -0.000010      0.000014     -0.495863
     14.70862     12.60729     13.83481        -0.000821     -0.000033     -0.005413
      8.40486     14.70846     13.83490        -0.000013      0.000570     -0.004190
     14.70863     14.70864     11.70257        -0.000983     -0.001036     -0.004088
      8.40486     12.60729     11.70266        -0.000010     -0.000013     -0.002688
    total drift:                               -0.000102      0.000070     -0.031994

  FREE ENERGIE OF THE ION-ELECTRON SYSTEM (eV)
  free  energy   TOTEN  =     -1754.95110837 eV

  energy  without entropy=    -1754.95110837  energy(sigma->0) =    -1754.95110837