 vasp.6.3.0 20Jan22 (build Apr  1 2022 16:44:48) complex
 executed on        HPECrayEX_GCC date 2022.10.10  23:25:12

 INCAR:
   SYSTEM = MgO-rocksalt
   ISMEAR = 0
   SIGMA = 0.05
   EDIFF = 1E-6
   ALGO = ALL
   ISTART = 0
   IBRION = -1
   NSW = 0
   ISYM = 0
   DIPOL = 0.5 0.5 0.5
   IDIPOL = 3
   LDIPOL = .TRUE.
   LHFCALC = .TRUE.
   GGA = B5
   AEXX = 0.2
   AGGAX = 0.72
   AGGAC = 0.81
   ALDAC = 0.19
   IVDW = 1
   VDW_S6 = 1.05
   VDW_C6 = 0.63 0.70
   VDW_R0 = 1.243 1.342
   ENCUT = 600
   PREC = Accurate
   LASPH = .TRUE.
   LREAL = .FALSE.
   ISPIN = 1
   NELM = 200
   NELMIN = 8
   NCORE = 8
   KPAR = 1
   LWAVE = .FALSE.
   LCHARG = .FALSE.

 POTCAR:    PAW_PBE Mg_pv 13Apr2007
 POTCAR:    PAW_PBE O 08Apr2002
 POTCAR:    PAW_PBE Mg_pv 13Apr2007
   VRHFIN =Mg: p6s2

   TITEL  = PAW_PBE Mg_pv 13Apr2007
   POMASS =   24.305; ZVAL   =    8.000    mass and valenz
   ENMAX  =  403.929; ENMIN  =  302.947 eV

   TITEL  = PAW_PBE O 08Apr2002
   POMASS =   16.000; ZVAL   =    6.000    mass and valenz
   ENMAX  =  400.000; ENMIN  =  300.000 eV

  PAW_PBE Mg_pv 13Apr2007               :
  PAW_PBE O 08Apr2002                   :

 POSCAR: Mg  O
  positions in direct lattice
 exchange correlation table for  LEXCH =       12
   RHO(1)=    0.500       N(1)  =     2000
   RHO(2)=  100.500       N(2)  =     4000

 ion  position               nearest neighbor table
   1  0.000  0.750  0.352-  33 2.11  35 2.11  36 2.11  43 2.11  52 2.11
   2  0.250  0.000  0.352-  34 2.11  35 2.11  36 2.11  44 2.11  51 2.11
   3  0.000  0.000  0.451-  35 2.11  34 2.11  33 2.11  41 2.11  50 2.11  39 2.11
   4  0.250  0.750  0.451-  36 2.11  34 2.11  33 2.11  42 2.11  49 2.11  40 2.12
   5  0.000  0.750  0.550-  47 2.11  39 2.11  40 2.11  33 2.12  56 2.12  37 2.15
   6  0.250  0.000  0.550-  48 2.11  40 2.11  55 2.11  39 2.11  34 2.12  38 2.15
   7  0.000  0.000  0.649-  45 2.10  38 2.10  54 2.11  39 2.11  37 2.11
   8  0.248  0.750  0.648-  37 2.09  40 2.10  46 2.11  38 2.11  53 2.13
   9  0.000  0.250  0.352-  41 2.11  35 2.11  43 2.11  44 2.11  60 2.11
  10  0.250  0.500  0.352-  42 2.11  36 2.11  43 2.11  44 2.11  59 2.11
  11  0.000  0.500  0.451-  43 2.11  41 2.11  42 2.11  33 2.11  58 2.11  47 2.11
  12  0.250  0.250  0.451-  44 2.11  41 2.11  42 2.11  34 2.11  57 2.11  48 2.12
  13  0.000  0.250  0.550-  48 2.11  47 2.11  64 2.11  39 2.11  41 2.12  45 2.15
  14  0.251  0.500  0.550-  63 2.11  48 2.11  40 2.11  46 2.12  47 2.12  42 2.13
  15  0.000  0.500  0.648-  46 2.09  62 2.10  47 2.11  45 2.11  37 2.12
  16  0.249  0.250  0.649-  45 2.10  38 2.11  48 2.11  46 2.11  61 2.12
  17  0.500  0.750  0.352-  49 2.11  36 2.11  51 2.11  52 2.11  59 2.11
  18  0.750  0.000  0.352-  50 2.11  35 2.11  51 2.11  52 2.11  60 2.11
  19  0.500  0.000  0.451-  51 2.11  49 2.11  50 2.11  34 2.11  57 2.11  55 2.12
  20  0.750  0.750  0.451-  52 2.11  49 2.11  50 2.11  33 2.11  58 2.11  56 2.12
  21  0.500  0.749  0.550-  63 2.10  40 2.10  56 2.11  55 2.11  49 2.13  53 2.20
  22  0.750  0.000  0.550-  64 2.11  55 2.11  39 2.11  56 2.11  50 2.12  54 2.15
  23  0.500  0.002  0.649-  61 2.07  53 2.09  55 2.11  38 2.11  54 2.12
  24  0.752  0.751  0.648-  56 2.08  37 2.09  54 2.10  62 2.11  53 2.13
  25  0.500  0.250  0.352-  57 2.11  51 2.11  44 2.11  59 2.11  60 2.11
  26  0.750  0.500  0.352-  58 2.11  52 2.11  43 2.11  59 2.11  60 2.11
  27  0.500  0.500  0.451-  59 2.11  49 2.11  57 2.11  58 2.11  42 2.11  63 2.14
  28  0.750  0.250  0.451-  60 2.11  50 2.11  57 2.11  58 2.11  41 2.11  64 2.12
  29  0.500  0.251  0.550-  48 2.11  63 2.11  64 2.11  55 2.12  57 2.13  61 2.14
  30  0.749  0.500  0.550-  63 2.10  64 2.11  56 2.11  47 2.12  58 2.13  62 2.15
  31  0.498  0.494  0.653-  61 2.08  46 2.11  62 2.14  63 2.19  53 2.20
  32  0.751  0.250  0.648-  45 2.10  64 2.10  54 2.11  61 2.12  62 2.12
  33  0.000  0.750  0.451-   1 2.11   3 2.11   4 2.11  11 2.11  20 2.11   5 2.12
  34  0.250  0.000  0.451-   2 2.11   3 2.11   4 2.11  12 2.11  19 2.11   6 2.12
  35  0.000  0.000  0.352-   3 2.11   2 2.11   1 2.11   9 2.11  18 2.11
  36  0.250  0.750  0.352-   4 2.11   2 2.11   1 2.11  10 2.11  17 2.11
  37  1.000  0.750  0.651-  24 2.09   8 2.09   7 2.11  15 2.12   5 2.15
  38  0.249  1.000  0.651-   7 2.10  16 2.11   8 2.11  23 2.11   6 2.15
  39  1.000  1.000  0.550-   7 2.11   5 2.11  22 2.11   6 2.11  13 2.11   3 2.11
  40  0.251  0.750  0.550-   8 2.10  21 2.10   6 2.11   5 2.11  14 2.11   4 2.12
  41  0.000  0.250  0.451-   9 2.11   3 2.11  11 2.11  12 2.11  28 2.11  13 2.12
  42  0.250  0.500  0.451-  10 2.11   4 2.11  11 2.11  12 2.11  27 2.11  14 2.13
  43  0.000  0.500  0.352-  11 2.11   9 2.11  10 2.11   1 2.11  26 2.11
  44  0.250  0.250  0.352-  12 2.11   9 2.11  10 2.11   2 2.11  25 2.11
  45  1.000  0.250  0.651-  32 2.10   7 2.10  16 2.10  15 2.11  13 2.15
  46  0.248  0.500  0.650-  15 2.09   8 2.11  31 2.11  16 2.11  14 2.12
  47  1.000  0.500  0.550-   5 2.11  15 2.11  13 2.11  11 2.11  30 2.12  14 2.12
  48  0.250  0.250  0.550-   6 2.11  29 2.11  13 2.11  14 2.11  16 2.11  12 2.12
  49  0.500  0.750  0.451-  17 2.11   4 2.11  19 2.11  20 2.11  27 2.11  21 2.13
  50  0.750  0.000  0.451-  18 2.11   3 2.11  19 2.11  20 2.11  28 2.11  22 2.12
  51  0.500  0.000  0.352-  19 2.11  17 2.11  18 2.11   2 2.11  25 2.11
  52  0.750  0.750  0.352-  20 2.11  17 2.11  18 2.11   1 2.11  26 2.11
  53  0.500  0.754  0.653-  23 2.09   8 2.13  24 2.13  21 2.20  31 2.20
  54  0.750  1.000  0.651-  24 2.10   7 2.11  32 2.11  23 2.12  22 2.15
  55  0.500  0.999  0.550-  23 2.11  22 2.11   6 2.11  21 2.11  19 2.12  29 2.12
  56  0.749  0.750  0.550-  24 2.08  21 2.11  22 2.11  30 2.11   5 2.12  20 2.12
  57  0.500  0.250  0.451-  25 2.11  19 2.11  12 2.11  27 2.11  28 2.11  29 2.13
  58  0.750  0.500  0.451-  26 2.11  20 2.11  11 2.11  27 2.11  28 2.11  30 2.13
  59  0.500  0.500  0.352-  27 2.11  17 2.11  25 2.11  26 2.11  10 2.11
  60  0.750  0.250  0.352-  28 2.11  18 2.11  25 2.11  26 2.11   9 2.11
  61  0.500  0.248  0.651-  23 2.07  31 2.08  32 2.12  16 2.12  29 2.14
  62  0.752  0.500  0.651-  15 2.10  24 2.11  32 2.12  31 2.14  30 2.15
  63  0.500  0.500  0.551-  21 2.10  30 2.10  14 2.11  29 2.11  27 2.14  31 2.19
  64  0.750  0.250  0.550-  32 2.10  22 2.11  30 2.11  29 2.11  13 2.11  28 2.12

IMPORTANT INFORMATION: All symmetrisations will be switched off!
NOSYMM: (Re-)initialisation of all symmetry stuff for point group C_1.

                                     Primitive cell

  volume of cell :    1519.8199

  direct lattice vectors                    reciprocal lattice vectors
     8.440984654  0.000000000  0.000000000     0.118469591  0.000000000  0.000000000
     0.000000000  8.440984654  0.000000000     0.000000000  0.118469591  0.000000000
     0.000000000  0.000000000 21.330738491     0.000000000  0.000000000  0.046880702

  length of vectors
     8.440984654  8.440984654 21.330738491     0.118469591  0.118469591  0.046880702

  position of ions in fractional coordinates (direct lattice)
     0.000000000  0.750000000  0.351605267
     0.250000000  0.000000000  0.351605267
     0.000000000  0.000000000  0.450535089
     0.250000000  0.750000000  0.450535089
     0.000207284  0.749768794  0.549791295
     0.250042949  0.000125680  0.550039895
     0.000073806  0.000410042  0.648595353
     0.247683155  0.749917871  0.648435248
     0.000000000  0.250000000  0.351605267
     0.250000000  0.500000000  0.351605267
     0.000000000  0.500000000  0.450535089
     0.250000000  0.250000000  0.450535089
     0.000031262  0.250140480  0.549909578
     0.250686002  0.499742672  0.550400910
     0.000425668  0.499513881  0.648371969
     0.248982972  0.249855834  0.648744198
     0.500000000  0.750000000  0.351605267
     0.750000000  0.000000000  0.351605267
     0.500000000  0.000000000  0.450535089
     0.750000000  0.750000000  0.450535089
     0.499726028  0.748980267  0.550355635
     0.749777797  0.000284338  0.549933824
     0.499677098  0.001992687  0.648655524
     0.752464721  0.750671887  0.647526815
     0.500000000  0.250000000  0.351605267
     0.750000000  0.500000000  0.351605267
     0.500000000  0.500000000  0.450535089
     0.750000000  0.250000000  0.450535089
     0.499781674  0.250547524  0.550270665
     0.749015091  0.499678732  0.550464135
     0.498120585  0.493518517  0.653381840
     0.750669226  0.249556903  0.648459532
     0.000000000  0.750000000  0.450535089
     0.250000000  0.000000000  0.450535089
     0.000000000  0.000000000  0.351605267
     0.250000000  0.750000000  0.351605267
     0.999772439  0.750337934  0.650565869
     0.249261806  0.999887658  0.650737238
     0.999830501  0.999774756  0.549663713
     0.250559146  0.750233236  0.549968787
     0.000000000  0.250000000  0.450535089
     0.250000000  0.500000000  0.450535089
     0.000000000  0.500000000  0.351605267
     0.250000000  0.250000000  0.351605267
     0.999743677  0.249577840  0.650728320
     0.248180911  0.500092169  0.649707399
     0.999581945  0.500107963  0.549555474
     0.249909182  0.249616938  0.549731899
     0.500000000  0.750000000  0.450535089
     0.750000000  0.000000000  0.450535089
     0.500000000  0.000000000  0.351605267
     0.750000000  0.750000000  0.351605267
     0.500123741  0.754388696  0.653283345
     0.750494219  0.999865950  0.650705881
     0.499995285  0.999294473  0.549889090
     0.749328569  0.750031466  0.549907032
     0.500000000  0.250000000  0.450535089
     0.750000000  0.500000000  0.450535089
     0.500000000  0.500000000  0.351605267
     0.750000000  0.250000000  0.351605267
     0.500015049  0.247731826  0.650515981
     0.751682008  0.500293977  0.651056757
     0.500150597  0.500452340  0.550757543
     0.749901199  0.249887127  0.549801611

  ion indices of the primitive-cell ions
   primitive index   ion index
                 1           1
                 2           2
                 3           3
                 4           4
                 5           5
                 6           6
                 7           7
                 8           8
                 9           9
                10          10
                11          11
                12          12
                13          13
                14          14
                15          15
                16          16
                17          17
                18          18
                19          19
                20          20
                21          21
                22          22
                23          23
                24          24
                25          25
                26          26
                27          27
                28          28
                29          29
                30          30
                31          31
                32          32
                33          33
                34          34
                35          35
                36          36
                37          37
                38          38
                39          39
                40          40
                41          41
                42          42
                43          43
                44          44
[...]
   0.25000000  0.50000000  0.45053509
   0.00000000  0.50000000  0.35160527
   0.25000000  0.25000000  0.35160527
   0.99974368  0.24957784  0.65072832
   0.24818091  0.50009217  0.64970740
   0.99958195  0.50010796  0.54955547
   0.24990918  0.24961694  0.54973190
   0.50000000  0.75000000  0.45053509
   0.75000000  0.00000000  0.45053509
   0.50000000  0.00000000  0.35160527
   0.75000000  0.75000000  0.35160527
   0.50012374  0.75438870  0.65328335
   0.75049422  0.99986595  0.65070588
   0.49999529  0.99929447  0.54988909
   0.74932857  0.75003147  0.54990703
   0.50000000  0.25000000  0.45053509
   0.75000000  0.50000000  0.45053509
   0.50000000  0.50000000  0.35160527
   0.75000000  0.25000000  0.35160527
   0.50001505  0.24773183  0.65051598
   0.75168201  0.50029398  0.65105676
   0.50015060  0.50045234  0.55075754
   0.74990120  0.24988713  0.54980161

 position of ions in cartesian coordinates  (Angst):
   0.00000000  6.33073849  7.50000000
   2.11024616  0.00000000  7.50000000
   0.00000000  0.00000000  9.61024616
   2.11024616  6.33073849  9.61024616
   0.00174968  6.32878688 11.72745433
   2.11060869  0.00106086 11.73275716
   0.00062299  0.00346116 13.83501786
   2.09068971  6.33004524 13.83160269
   0.00000000  2.11024616  7.50000000
   2.11024616  4.22049233  7.50000000
   0.00000000  4.22049233  9.61024616
   2.11024616  2.11024616  9.61024616
   0.00026388  2.11143195 11.72997741
   2.11603670  4.21832022 11.74045787
   0.00359306  4.21638900 13.83025292
   2.10166144  2.10902926 13.83819283
   4.22049233  6.33073849  7.50000000
   6.33073849  0.00000000  7.50000000
   4.22049233  0.00000000  9.61024616
   6.33073849  6.33073849  9.61024616
   4.21817974  6.32213094 11.73949212
   6.32886287  0.00240009 11.73049459
   4.21776672  0.01682024 13.83630135
   6.35154316  6.33640988 13.81222516
   4.22049233  2.11024616  7.50000000
   6.33073849  4.22049233  7.50000000
   4.22049233  4.22049233  9.61024616
   6.33073849  2.11024616  9.61024616
   4.21864944  2.11486781 11.73767965
   6.32242489  4.21778051 11.74180651
   4.20462822  4.16578223 13.93711716
   6.33638741  2.10650599 13.83212070
   0.00000000  6.33073849  9.61024616
   2.11024616  0.00000000  9.61024616
   0.00000000  0.00000000  7.50000000
   2.11024616  6.33073849  7.50000000
   8.43906381  6.33359099 13.87705043
   2.10401508  8.44003638 13.88070586
   8.43955392  8.43908338 11.72473292
   2.11496591  6.33270723 11.73124038
   0.00000000  2.11024616  9.61024616
   2.11024616  4.22049233  9.61024616
   0.00000000  4.22049233  7.50000000
   2.11024616  2.11024616  7.50000000
   8.43882104  2.10668272 13.88051562
   2.09489126  4.22127032 13.85873863
   8.43745586  4.22140364 11.72242410
   2.10947957  2.10701274 11.72618737
   4.22049233  6.33073849  9.61024616
   6.33073849  0.00000000  9.61024616
   4.22049233  0.00000000  7.50000000
   6.33073849  6.33073849  7.50000000
   4.22153682  6.36778340 13.93501619
   6.33491019  8.43985314 13.88003698
   4.22045253  8.43502931 11.72954038
   6.32507095  6.33100409 11.72992309
   4.22049233  2.11024616  9.61024616
   6.33073849  4.22049233  9.61024616
   4.22049233  4.22049233  7.50000000
   6.33073849  2.11024616  7.50000000
   4.22061936  2.09110054 13.87598627
   6.34493629  4.22297378 13.88752142
   4.22176351  4.22431052 11.74806512
   6.32990452  2.10929340 11.72767439

--------------------------------------- Iteration      FINAL  ---------------------------------------

--------------------OUTCAR has been truncated-------------------------

[...]

--------------------OUTCAR has been truncated-------------------------

  DFT-D2 method for vdW energy calculation

  Parameters of vdW forcefield:
         C6(Jnm^6/mol)     R0(A)
   Mg       0.630          1.243
   O        0.700          1.342

  vdW correction parametrized for the method þ      

  IVDW =   1
  VDW_RADIUS =    50.000 A
  VDW_S6 =     1.050
  VDW_SR =     1.000
  VDW_D =    20.000
  LVDW_EWALD = F

  Number of pair interactions contributing to vdW energy:  723286
  Edisp (eV):   -5.06705

 VOLUME and BASIS-vectors are now :
  energy-cutoff  :      600.00
  volume of cell :     1519.82
      direct lattice vectors                 reciprocal lattice vectors
     8.440984654  0.000000000  0.000000000     0.118469591  0.000000000  0.000000000
     0.000000000  8.440984654  0.000000000     0.000000000  0.118469591  0.000000000
     0.000000000  0.000000000 21.330738491     0.000000000  0.000000000  0.046880702

  length of vectors
     8.440984654  8.440984654 21.330738491     0.118469591  0.118469591  0.046880702

 FORCES acting on ions:
    Electron-Ion                     Ewald-Force                    Non-Local-Force
   0.156E-01 0.202E+00 0.207E+04   -.160E-01 -.204E+00 -.206E+04   0.209E-03 0.119E-02 -.637E+01
   -.294E+00 0.114E+00 0.207E+04   0.298E+00 -.116E+00 -.206E+04   -.248E-02 0.139E-02 -.640E+01
   -.306E-01 0.269E+00 0.685E+03   0.378E-01 -.260E+00 -.685E+03   -.480E-02 -.625E-02 0.374E+00
   -.149E+01 0.112E+01 0.682E+03   0.158E+01 -.112E+01 -.683E+03   -.570E-01 -.118E-02 0.480E+00
   0.340E+00 0.848E+00 -.684E+03   -.292E+00 -.820E+00 0.684E+03   -.517E-01 -.466E-02 -.497E-01
   -.187E+01 0.180E+01 -.688E+03   0.196E+01 -.187E+01 0.688E+03   -.671E-01 0.221E-01 -.195E+00
   0.439E+00 0.124E+01 -.205E+04   -.452E+00 -.117E+01 0.204E+04   -.845E-02 -.871E-01 0.532E+01
   -.111E+02 0.317E+01 -.205E+04   0.113E+02 -.265E+01 0.204E+04   0.898E-01 -.356E+00 0.532E+01
   0.206E-01 -.203E+00 0.207E+04   -.215E-01 0.204E+00 -.206E+04   0.604E-03 -.104E-02 -.639E+01
   -.374E+00 -.114E+00 0.207E+04   0.381E+00 0.116E+00 -.206E+04   -.462E-02 -.120E-02 -.639E+01
   0.736E-01 -.288E+00 0.684E+03   -.112E+00 0.274E+00 -.685E+03   0.250E-01 0.896E-02 0.343E+00
   -.133E+01 -.113E+01 0.684E+03   0.134E+01 0.113E+01 -.684E+03   -.432E-02 0.414E-02 0.444E+00
   0.479E+00 -.735E+00 -.686E+03   -.479E+00 0.715E+00 0.686E+03   -.115E-01 -.231E-02 -.104E-01
   -.473E+01 -.216E+01 -.689E+03   0.508E+01 0.224E+01 0.689E+03   -.285E+00 -.325E-01 -.482E+00
   0.222E+01 -.132E+01 -.205E+04   -.249E+01 0.126E+01 0.204E+04   0.136E+00 0.794E-01 0.532E+01
   -.163E+01 -.111E+01 -.205E+04   0.923E+00 0.488E+00 0.204E+04   0.548E+00 0.418E+00 0.559E+01
   -.151E-01 0.281E+00 0.207E+04   0.153E-01 -.286E+00 -.206E+04   -.116E-03 0.362E-02 -.642E+01
   0.293E+00 0.108E+00 0.207E+04   -.297E+00 -.110E+00 -.206E+04   0.279E-02 0.101E-02 -.639E+01
   0.205E-01 0.491E+00 0.683E+03   -.356E-01 -.558E+00 -.683E+03   0.950E-02 0.428E-01 0.396E+00
   0.146E+01 0.122E+01 0.682E+03   -.155E+01 -.126E+01 -.683E+03   0.582E-01 0.263E-01 0.465E+00
   -.490E+00 0.508E+01 -.704E+03   0.450E+00 -.525E+01 0.704E+03   0.449E-01 0.173E+00 0.626E-01
   0.189E+01 0.165E+01 -.686E+03   -.198E+01 -.167E+01 0.687E+03   0.641E-01 -.154E-01 -.194E+00
   -.519E+00 0.625E+01 -.205E+04   0.544E+00 -.727E+01 0.204E+04   0.205E-02 0.590E+00 0.505E+01
   0.123E+02 0.621E+01 -.204E+04   -.125E+02 -.592E+01 0.203E+04   -.128E+00 -.268E+00 0.510E+01
   -.210E-01 -.284E+00 0.207E+04   0.215E-01 0.288E+00 -.206E+04   -.314E-03 -.300E-02 -.638E+01
   0.372E+00 -.108E+00 0.207E+04   -.380E+00 0.110E+00 -.206E+04   0.511E-02 -.983E-03 -.641E+01
   -.971E-01 -.493E+00 0.678E+03   0.122E+00 0.541E+00 -.679E+03   -.166E-01 -.325E-01 0.646E+00
   0.131E+01 -.124E+01 0.684E+03   -.133E+01 0.128E+01 -.684E+03   0.886E-02 -.262E-01 0.464E+00
   -.543E+00 -.353E+01 -.689E+03   0.546E+00 0.370E+01 0.689E+03   0.843E-02 -.157E+00 -.782E-01
   0.506E+01 -.207E+01 -.695E+03   -.541E+01 0.211E+01 0.696E+03   0.288E+00 0.128E-02 -.269E+00
   -.553E+01 -.232E+02 -.209E+04   0.563E+01 0.230E+02 0.208E+04   0.100E+00 0.837E+00 0.607E+01
   0.195E+01 -.353E+01 -.205E+04   -.128E+01 0.317E+01 0.204E+04   -.513E+00 0.284E+00 0.544E+01
   0.906E-01 0.485E+00 0.513E+03   -.101E+00 -.485E+00 -.513E+03   0.115E-01 0.166E-02 -.137E-01
   -.851E+00 0.461E+00 0.513E+03   0.863E+00 -.466E+00 -.512E+03   -.139E-01 0.472E-02 -.109E+00
   0.603E-02 0.683E-01 0.155E+04   -.470E-02 -.671E-01 -.156E+04   -.169E-02 -.148E-02 0.313E+01
   -.258E+00 0.180E+00 0.155E+04   0.268E+00 -.180E+00 -.156E+04   -.125E-01 0.608E-03 0.313E+01
   0.593E-01 0.126E+01 -.156E+04   -.154E+00 -.124E+01 0.156E+04   0.135E+00 -.595E-01 -.468E+01
   -.194E+01 0.196E+01 -.156E+04   0.228E+01 -.233E+01 0.156E+04   -.357E+00 0.449E+00 -.463E+01
   -.247E-01 0.269E+00 -.510E+03   0.111E-01 -.292E+00 0.509E+03   0.201E-01 0.371E-01 0.170E+00
   -.353E+01 0.164E+01 -.512E+03   0.361E+01 -.161E+01 0.512E+03   -.130E+00 -.614E-01 0.300E+00
   0.106E+00 -.487E+00 0.513E+03   -.105E+00 0.493E+00 -.513E+03   -.203E-02 -.790E-02 -.533E-01
   -.133E+01 -.473E+00 0.511E+03   0.129E+01 0.484E+00 -.510E+03   0.512E-01 -.118E-01 -.129E+00
   0.177E-01 -.682E-01 0.155E+04   -.207E-01 0.671E-01 -.156E+04   0.372E-02 0.129E-02 0.313E+01
   -.238E+00 -.180E+00 0.155E+04   0.240E+00 0.181E+00 -.156E+04   -.281E-02 -.778E-03 0.313E+01
   0.487E+00 -.118E+01 -.156E+04   -.614E+00 0.115E+01 0.156E+04   0.156E+00 0.761E-01 -.456E+01
   -.547E+01 -.370E+01 -.155E+04   0.539E+01 0.413E+01 0.155E+04   0.213E+00 -.500E+00 -.368E+01
   0.633E+00 -.331E+00 -.508E+03   -.671E+00 0.351E+00 0.507E+03   0.604E-01 -.330E-01 0.393E+00
   -.149E+01 -.139E+01 -.510E+03   0.146E+01 0.136E+01 0.509E+03   0.321E-01 0.579E-01 0.347E+00
   -.863E-01 0.957E+00 0.510E+03   0.988E-01 -.894E+00 -.510E+03   -.142E-01 -.758E-01 -.186E+00
   0.833E+00 0.441E+00 0.513E+03   -.835E+00 -.457E+00 -.513E+03   0.259E-02 0.175E-01 -.775E-01
   -.541E-02 0.890E-01 0.155E+04   0.434E-02 -.952E-01 -.156E+04   0.134E-02 0.785E-02 0.312E+01
   0.258E+00 0.191E+00 0.155E+04   -.267E+00 -.196E+00 -.156E+04   0.124E-01 0.630E-02 0.312E+01
   -.109E+01 0.151E+02 -.157E+04   0.131E+01 -.155E+02 0.157E+04   -.252E+00 -.257E-01 -.484E+01
   0.205E+01 0.153E+01 -.156E+04   -.241E+01 -.187E+01 0.156E+04   0.377E+00 0.425E+00 -.478E+01
   0.380E-01 0.238E+01 -.511E+03   -.340E-01 -.258E+01 0.511E+03   -.952E-02 0.268E+00 0.218E+00
   0.363E+01 0.234E+01 -.510E+03   -.370E+01 -.232E+01 0.510E+03   0.128E+00 -.296E-01 0.510E+00
   -.122E+00 -.101E+01 0.511E+03   0.129E+00 0.967E+00 -.511E+03   -.869E-02 0.496E-01 -.852E-01
   0.131E+01 -.440E+00 0.510E+03   -.125E+01 0.456E+00 -.510E+03   -.710E-01 -.179E-01 -.180E+00
   -.168E-01 -.873E-01 0.155E+04   0.203E-01 0.941E-01 -.156E+04   -.436E-02 -.865E-02 0.312E+01
   0.238E+00 -.192E+00 0.155E+04   -.240E+00 0.197E+00 -.156E+04   0.252E-02 -.626E-02 0.313E+01
   -.771E+00 -.117E+01 -.155E+04   0.916E+00 0.500E+00 0.156E+04   -.179E+00 0.802E+00 -.377E+01
   0.825E+01 -.382E+01 -.156E+04   -.844E+01 0.431E+01 0.156E+04   0.135E-01 -.562E+00 -.430E+01
   -.853E+00 -.352E+01 -.532E+03   0.882E+00 0.369E+01 0.532E+03   -.504E-01 -.235E+00 -.651E+00
   0.153E+01 -.205E+01 -.510E+03   -.151E+01 0.204E+01 0.510E+03   -.310E-01 0.259E-01 0.386E+00
   -.349E+00 -.228E+01 0.170E+02   0.213E-13 0.189E-12 0.409E-11   0.318E+00 0.209E+01 -.149E+02

 POSITION                                       TOTAL-FORCE (eV/Angst)
      0.00000      6.33074      7.50000        -0.000086     -0.000523      0.462199
      2.11025      0.00000      7.50000         0.001143     -0.000630      0.468067
      0.00000      0.00000      9.61025         0.001847      0.002478      0.035178
      2.11025      6.33074      9.61025         0.023463     -0.001013      0.048259
      0.00175      6.32879     11.72745        -0.007881      0.021032      0.016825
      2.11061      0.00106     11.73276         0.016340     -0.036644      0.038528
      0.00062      0.00346     13.83502        -0.021082     -0.024328     -0.088019
      2.09069      6.33005     13.83160         0.275647      0.125642     -0.026207
      0.00000      2.11025      7.50000        -0.000190      0.000451      0.465272
      2.11025      4.22049      7.50000         0.001682      0.000546      0.466454
      0.00000      4.22049      9.61025        -0.010441     -0.003914      0.043794
      2.11025      2.11025      9.61025         0.002565     -0.000195      0.028025
      0.00026      2.11143     11.72998        -0.010574     -0.021261      0.004999
      2.11604      4.21832     11.74046         0.033008      0.037619     -0.057889
      0.00359      4.21639     13.83025        -0.112591      0.026284     -0.069067
      2.10166      2.10903     13.83819        -0.104981     -0.152742     -0.192947
      4.22049      6.33074      7.50000         0.000178     -0.001168      0.473112
      6.33074      0.00000      7.50000        -0.001107     -0.000532      0.465850
      4.22049      0.00000      9.61025        -0.004372     -0.018530      0.068040
      6.33074      6.33074      9.61025        -0.023665     -0.011728      0.053030
      4.21818      6.32213     11.73949         0.008347      0.017841      0.200596
      6.32886      0.00240     11.73049        -0.014308     -0.033970      0.051868
      4.21777      0.01682     13.83630         0.025121     -0.346528      0.001277
      6.35154      6.33641     13.81223        -0.310317      0.000311      0.174313
      4.22049      2.11025      7.50000         0.000243      0.000952      0.464189
      6.33074      4.22049      7.50000        -0.001734      0.000490      0.470962
      4.22049      4.22049      9.61025         0.005854      0.011907      0.068475
      6.33074      2.11025      9.61025        -0.004728      0.012192      0.032138
      4.21865      2.11487     11.73768         0.011141     -0.006503     -0.061723
      6.32242      4.21778     11.74181        -0.030338      0.035311      0.018067
      4.20463      4.16578     13.93712         0.190209      0.625621     -0.704604
      6.33639      2.10651     13.83212         0.095928     -0.049689     -0.094423
      0.00000      6.33074      9.61025         0.002774      0.001377      0.055197
      2.11025      0.00000      9.61025        -0.003912      0.000097      0.046867
      0.00000      0.00000      7.50000        -0.000533     -0.000501     -0.432691
      2.11025      6.33074      7.50000        -0.004174      0.000174     -0.434336
      8.43906      6.33359     13.87705         0.060892     -0.048734     -0.124332
      2.10402      8.44004     13.88071        -0.060372      0.133164     -0.115739
      8.43955      8.43908     11.72473         0.009343      0.019890      0.017936
      2.11497      6.33271     11.73124        -0.070511     -0.035608     -0.012368
      0.00000      2.11025      9.61025        -0.001202     -0.003292      0.052059
      2.11025      4.22049      9.61025         0.016592     -0.002331      0.079069
      0.00000      4.22049      7.50000         0.001305      0.000384     -0.433590
      2.11025      2.11025      7.50000        -0.000894     -0.000275     -0.433233
      8.43882      2.10668     13.88052         0.051488      0.055471     -0.101608
      2.09489      4.22127     13.85874         0.169042     -0.140027      0.213660
      8.43746      4.22140     11.72242         0.030321     -0.017381      0.076094
      2.10948      2.10701     11.72619         0.011727      0.037359      0.069476
      4.22049      6.33074      9.61025        -0.003653     -0.022901      0.053641
      6.33074      0.00000      9.61025         0.000718      0.003904      0.047352
      4.22049      0.00000      7.50000         0.000508      0.002668     -0.434813
      6.33074      6.33074      7.50000         0.004270      0.002118     -0.434599
      4.22154      6.36778     13.93502        -0.068397     -0.438229     -0.303575
      6.33491      8.43985     13.88004         0.065850      0.141778     -0.155017
      4.22045      8.43503     11.72954        -0.006736      0.103412     -0.005559
      6.32507      6.33100     11.72992         0.070117     -0.014133     -0.030133
      4.22049      2.11025      9.61025        -0.001892      0.015772      0.081353
      6.33074      4.22049      9.61025        -0.022403     -0.004219      0.066679
      4.22049      4.22049      7.50000        -0.001462     -0.002988     -0.436501
      6.33074      2.11025      7.50000         0.000895     -0.002140     -0.433592
      4.22062      2.09110     13.87599        -0.059410      0.242342      0.122877
      6.34494      4.22297     13.88752        -0.184944     -0.154038     -0.028378
      4.22176      4.22431     11.74807        -0.028911     -0.097879     -0.000775
      6.32990      2.10929     11.72767        -0.010757      0.015992      0.043939
    total drift:                               -0.003195      0.001118      0.012513

  FREE ENERGIE OF THE ION-ELECTRON SYSTEM (eV)
  free  energy   TOTEN  =      -438.34643658 eV

  energy  without entropy=     -438.34643658  energy(sigma->0) =     -438.34643658