 vasp.6.3.0 20Jan22 (build Apr  1 2022 16:44:48) complex
 executed on        HPECrayEX_GCC date 2022.10.26  06:22:59

 INCAR:
   SYSTEM = MgO-rocksalt
   ISMEAR = 0
   SIGMA = 0.05
   EDIFF = 1E-7
   ALGO = ALL
   ISTART = 0
   IBRION = 2
   NSW = 1000
   ISYM = 0
   ISIF = 2
   EDIFFG = -0.01
   DIPOL = 0.5 0.5 0.5
   IDIPOL = 3
   LDIPOL = .TRUE.
   LHFCALC = .TRUE.
   GGA = PE
   IVDW = 13
   VDW_S8 = 1.2007
   VDW_A1 = 0.4009
   VDW_A2 = 5.0293
   ENCUT = 600
   PREC = Accurate
   LASPH = .TRUE.
   LREAL = .FALSE.
   ISPIN = 1
   NELM = 200
   NELMIN = 8
   NCORE = 8
   KPAR = 1
   LWAVE = .FALSE.
   LCHARG = .FALSE.

 POTCAR:    PAW_PBE C 08Apr2002
 POTCAR:    PAW_PBE O 08Apr2002
 POTCAR:    PAW_PBE Mg_pv 13Apr2007
 POTCAR:    PAW_PBE O 08Apr2002
 POTCAR:    PAW_PBE C 08Apr2002
   VRHFIN =C: s2p2

   TITEL  = PAW_PBE C 08Apr2002
   POMASS =   12.011; ZVAL   =    4.000    mass and valenz
   ENMAX  =  400.000; ENMIN  =  300.000 eV

[...]

   TITEL  = PAW_PBE Mg_pv 13Apr2007
   POMASS =   24.305; ZVAL   =    8.000    mass and valenz
   ENMAX  =  403.929; ENMIN  =  302.947 eV

   TITEL  = PAW_PBE O 08Apr2002
   POMASS =   16.000; ZVAL   =    6.000    mass and valenz
   ENMAX  =  400.000; ENMIN  =  300.000 eV

  PAW_PBE C 08Apr2002                   :
  PAW_PBE O 08Apr2002                   :
  PAW_PBE Mg_pv 13Apr2007               :
  PAW_PBE O 08Apr2002                   :

 POSCAR:  C  O Mg  O
  positions in direct lattice
|           W    W    AA    RRRRR   N    N  II  N    N   GGGG   !!!           |
|           W    W   A  A   R    R  NN   N  II  NN   N  G    G  !!!           |
|           W    W  A    A  R    R  N N  N  II  N N  N  G       !!!           |
|           W WW W  AAAAAA  RRRRR   N  N N  II  N  N N  G  GGG   !            |
|           WW  WW  A    A  R   R   N   NN  II  N   NN  G    G                |
|           W    W  A    A  R    R  N    N  II  N    N   GGGG   !!!           |
|     Specifying the vdW parameters                                           |
|     VDW_S8 = 1.201                                                          |
|     VDW_A1 = 0.401                                                          |
|     VDW_A2 = 5.029                                                          |
|     in the INCAR file will overwrite the defaults for pbe0. Please make     |
|     sure that is what you intended.                                         |

 ion  position               nearest neighbor table
   1  0.500  0.250  0.716-   2 1.16   3 1.16  41 1.41
   2  0.500  0.377  0.739-   1 1.16  19 2.19
   3  0.500  0.123  0.739-   1 1.16  11 2.19
   4  0.250  0.000  0.353-  38 2.09  39 2.09  46 2.09  55 2.09  36 2.09
   5  0.500  0.250  0.353-  38 2.09  39 2.09  47 2.09  54 2.09  37 2.09
   6  0.250  0.250  0.451-  36 2.09  37 2.09  44 2.09  53 2.09  38 2.09  42 2.10
   7  0.500  0.000  0.451-  36 2.09  37 2.09  45 2.09  52 2.09  39 2.09  43 2.10
   8  0.250  0.000  0.550-  42 2.09  43 2.09  50 2.09  59 2.09  36 2.10  40 2.12
   9  0.500  0.250  0.550-  42 2.09  43 2.09  51 2.09  58 2.09  37 2.10  41 2.12
  10  0.250  0.250  0.648-  42 2.08  41 2.09  40 2.09  48 2.09  57 2.09
  11  0.500  0.000  0.648-  43 2.08  41 2.09  40 2.09  49 2.09  56 2.09   3 2.19
  12  0.250  0.500  0.353-  38 2.09  46 2.09  47 2.09  63 2.09  44 2.09
  13  0.500  0.750  0.353-  39 2.09  46 2.09  47 2.09  62 2.09  45 2.09
  14  0.250  0.750  0.451-  36 2.09  44 2.09  45 2.09  61 2.09  46 2.09  50 2.10
  15  0.500  0.500  0.451-  37 2.09  44 2.09  45 2.09  60 2.09  47 2.09  51 2.10
  16  0.250  0.500  0.550-  42 2.09  50 2.09  51 2.09  67 2.09  44 2.10  48 2.12
  17  0.500  0.750  0.550-  43 2.09  50 2.09  51 2.09  66 2.09  45 2.10  49 2.12
  18  0.250  0.750  0.648-  50 2.08  48 2.09  49 2.09  40 2.09  65 2.09
  19  0.500  0.500  0.648-  51 2.08  48 2.09  49 2.09  41 2.09  64 2.09   2 2.19
  20  0.750  0.000  0.353-  39 2.09  54 2.09  55 2.09  62 2.09  52 2.09
  21  0.000  0.250  0.353-  38 2.09  54 2.09  55 2.09  63 2.09  53 2.09
  22  0.750  0.250  0.451-  37 2.09  52 2.09  53 2.09  60 2.09  54 2.09  58 2.10
  23  0.000  0.000  0.451-  36 2.09  52 2.09  53 2.09  61 2.09  55 2.09  59 2.10
  24  0.750  0.000  0.550-  43 2.09  58 2.09  59 2.09  66 2.09  52 2.10  56 2.12
  25  0.000  0.250  0.550-  42 2.09  58 2.09  59 2.09  67 2.09  53 2.10  57 2.12
  26  0.750  0.250  0.648-  58 2.08  56 2.09  57 2.09  41 2.09  64 2.09
  27  0.000  0.000  0.648-  59 2.08  56 2.09  57 2.09  40 2.09  65 2.09
  28  0.750  0.500  0.353-  47 2.09  54 2.09  62 2.09  63 2.09  60 2.09
  29  0.000  0.750  0.353-  46 2.09  55 2.09  62 2.09  63 2.09  61 2.09
  30  0.750  0.750  0.451-  45 2.09  52 2.09  60 2.09  61 2.09  62 2.09  66 2.10
  31  0.000  0.500  0.451-  44 2.09  53 2.09  60 2.09  61 2.09  63 2.09  67 2.10
  32  0.750  0.500  0.550-  51 2.09  58 2.09  66 2.09  67 2.09  60 2.10  64 2.12
  33  0.000  0.750  0.550-  50 2.09  59 2.09  66 2.09  67 2.09  61 2.10  65 2.12
  34  0.750  0.750  0.648-  66 2.08  56 2.09  64 2.09  65 2.09  49 2.09
  35  0.000  0.500  0.648-  67 2.08  57 2.09  64 2.09  65 2.09  48 2.09
  36  0.250  0.000  0.451-   6 2.09   7 2.09  14 2.09  23 2.09   4 2.09   8 2.10
  37  0.500  0.250  0.451-   6 2.09   7 2.09  15 2.09  22 2.09   5 2.09   9 2.10
  38  0.250  0.250  0.353-   4 2.09   5 2.09  12 2.09  21 2.09   6 2.09
  39  0.500  0.000  0.353-   4 2.09   5 2.09  13 2.09  20 2.09   7 2.09
  40  0.250  0.000  0.650-  10 2.09  11 2.09  18 2.09  27 2.09   8 2.12
  41  0.500  0.250  0.650-   1 1.41  10 2.09  11 2.09  19 2.09  26 2.09   9 2.12
  42  0.250  0.250  0.550-  10 2.08   9 2.09   8 2.09  16 2.09  25 2.09   6 2.10
  43  0.500  0.000  0.550-  11 2.08   9 2.09   8 2.09  17 2.09  24 2.09   7 2.10
  44  0.250  0.500  0.451-   6 2.09  14 2.09  15 2.09  31 2.09  12 2.09  16 2.10
  45  0.500  0.750  0.451-   7 2.09  14 2.09  15 2.09  30 2.09  13 2.09  17 2.10
  46  0.250  0.750  0.353-   4 2.09  12 2.09  13 2.09  29 2.09  14 2.09
  47  0.500  0.500  0.353-   5 2.09  12 2.09  13 2.09  28 2.09  15 2.09
  48  0.250  0.500  0.650-  10 2.09  18 2.09  19 2.09  35 2.09  16 2.12
  49  0.500  0.750  0.650-  11 2.09  18 2.09  19 2.09  34 2.09  17 2.12
  50  0.250  0.750  0.550-  18 2.08  16 2.09  17 2.09   8 2.09  33 2.09  14 2.10
  51  0.500  0.500  0.550-  19 2.08  16 2.09  17 2.09   9 2.09  32 2.09  15 2.10
  52  0.750  0.000  0.451-   7 2.09  22 2.09  23 2.09  30 2.09  20 2.09  24 2.10
  53  0.000  0.250  0.451-   6 2.09  22 2.09  23 2.09  31 2.09  21 2.09  25 2.10
  54  0.750  0.250  0.353-   5 2.09  20 2.09  21 2.09  28 2.09  22 2.09
  55  0.000  0.000  0.353-   4 2.09  20 2.09  21 2.09  29 2.09  23 2.09
  56  0.750  0.000  0.650-  11 2.09  26 2.09  27 2.09  34 2.09  24 2.12
  57  0.000  0.250  0.650-  10 2.09  26 2.09  27 2.09  35 2.09  25 2.12
  58  0.750  0.250  0.550-  26 2.08  24 2.09  25 2.09   9 2.09  32 2.09  22 2.10
  59  0.000  0.000  0.550-  27 2.08  24 2.09  25 2.09   8 2.09  33 2.09  23 2.10
  60  0.750  0.500  0.451-  15 2.09  22 2.09  30 2.09  31 2.09  28 2.09  32 2.10
  61  0.000  0.750  0.451-  14 2.09  23 2.09  30 2.09  31 2.09  29 2.09  33 2.10
  62  0.750  0.750  0.353-  13 2.09  20 2.09  28 2.09  29 2.09  30 2.09
  63  0.000  0.500  0.353-  12 2.09  21 2.09  28 2.09  29 2.09  31 2.09
  64  0.750  0.500  0.650-  19 2.09  26 2.09  34 2.09  35 2.09  32 2.12
  65  0.000  0.750  0.650-  18 2.09  27 2.09  34 2.09  35 2.09  33 2.12
  66  0.750  0.750  0.550-  34 2.08  24 2.09  32 2.09  33 2.09  17 2.09  30 2.10
  67  0.000  0.500  0.550-  35 2.08  25 2.09  32 2.09  33 2.09  16 2.09  31 2.10

IMPORTANT INFORMATION: All symmetrisations will be switched off!
NOSYMM: (Re-)initialisation of all symmetry stuff for point group C_1.

                                     Primitive cell

  volume of cell :    1482.1129

  direct lattice vectors                    reciprocal lattice vectors
     8.349111827  0.000000000  0.000000000     0.119773219  0.000000000  0.000000000
     0.000000000  8.349111827  0.000000000     0.000000000  0.119773219  0.000000000
     0.000000000  0.000000000 21.261833870     0.000000000  0.000000000  0.047032632

  length of vectors
     8.349111827  8.349111827 21.261833870     0.119773219  0.119773219  0.047032632

  position of ions in fractional coordinates (direct lattice)
     0.500000000  0.250000000  0.716060392
     0.500000000  0.376898467  0.738612132
     0.500000000  0.123101533  0.738612132
     0.250000000  0.000000000  0.352744737
     0.500000000  0.250000000  0.352744737
     0.250000000  0.250000000  0.450914912
     0.500000000  0.000000000  0.450914912
     0.250000000  0.000000000  0.549824939
     0.500000000  0.250000000  0.549824939
     0.250000000  0.250000000  0.647529520
     0.500000000  0.000000000  0.647529520
     0.250000000  0.500000000  0.352744737
     0.500000000  0.750000000  0.352744737
     0.250000000  0.750000000  0.450914912
     0.500000000  0.500000000  0.450914912
     0.250000000  0.500000000  0.549824939
     0.500000000  0.750000000  0.549824939
     0.250000000  0.750000000  0.647529520
     0.500000000  0.500000000  0.647529520
     0.750000000  0.000000000  0.352744737
     0.000000000  0.250000000  0.352744737
     0.750000000  0.250000000  0.450914912
     0.000000000  0.000000000  0.450914912
     0.750000000  0.000000000  0.549824939
     0.000000000  0.250000000  0.549824939
     0.750000000  0.250000000  0.647529520
     0.000000000  0.000000000  0.647529520
     0.750000000  0.500000000  0.352744737
     0.000000000  0.750000000  0.352744737
     0.750000000  0.750000000  0.450914912
     0.000000000  0.500000000  0.450914912
     0.750000000  0.500000000  0.549824939
     0.000000000  0.750000000  0.549824939
     0.750000000  0.750000000  0.647529520
     0.000000000  0.500000000  0.647529520
     0.250000000  0.000000000  0.450914912
     0.500000000  0.250000000  0.450914912
     0.250000000  0.250000000  0.352744737
     0.500000000  0.000000000  0.352744737
     0.250000000  0.000000000  0.649744381
     0.500000000  0.250000000  0.649744381
     0.250000000  0.250000000  0.549531649
     0.500000000  0.000000000  0.549531649
     0.250000000  0.500000000  0.450914912
     0.500000000  0.750000000  0.450914912
     0.250000000  0.750000000  0.352744737
     0.500000000  0.500000000  0.352744737
     0.250000000  0.500000000  0.649744381
     0.500000000  0.750000000  0.649744381
     0.250000000  0.750000000  0.549531649
     0.500000000  0.500000000  0.549531649
     0.750000000  0.000000000  0.450914912
     0.000000000  0.250000000  0.450914912
     0.750000000  0.250000000  0.352744737
     0.000000000  0.000000000  0.352744737
     0.750000000  0.000000000  0.649744381
     0.000000000  0.250000000  0.649744381
     0.750000000  0.250000000  0.549531649
     0.000000000  0.000000000  0.549531649
     0.750000000  0.500000000  0.450914912
     0.000000000  0.750000000  0.450914912
     0.750000000  0.750000000  0.352744737
     0.000000000  0.500000000  0.352744737
     0.750000000  0.500000000  0.649744381
     0.000000000  0.750000000  0.649744381
     0.750000000  0.750000000  0.549531649
     0.000000000  0.500000000  0.549531649

  ion indices of the primitive-cell ions
[...]
   4.17455591  6.26183387 11.69028651
   2.08727796  6.26183387 13.76766509
   4.17455591  4.17455591 13.76766509
   6.26183387  0.00000000  7.50000000
   0.00000000  2.08727796  7.50000000
   6.26183387  2.08727796  9.58727796
   0.00000000  0.00000000  9.58727796
   6.26183387  0.00000000 11.69028651
   0.00000000  2.08727796 11.69028651
   6.26183387  2.08727796 13.76766509
   0.00000000  0.00000000 13.76766509
   6.26183387  4.17455591  7.50000000
   0.00000000  6.26183387  7.50000000
   6.26183387  6.26183387  9.58727796
   0.00000000  4.17455591  9.58727796
   6.26183387  4.17455591 11.69028651
   0.00000000  6.26183387 11.69028651
   6.26183387  6.26183387 13.76766509
   0.00000000  4.17455591 13.76766509
   2.08727796  0.00000000  9.58727796
   4.17455591  2.08727796  9.58727796
   2.08727796  2.08727796  7.50000000
   4.17455591  0.00000000  7.50000000
   2.08727796  0.00000000 13.81475709
   4.17455591  2.08727796 13.81475709
   2.08727796  2.08727796 11.68405063
   4.17455591  0.00000000 11.68405063
   2.08727796  4.17455591  9.58727796
   4.17455591  6.26183387  9.58727796
   2.08727796  6.26183387  7.50000000
   4.17455591  4.17455591  7.50000000
   2.08727796  4.17455591 13.81475709
   4.17455591  6.26183387 13.81475709
   2.08727796  6.26183387 11.68405063
   4.17455591  4.17455591 11.68405063
   6.26183387  0.00000000  9.58727796
   0.00000000  2.08727796  9.58727796
   6.26183387  2.08727796  7.50000000
   0.00000000  0.00000000  7.50000000
   6.26183387  0.00000000 13.81475709
   0.00000000  2.08727796 13.81475709
   6.26183387  2.08727796 11.68405063
   0.00000000  0.00000000 11.68405063
   6.26183387  4.17455591  9.58727796
   0.00000000  6.26183387  9.58727796
   6.26183387  6.26183387  7.50000000
   0.00000000  4.17455591  7.50000000
   6.26183387  4.17455591 13.81475709
   0.00000000  6.26183387 13.81475709
   6.26183387  6.26183387 11.68405063
   0.00000000  4.17455591 11.68405063

--------------------------------------- Iteration      FINAL  ---------------------------------------

--------------------OUTCAR has been truncated-------------------------

[...]

--------------------OUTCAR has been truncated-------------------------

  FORCE on cell =-STRESS in cart. coord.  units (eV):
  Direction    XX          YY          ZZ          XY          YZ          ZX
  Alpha Z   950.51164   950.51164   950.51164
  Ewald  165112.55511166001.18143************    -0.00001     0.00194    -0.00002
  Hartree175620.97267176134.75920************    -0.00001     0.00030    -0.00001
  E(xc)   -1916.04406 -1915.16840 -1918.34743    -0.00000     0.00000    -0.00000
  Local  ************************351042.81085     0.00002    -0.00184     0.00002
  n-local  -753.53969  -757.09454  -780.55254     0.00000    -0.00005    -0.00000
  augment   838.99018   837.88226   829.55909    -0.00000     0.00000     0.00000
  Kinetic  7683.59982  7646.71240  7711.46445     0.00000     0.00014     0.00000
  Fock    -2532.53722 -2535.28784 -2530.58887     0.00000    -0.00003     0.00000
  vdW        -9.34071    -9.36276    -6.51266    -0.00000     0.00000     0.00000
  Total     -25.32537   -27.56234    -2.42056    -0.00000     0.00045     0.00000
  in kB     -27.37695   -29.79513    -2.61665    -0.00000     0.00048     0.00000

 VOLUME and BASIS-vectors are now :
  energy-cutoff  :      600.00
  volume of cell :     1482.11
      direct lattice vectors                 reciprocal lattice vectors
     8.349111827  0.000000000  0.000000000     0.119773219  0.000000000  0.000000000
     0.000000000  8.349111827  0.000000000     0.000000000  0.119773219  0.000000000
     0.000000000  0.000000000 21.261833870     0.000000000  0.000000000  0.047032632

  length of vectors
     8.349111827  8.349111827 21.261833870     0.119773219  0.119773219  0.047032632

 FORCES acting on ions:
    Electron-Ion                     Ewald-Force                    Non-Local-Force
   0.318E-04 0.308E-02 -.114E+04   -.325E-04 -.374E-02 0.114E+04   0.733E-06 0.516E-04 -.298E+01
   0.198E-04 -.226E+03 -.186E+04   -.216E-04 0.271E+03 0.188E+04   0.176E-05 -.381E+02 -.248E+02
   0.542E-05 0.226E+03 -.186E+04   -.489E-05 -.271E+03 0.188E+04   -.126E-06 0.381E+02 -.248E+02
   -.345E-02 0.805E+00 0.216E+04   0.733E-03 -.847E+00 -.215E+04   0.132E-02 0.263E-01 -.686E+01
   -.134E-04 -.937E-06 0.216E+04   0.137E-04 0.123E-05 -.215E+04   -.164E-06 -.221E-06 -.670E+01
   0.248E+01 -.301E-04 0.773E+03   -.254E+01 0.352E-04 -.774E+03   0.228E-01 -.321E-05 0.711E+00
   -.623E-04 0.637E+01 0.768E+03   0.647E-04 -.668E+01 -.769E+03   -.140E-05 0.179E+00 0.599E+00
   0.516E+01 0.877E+01 -.607E+03   -.454E+01 -.902E+01 0.608E+03   -.553E+00 0.225E+00 -.119E+01
   -.445E-04 0.330E-03 -.588E+03   0.486E-04 -.331E-03 0.583E+03   -.379E-05 -.151E-04 0.458E+01
   0.483E+02 -.869E-04 -.194E+04   -.545E+02 0.654E-04 0.193E+04   0.547E+01 0.514E-05 0.664E+01
   -.454E-04 0.885E+02 -.195E+04   0.409E-04 -.920E+02 0.194E+04   0.435E-05 0.310E+01 0.110E+01
   -.343E-02 -.805E+00 0.216E+04   0.713E-03 0.847E+00 -.215E+04   0.132E-02 -.263E-01 -.686E+01
   -.130E-04 0.388E-06 0.216E+04   0.131E-04 -.117E-05 -.215E+04   -.155E-06 0.542E-06 -.687E+01
   -.120E+01 0.347E-04 0.769E+03   0.128E+01 -.380E-04 -.769E+03   -.521E-01 0.230E-05 0.375E+00
   -.611E-04 -.637E+01 0.768E+03   0.633E-04 0.668E+01 -.769E+03   -.135E-05 -.179E+00 0.599E+00
   0.516E+01 -.877E+01 -.607E+03   -.454E+01 0.902E+01 0.608E+03   -.553E+00 -.225E+00 -.119E+01
   -.385E-04 -.230E-03 -.615E+03   0.355E-04 0.246E-03 0.615E+03   0.250E-05 -.189E-06 -.480E+00
   0.297E+02 0.261E-03 -.202E+04   -.306E+02 -.244E-03 0.201E+04   0.797E+00 -.134E-04 0.600E+01
   -.487E-04 -.885E+02 -.195E+04   0.440E-04 0.920E+02 0.194E+04   0.457E-05 -.310E+01 0.110E+01
   0.345E-02 0.805E+00 0.216E+04   -.733E-03 -.847E+00 -.215E+04   -.132E-02 0.263E-01 -.686E+01
   0.135E-04 -.212E-04 0.216E+04   -.138E-04 0.214E-04 -.215E+04   0.209E-06 -.128E-06 -.675E+01
   -.248E+01 -.285E-04 0.773E+03   0.254E+01 0.336E-04 -.774E+03   -.228E-01 -.325E-05 0.711E+00
   0.623E-04 0.268E+01 0.772E+03   -.645E-04 -.286E+01 -.772E+03   0.136E-05 0.106E+00 0.966E-01
   -.516E+01 0.877E+01 -.607E+03   0.454E+01 -.902E+01 0.608E+03   0.553E+00 0.225E+00 -.119E+01
   0.680E-04 -.241E-03 -.586E+03   -.713E-04 0.254E-03 0.586E+03   0.168E-05 -.474E-05 0.104E+00
   -.483E+02 -.818E-04 -.194E+04   0.545E+02 0.610E-04 0.193E+04   -.547E+01 0.441E-05 0.664E+01
   0.427E-04 0.187E+02 -.203E+04   -.379E-04 -.195E+02 0.202E+04   -.445E-05 0.756E+00 0.589E+01
   0.343E-02 -.805E+00 0.216E+04   -.713E-03 0.847E+00 -.215E+04   -.132E-02 -.263E-01 -.686E+01
   0.129E-04 0.214E-04 0.216E+04   -.131E-04 -.214E-04 -.215E+04   0.483E-07 -.526E-07 -.685E+01
   0.120E+01 0.332E-04 0.769E+03   -.128E+01 -.365E-04 -.769E+03   0.521E-01 0.235E-05 0.375E+00
   0.609E-04 -.268E+01 0.772E+03   -.633E-04 0.286E+01 -.772E+03   0.146E-05 -.106E+00 0.966E-01
   -.516E+01 -.877E+01 -.607E+03   0.454E+01 0.902E+01 0.608E+03   0.553E+00 -.225E+00 -.119E+01
   0.412E-04 0.185E-03 -.611E+03   -.385E-04 -.214E-03 0.611E+03   -.240E-05 0.177E-04 -.160E+00
   -.297E+02 0.263E-03 -.202E+04   0.306E+02 -.246E-03 0.201E+04   -.797E+00 -.134E-04 0.600E+01
   0.444E-04 -.187E+02 -.203E+04   -.393E-04 0.195E+02 0.202E+04   -.467E-05 -.756E+00 0.589E+01
   0.171E+00 0.224E+01 0.576E+03   -.299E+00 -.234E+01 -.576E+03   0.146E+00 0.125E+00 -.303E+00
   -.422E-04 0.411E-04 0.587E+03   0.411E-04 -.446E-04 -.588E+03   0.110E-05 0.332E-05 0.453E+00
   0.166E+00 -.828E-05 0.162E+04   -.177E+00 0.858E-05 -.163E+04   0.135E-01 -.403E-06 0.305E+01
   -.101E-04 0.790E+00 0.162E+04   0.103E-04 -.841E+00 -.163E+04   -.389E-06 0.614E-01 0.301E+01
   0.381E+02 0.299E+02 -.150E+04   -.372E+02 -.300E+02 0.150E+04   -.789E+00 0.119E+00 -.468E+01
   -.415E-04 -.500E-03 -.126E+04   0.477E-04 0.480E-03 0.124E+04   -.508E-05 0.682E-05 0.223E+02
   0.317E+01 0.586E-04 -.442E+03   -.345E+01 -.670E-04 0.441E+03   0.246E+00 0.386E-05 0.808E+00
   -.441E-04 0.859E+01 -.472E+03   0.450E-04 -.903E+01 0.473E+03   -.184E-06 0.378E+00 -.161E+01
   0.171E+00 -.224E+01 0.576E+03   -.299E+00 0.234E+01 -.576E+03   0.146E+00 -.125E+00 -.303E+00
   -.416E-04 -.424E-04 0.573E+03   0.416E-04 0.561E-04 -.572E+03   0.149E-06 -.151E-04 -.270E+00
   -.150E+00 0.821E-05 0.162E+04   0.153E+00 -.856E-05 -.163E+04   -.371E-02 0.474E-06 0.297E+01
   -.996E-05 -.790E+00 0.162E+04   0.102E-04 0.841E+00 -.163E+04   -.398E-06 -.614E-01 0.301E+01
   0.381E+02 -.299E+02 -.150E+04   -.372E+02 0.300E+02 0.150E+04   -.789E+00 -.119E+00 -.468E+01
   -.748E-05 0.541E-03 -.150E+04   0.818E-05 -.555E-03 0.151E+04   -.489E-06 0.735E-05 -.367E+01
   0.292E+01 -.403E-04 -.452E+03   -.305E+01 0.579E-04 0.452E+03   0.108E+00 -.154E-04 0.304E+00
   -.425E-04 -.859E+01 -.472E+03   0.430E-04 0.903E+01 0.473E+03   0.779E-07 -.378E+00 -.161E+01
   -.171E+00 0.224E+01 0.576E+03   0.299E+00 -.234E+01 -.576E+03   -.146E+00 0.125E+00 -.303E+00
   0.450E-04 -.100E-03 0.582E+03   -.442E-04 0.998E-04 -.582E+03   -.763E-06 0.135E-05 0.272E+00
   -.166E+00 -.816E-05 0.162E+04   0.177E+00 0.847E-05 -.163E+04   -.135E-01 -.411E-06 0.305E+01
   0.101E-04 0.473E+00 0.162E+04   -.103E-04 -.510E+00 -.163E+04   0.361E-06 0.442E-01 0.299E+01
   -.381E+02 0.299E+02 -.150E+04   0.372E+02 -.300E+02 0.150E+04   0.789E+00 0.119E+00 -.468E+01
   -.967E-05 0.126E-03 -.153E+04   0.965E-05 -.149E-03 0.153E+04   0.753E-07 0.146E-04 -.467E+01
   -.317E+01 0.629E-04 -.442E+03   0.345E+01 -.716E-04 0.441E+03   -.246E+00 0.401E-05 0.808E+00
   0.485E-04 0.643E+01 -.449E+03   -.489E-04 -.651E+01 0.448E+03   -.570E-07 0.718E-01 0.778E-01
   -.171E+00 -.224E+01 0.576E+03   0.299E+00 0.234E+01 -.576E+03   -.146E+00 -.125E+00 -.303E+00
   0.408E-04 0.988E-04 0.577E+03   -.407E-04 -.103E-03 -.577E+03   -.223E-06 0.400E-05 -.893E-01
   0.150E+00 0.811E-05 0.162E+04   -.153E+00 -.845E-05 -.163E+04   0.371E-02 0.488E-06 0.297E+01
   0.100E-04 -.473E+00 0.162E+04   -.102E-04 0.510E+00 -.163E+04   0.359E-06 -.442E-01 0.299E+01
   -.381E+02 -.299E+02 -.150E+04   0.372E+02 0.300E+02 0.150E+04   0.789E+00 -.119E+00 -.468E+01
   0.387E-04 0.407E-04 -.154E+04   -.414E-04 -.249E-04 0.155E+04   0.199E-05 -.158E-04 -.455E+01
   -.292E+01 -.424E-04 -.452E+03   0.305E+01 0.599E-04 0.452E+03   -.108E+00 -.152E-04 0.304E+00
   0.479E-04 -.643E+01 -.449E+03   -.487E-04 0.651E+01 0.448E+03   0.393E-06 -.718E-01 0.778E-01
   0.523E-05 0.834E-03 0.604E+02   0.980E-13 -.441E-12 -.392E-11   -.179E-06 -.726E-03 -.521E+02

 POSITION                                       TOTAL-FORCE (eV/Angst)
      4.17456      2.08727     15.32727        -0.000000     -0.000602      0.004499
      4.17456      3.22762     15.82232         0.000000     -0.003888     -0.003429
      4.17456      0.94691     15.82232         0.000000      0.004560     -0.003766
      2.08728      0.00000      7.50000        -0.001203     -0.011522      0.434509
      4.17456      2.08728      7.50000        -0.000000      0.000000      0.393406
      2.08728      2.08728      9.58728        -0.025488      0.000002      0.017096
      4.17456      0.00000      9.58728         0.000001     -0.098142      0.119728
      2.10445     -0.00667     11.70065         0.000826     -0.001717      0.000802
      4.17456      2.08728     11.63680        -0.000000     -0.000017     -0.000577
      1.97425      2.08728     13.73076        -0.003508     -0.000015      0.001172
      4.17456     -0.09751     13.96592         0.000000     -0.000998      0.002247
      2.08728      4.17456      7.50000        -0.001202      0.011523      0.434509
      4.17456      6.26183      7.50000        -0.000000     -0.000000      0.439182
      2.08728      6.26183      9.58728         0.023613     -0.000000      0.099578
      4.17456      4.17456      9.58728         0.000001      0.098139      0.119720
      2.10445      4.18122     11.70065         0.000803      0.001715      0.000789
      4.17456      6.26183     11.70915        -0.000000      0.000015      0.001718
      2.06717      6.26183     13.76698         0.002098      0.000003      0.003658
      4.17456      4.27206     13.96592         0.000001      0.001006      0.002201
      6.26183      0.00000      7.50000         0.001202     -0.011522      0.434509
      0.00000      2.08728      7.50000        -0.000000      0.000000      0.408266
      6.26183      2.08728      9.58728         0.025490      0.000001      0.017097
      0.00000      0.00000      9.58728        -0.000001     -0.049198      0.098351
      6.24466     -0.00667     11.70065        -0.000826     -0.001717      0.000802
     -0.00000      2.08728     11.65941        -0.000001      0.000007     -0.004760
      6.37486      2.08728     13.73076         0.003510     -0.000015      0.001172
      0.00000     -0.02045     13.75791        -0.000000      0.001329     -0.000721
      6.26183      4.17456      7.50000         0.001202      0.011523      0.434509
      0.00000      6.26183      7.50000        -0.000000      0.000000      0.436623
      6.26183      6.26183      9.58728        -0.023613     -0.000001      0.099579
      0.00000      4.17456      9.58728        -0.000001      0.049199      0.098360
      6.24466      4.18122     11.70065        -0.000803      0.001715      0.000790
      0.00000      6.26183     11.67680        -0.000000     -0.000009     -0.002803
      6.28194      6.26183     13.76698        -0.002100      0.000003      0.003657
      0.00000      4.19500     13.75791        -0.000000     -0.001331     -0.000727
      2.08728      0.00000      9.58728         0.043633      0.045664      0.065669
      4.17456      2.08728      9.58728         0.000000      0.000001     -0.038190
      2.08728      2.08728      7.50000         0.004612     -0.000000     -0.549326
      4.17456      0.00000      7.50000        -0.000000      0.021106     -0.563521
      2.07007      0.01271     13.78323        -0.002456     -0.001038      0.001270
      4.17456      2.08727     13.90283         0.000000     -0.000012     -0.006183
      2.10686      2.08728     11.68879         0.000341     -0.000004     -0.000376
      4.17456      0.01946     11.70804         0.000001      0.002007      0.000663
      2.08728      4.17456      9.58728         0.043635     -0.045663      0.065671
      4.17456      6.26183      9.58728         0.000000     -0.000004      0.125222
      2.08728      6.26183      7.50000        -0.001451      0.000000     -0.575909
      4.17456      4.17456      7.50000        -0.000000     -0.021106     -0.563521
      2.07008      4.16185     13.78323        -0.002446      0.001031      0.001291
      4.17456      6.26183     13.82562         0.000000     -0.000006      0.001167
      2.09222      6.26183     11.68189        -0.002865     -0.000000      0.002076
      4.17456      4.15510     11.70804         0.000001     -0.002002      0.000663
      6.26183      0.00000      9.58728        -0.043633      0.045664      0.065671
      0.00000      2.08728      9.58728        -0.000000      0.000001      0.048339
      6.26183      2.08728      7.50000        -0.004612     -0.000000     -0.549326
      0.00000      0.00000      7.50000         0.000000      0.015055     -0.568550
      6.27904      0.01271     13.78323         0.002456     -0.001038      0.001270
      0.00000      2.08728     13.77427         0.000000     -0.000006      0.001460
      6.24226      2.08728     11.68879        -0.000341     -0.000004     -0.000377
      0.00000      0.00444     11.66965        -0.000001      0.000651     -0.000531
      6.26183      4.17456      9.58728        -0.043635     -0.045663      0.065673
      0.00000      6.26183      9.58728        -0.000000      0.000001      0.016460
      6.26183      6.26183      7.50000         0.001451      0.000000     -0.575909
      0.00000      4.17456      7.50000         0.000000     -0.015055     -0.568550
      6.27904      4.16185     13.78323         0.002446      0.001031      0.001291
     -0.00000      6.26183     13.79138        -0.000000     -0.000003      0.003125
      6.25690      6.26183     11.68189         0.002865     -0.000000      0.002076
      0.00000      4.17012     11.66965        -0.000000     -0.000656     -0.000533
    total drift:                                0.000004     -0.000007      0.002783

  FREE ENERGIE OF THE ION-ELECTRON SYSTEM (eV)
  free  energy   TOTEN  =      -503.07981867 eV

  energy  without entropy=     -503.07981867  energy(sigma->0) =     -503.07981867

 d Force = 0.9755894E-05[ 0.706E-05, 0.124E-04]  d Energy = 0.8917729E-05 0.838E-06
 d Force = 0.3741378E+01[ 0.374E+01, 0.374E+01]  d Ewald  = 0.3741378E+01-0.331E-09

 reached required accuracy - stopping structural energy minimisation