 vasp.6.3.0 20Jan22 (build Aug 21 2024 11:13:42) complex
 executed on        HPECrayEX_GCC date 2024.08.27  13:21:57

 INCAR:
   SYSTEM = MgO-rocksalt
   ISMEAR = 0
   SIGMA = 0.05
   EDIFF = 1E-6
   ALGO = ALL
   ISTART = 0
   IBRION = -1
   NSW = 0
   ISYM = 0
   DIPOL = 0.5 0.5 0.5
   IDIPOL = 3
   LDIPOL = .TRUE.
   GGA = MK
   LUSE_VDW = .TRUE.
   PARAM1 = 0.1234
   PARAM2 = 0.711357
   ZAB_VDW = -1.8867
   AGGAC = 0.0
   ENCUT = 600
   PREC = Accurate
   LASPH = .TRUE.
   LREAL = .FALSE.
   ISPIN = 1
   NELM = 200
   NELMIN = 8
   NCORE = 8
   KPAR = 1
   LWAVE = .FALSE.
   LCHARG = .FALSE.

 POTCAR:    PAW_PBE C 08Apr2002
 POTCAR:    PAW_PBE H 15Jun2001
 POTCAR:    PAW_PBE Mg_pv 13Apr2007
 POTCAR:    PAW_PBE O 08Apr2002
|               ----> ADVICE to this user running VASP <----                  |
|     You have switched on vdW-DFT.                                           |
|     This routine was written and supplied by Jiri Klimes. We recommend      |
|     that you carefully read and cite the following publications:            |
|       J. Klimes, D.R. Bowler, A. Michelides                                 |
|          J. Phys.: Cond Matt. 22 022201 (2010)                              |
|       J. Klimes, D.R. Bowler, A. Michelides                                 |
|          Phys. Rev. B. 83, 195131 (2011)                                    |
|     and references therein.                                                 |

   TITEL  = PAW_PBE C 08Apr2002
   POMASS =   12.011; ZVAL   =    4.000    mass and valenz
   ENMAX  =  400.000; ENMIN  =  300.000 eV

   TITEL  = PAW_PBE H 15Jun2001
   POMASS =    1.000; ZVAL   =    1.000    mass and valenz
   ENMAX  =  250.000; ENMIN  =  200.000 eV

   TITEL  = PAW_PBE Mg_pv 13Apr2007
   POMASS =   24.305; ZVAL   =    8.000    mass and valenz
   ENMAX  =  403.929; ENMIN  =  302.947 eV

   TITEL  = PAW_PBE O 08Apr2002
   POMASS =   16.000; ZVAL   =    6.000    mass and valenz
   ENMAX  =  400.000; ENMIN  =  300.000 eV

  PAW_PBE C 08Apr2002                   :
  PAW_PBE H 15Jun2001                   :
  PAW_PBE Mg_pv 13Apr2007               :
  PAW_PBE O 08Apr2002                   :

 POSCAR:  C  H Mg  O
  positions in direct lattice
 exchange correlation table for  LEXCH =       43
   RHO(1)=    0.500       N(1)  =     2000
   RHO(2)=  100.500       N(2)  =     4000

 ion  position               nearest neighbor table
   1  0.454  0.486  0.795-  11 1.10   9 1.10  10 1.10   2 1.53
   2  0.299  0.413  0.816-  14 1.10  13 1.10  12 1.10   1 1.53
   3  0.454  0.986  0.795-  17 1.10  15 1.10  16 1.10   4 1.53
   4  0.299  0.913  0.816-  20 1.10  19 1.10  18 1.10   3 1.53
   5  0.795  0.737  0.795-  23 1.10  22 1.10  21 1.10   6 1.53
   6  0.950  0.663  0.816-  25 1.10  26 1.10  24 1.10   5 1.53
   7  0.795  0.237  0.795-  29 1.10  28 1.10  27 1.10   8 1.53
   8  0.950  0.163  0.816-  31 1.10  32 1.10  30 1.10   7 1.53
   9  0.435  0.598  0.770-   1 1.10
  10  0.519  0.405  0.764-   1 1.10
  11  0.533  0.512  0.834-   1 1.10
  12  0.220  0.392  0.776-   2 1.10
  13  0.235  0.491  0.849-   2 1.10
  14  0.318  0.299  0.840-   2 1.10
  15  0.435  0.098  0.770-   3 1.10
  16  0.519  0.905  0.764-   3 1.10
  17  0.533  0.012  0.834-   3 1.10
  18  0.220  0.892  0.776-   4 1.10
  19  0.235  0.991  0.849-   4 1.10
  20  0.318  0.799  0.840-   4 1.10
  21  0.730  0.655  0.764-   5 1.10
  22  0.814  0.849  0.770-   5 1.10
  23  0.716  0.762  0.834-   5 1.10
  24  0.029  0.642  0.776-   6 1.10
  25  0.931  0.549  0.840-   6 1.10
  26  0.014  0.741  0.849-   6 1.10
  27  0.730  0.155  0.764-   7 1.10
  28  0.814  0.349  0.770-   7 1.10
  29  0.716  0.262  0.834-   7 1.10
  30  0.029  0.142  0.776-   8 1.10
  31  0.931  0.049  0.840-   8 1.10
  32  0.014  0.241  0.849-   8 1.10
  33  0.250  0.000  0.351-  65 2.12  67 2.12  68 2.12  75 2.12  84 2.12
  34  0.500  0.250  0.351-  66 2.12  67 2.12  68 2.12  76 2.12  83 2.12
  35  0.250  0.250  0.450-  67 2.12  66 2.12  65 2.12  73 2.12  82 2.12  71 2.12
  36  0.500  0.000  0.450-  68 2.12  66 2.12  65 2.12  74 2.12  81 2.12  72 2.13
  37  0.250  0.000  0.550-  72 2.11  71 2.12  79 2.12  88 2.12  65 2.13  69 2.15
  38  0.500  0.250  0.550-  87 2.11  80 2.12  72 2.12  71 2.12  66 2.13  70 2.15
  39  0.250  0.250  0.648-  71 2.10  86 2.11  70 2.12  69 2.12  77 2.12
  40  0.500  0.001  0.649-  70 2.12  72 2.12  78 2.12  69 2.12  85 2.12
  41  0.250  0.500  0.351-  73 2.12  67 2.12  75 2.12  76 2.12  92 2.12
  42  0.500  0.750  0.351-  74 2.12  68 2.12  75 2.12  76 2.12  91 2.12
  43  0.250  0.750  0.450-  75 2.12  73 2.12  74 2.12  65 2.12  90 2.12  79 2.12
  44  0.500  0.500  0.450-  76 2.12  73 2.12  74 2.12  66 2.12  89 2.12  80 2.13
  45  0.250  0.500  0.550-  80 2.11  79 2.12  71 2.12  96 2.12  73 2.13  77 2.15
  46  0.500  0.750  0.550-  95 2.11  72 2.12  80 2.12  79 2.12  74 2.13  78 2.15
  47  0.250  0.750  0.648-  79 2.10  94 2.11  78 2.12  77 2.12  69 2.12
  48  0.500  0.501  0.649-  78 2.12  80 2.12  70 2.12  77 2.12  93 2.12
  49  0.750  0.000  0.351-  81 2.12  68 2.12  83 2.12  84 2.12  91 2.12
  50  0.000  0.250  0.351-  82 2.12  67 2.12  83 2.12  84 2.12  92 2.12
  51  0.750  0.250  0.450-  83 2.12  81 2.12  82 2.12  66 2.12  89 2.12  87 2.13
  52  0.000  0.000  0.450-  84 2.12  81 2.12  82 2.12  65 2.12  90 2.12  88 2.12
  53  0.750  0.000  0.550-  72 2.11  87 2.12  95 2.12  88 2.12  81 2.13  85 2.15
  54  1.000  0.250  0.550-  87 2.11  96 2.12  88 2.12  71 2.12  82 2.13  86 2.15
  55  0.750  0.251  0.649-  93 2.12  87 2.12  85 2.12  86 2.12  70 2.12
  56  0.000  0.000  0.648-  88 2.10  69 2.11  85 2.12  94 2.12  86 2.12
  57  0.750  0.500  0.351-  89 2.12  83 2.12  76 2.12  91 2.12  92 2.12
  58  0.000  0.750  0.351-  90 2.12  84 2.12  75 2.12  91 2.12  92 2.12
  59  0.750  0.750  0.450-  91 2.12  81 2.12  89 2.12  90 2.12  74 2.12  95 2.13
  60  0.000  0.500  0.450-  92 2.12  82 2.12  89 2.12  90 2.12  73 2.12  96 2.12
[...]
  82  0.000  0.250  0.450-  50 2.12  35 2.12  51 2.12  52 2.12  60 2.12  54 2.13
  83  0.750  0.250  0.351-  51 2.12  49 2.12  50 2.12  34 2.12  57 2.12
  84  0.000  0.000  0.351-  52 2.12  49 2.12  50 2.12  33 2.12  58 2.12
  85  0.750  0.000  0.651-  63 2.12  56 2.12  55 2.12  40 2.12  53 2.15
  86  0.001  0.251  0.651-  39 2.11  64 2.12  56 2.12  55 2.12  54 2.15
  87  0.750  0.250  0.550-  38 2.11  54 2.11  55 2.12  53 2.12  61 2.12  51 2.13
  88  1.000  0.000  0.550-  56 2.10  62 2.12  54 2.12  53 2.12  52 2.12  37 2.12
  89  0.750  0.500  0.450-  57 2.12  51 2.12  44 2.12  59 2.12  60 2.12  61 2.13
  90  0.000  0.750  0.450-  58 2.12  52 2.12  43 2.12  59 2.12  60 2.12  62 2.13
  91  0.750  0.750  0.351-  59 2.12  49 2.12  57 2.12  58 2.12  42 2.12
  92  0.000  0.500  0.351-  60 2.12  50 2.12  57 2.12  58 2.12  41 2.12
  93  0.750  0.500  0.651-  55 2.12  64 2.12  63 2.12  48 2.12  61 2.15
  94  0.001  0.751  0.651-  47 2.11  56 2.12  64 2.12  63 2.12  62 2.15
  95  0.750  0.750  0.550-  46 2.11  62 2.11  63 2.12  61 2.12  53 2.12  59 2.13
  96  1.000  0.500  0.550-  64 2.10  54 2.12  62 2.12  61 2.12  60 2.12  45 2.12

IMPORTANT INFORMATION: All symmetrisations will be switched off!
NOSYMM: (Re-)initialisation of all symmetry stuff for point group C_1.

                                     Primitive cell

  volume of cell :    1530.6606

  direct lattice vectors                    reciprocal lattice vectors
     8.467142631  0.000000000  0.000000000     0.118103597  0.000000000  0.000000000
     0.000000000  8.467142631  0.000000000     0.000000000  0.118103597  0.000000000
     0.000000000  0.000000000 21.350356973     0.000000000  0.000000000  0.046837624

  length of vectors
     8.467142631  8.467142631 21.350356973     0.118103597  0.118103597  0.046837624

  position of ions in fractional coordinates (direct lattice)
     0.454366383  0.486444805  0.794812910
     0.298785143  0.412822977  0.816130818
     0.454363170  0.986441499  0.794815116
     0.298772773  0.912816657  0.816134131
     0.794624585  0.736517698  0.794818678
     0.950173585  0.662983006  0.816207338
     0.794623035  0.236519023  0.794819010
     0.950170556  0.162984633  0.816208118
     0.434649143  0.598444450  0.769736445
     0.518837644  0.404974914  0.763659825
     0.533096409  0.512369816  0.834469928
     0.220206081  0.392026240  0.775914974
     0.235056871  0.490714841  0.848712192
     0.318242626  0.299000456  0.839734881
     0.434645617  0.098446181  0.769733326
     0.518840120  0.904973867  0.763656304
     0.533117999  0.012378831  0.834470898
     0.220227239  0.892038876  0.775916681
     0.235054377  0.990707721  0.848708727
     0.318234154  0.799007308  0.839733433
     0.730272364  0.655021301  0.763637206
     0.814365108  0.848514106  0.769747350
     0.715780028  0.762418097  0.834441114
     0.028867427  0.642180005  0.776019567
     0.930733008  0.549170957  0.839828323
     0.013806581  0.740952092  0.848798994
     0.730270742  0.155020284  0.763637789
     0.814374503  0.348513612  0.769746469
     0.715773240  0.262419632  0.834440626
     0.028861972  0.142185196  0.776020125
     0.930738632  0.049171085  0.839828152
     0.013808109  0.240948734  0.848799295
     0.250000000  0.000000000  0.351282183
     0.500000000  0.250000000  0.351282183
     0.250000000  0.250000000  0.450427394
     0.500000000  0.000000000  0.450427394
     0.250195989  0.000308010  0.550051103
     0.500272872  0.250300984  0.550323828
     0.249770286  0.250475304  0.647954190
     0.499537478  0.000598045  0.649126830
     0.250000000  0.500000000  0.351282183
     0.500000000  0.750000000  0.351282183
     0.250000000  0.750000000  0.450427394
     0.500000000  0.500000000  0.450427394
     0.250193499  0.500310578  0.550065055
     0.500272650  0.750282626  0.550325024
     0.249770538  0.750493375  0.647956872
     0.499535170  0.500596582  0.649134699
     0.750000000  0.000000000  0.351282183
     0.000000000  0.250000000  0.351282183
     0.750000000  0.250000000  0.450427394
     0.000000000  0.000000000  0.450427394
     0.749652039  0.000291244  0.550314905
     0.999722126  0.250314530  0.550057191
     0.750317764  0.250587722  0.649129217
     0.000080038  0.000484824  0.647951289
     0.750000000  0.500000000  0.351282183
     0.000000000  0.750000000  0.351282183
     0.750000000  0.750000000  0.450427394
     0.000000000  0.500000000  0.450427394
[...]
     0.000000000  0.250000000  0.450427394
     0.750000000  0.250000000  0.351282183
     0.000000000  0.000000000  0.351282183
     0.750246358  0.000422654  0.650949191
     0.000534344  0.250539981  0.650534290
     0.749951352  0.250280360  0.550004062
     0.999863737  0.000306218  0.549688291
     0.750000000  0.500000000  0.450427394
     0.000000000  0.750000000  0.450427394
     0.750000000  0.750000000  0.351282183
     0.000000000  0.500000000  0.351282183
     0.750228308  0.500420714  0.650968409
     0.000534262  0.750584491  0.650536022
     0.749951053  0.750275177  0.550005687
     0.999860149  0.500306847  0.549695907

  ion indices of the primitive-cell ions
   primitive index   ion index
                 1           1
                 2           2
                 3           3
[...]
   6.34741074  0.00246600 11.74941967
   8.46478983  2.11944883 11.74391738
   6.35304753  2.12176198 13.85914051
   0.00067769  0.00410507 13.83399133
   6.35035697  4.23357132  7.50000000
   0.00000000  6.35035697  7.50000000
   6.35035697  6.35035697  9.61678566
   0.00000000  4.23357132  9.61678566
[...]
   0.00000000  2.11678566  9.61678566
   6.35035697  2.11678566  7.50000000
   0.00000000  0.00000000  7.50000000
   6.35244292  0.00357867 13.89799759
   0.00452436  2.12135775 13.88913932
   6.34994506  2.11915950 11.74278306
   8.46598887  0.00259280 11.73604125
   6.35035697  4.23357132  9.61678566
   0.00000000  6.35035697  9.61678566
   6.35035697  6.35035697  7.50000000
   0.00000000  4.23357132  7.50000000
   6.35229009  4.23713356 13.89840791
   0.00452367  6.35530594 13.88917630
   6.34994253  6.35268693 11.74281775
   8.46595849  4.23616943 11.73620384

--------------------------------------- Iteration      FINAL  ---------------------------------------

--------------------OUTCAR has been truncated-------------------------

[...]

--------------------OUTCAR has been truncated-------------------------

  FORCE on cell =-STRESS in cart. coord.  units (eV):
  Direction    XX          YY          ZZ          XY          YZ          ZX
  Alpha Z  1051.04149  1051.04149  1051.04149
  Ewald  143746.80338143561.24689************     0.04501   -39.86104    -0.12675
  Hartree154660.20117154540.62003************     0.05600   -26.51338    -0.06504
  E(xc)   -2650.13249 -2649.48111 -2649.49760    -0.00048     0.11925    -0.00063
  Local  ************************307859.19519    -0.11446    69.27233     0.18581
  n-local -2934.33626 -2937.26655 -2956.59303     0.00183    -0.55596    -0.00694
  augment  1051.90665  1051.73739  1042.71015     0.00024    -0.02291    -0.00159
  Kinetic  8046.32334  8033.65673  8072.00758     0.00462    -2.80106     0.06232
  Fock        0.00000     0.00000     0.00000     0.00000     0.00000     0.00000
  Total     -33.86034   -34.35505    -6.04158    -0.00724    -0.36277     0.04718
  in kB     -35.44239   -35.96022    -6.32386    -0.00757    -0.37972     0.04938

 VOLUME and BASIS-vectors are now :
  energy-cutoff  :      600.00
  volume of cell :     1530.66
      direct lattice vectors                 reciprocal lattice vectors
     8.467142631  0.000000000  0.000000000     0.118103597  0.000000000  0.000000000
     0.000000000  8.467142631  0.000000000     0.000000000  0.118103597  0.000000000
     0.000000000  0.000000000 21.350356973     0.000000000  0.000000000  0.046837624

  length of vectors
     8.467142631  8.467142631 21.350356973     0.118103597  0.118103597  0.046837624

 FORCES acting on ions:
    Electron-Ion                     Ewald-Force                    Non-Local-Force
   -.374E+02 -.199E+02 -.891E+03   0.372E+02 0.199E+02 0.891E+03   0.807E-01 -.419E-01 -.133E+00
   0.417E+02 0.199E+02 -.872E+03   -.418E+02 -.199E+02 0.872E+03   0.238E+00 0.519E-01 0.809E-01
   -.374E+02 -.199E+02 -.891E+03   0.372E+02 0.199E+02 0.891E+03   0.829E-01 -.404E-01 -.134E+00
   0.417E+02 0.199E+02 -.872E+03   -.418E+02 -.199E+02 0.872E+03   0.242E+00 0.542E-01 0.788E-01
   0.374E+02 -.199E+02 -.891E+03   -.372E+02 0.199E+02 0.891E+03   -.787E-01 -.419E-01 -.134E+00
   -.417E+02 0.199E+02 -.872E+03   0.418E+02 -.199E+02 0.872E+03   -.234E+00 0.517E-01 0.813E-01
   0.374E+02 -.199E+02 -.891E+03   -.372E+02 0.199E+02 0.891E+03   -.787E-01 -.423E-01 -.134E+00
   -.417E+02 0.199E+02 -.872E+03   0.418E+02 -.199E+02 0.872E+03   -.234E+00 0.516E-01 0.816E-01
   0.546E+01 -.397E+02 -.214E+03   -.629E+01 0.445E+02 0.211E+03   0.815E+00 -.478E+01 0.264E+01
   -.236E+02 0.263E+02 -.213E+03   0.263E+02 -.298E+02 0.209E+03   -.275E+01 0.350E+01 0.321E+01
   -.302E+02 -.104E+02 -.243E+03   0.336E+02 0.115E+02 0.248E+03   -.338E+01 -.112E+01 -.422E+01
   0.314E+02 0.883E+01 -.198E+03   -.348E+02 -.968E+01 0.193E+03   0.337E+01 0.835E+00 0.429E+01
   0.243E+02 -.253E+02 -.228E+03   -.271E+02 0.286E+02 0.232E+03   0.275E+01 -.329E+01 -.348E+01
   -.400E+01 0.403E+02 -.226E+03   0.480E+01 -.452E+02 0.229E+03   -.790E+00 0.485E+01 -.253E+01
   0.546E+01 -.397E+02 -.214E+03   -.629E+01 0.445E+02 0.211E+03   0.815E+00 -.477E+01 0.263E+01
   -.236E+02 0.263E+02 -.213E+03   0.263E+02 -.298E+02 0.209E+03   -.275E+01 0.350E+01 0.321E+01
   -.302E+02 -.104E+02 -.243E+03   0.336E+02 0.115E+02 0.248E+03   -.338E+01 -.112E+01 -.422E+01
   0.314E+02 0.883E+01 -.198E+03   -.348E+02 -.967E+01 0.193E+03   0.337E+01 0.835E+00 0.429E+01
   0.243E+02 -.253E+02 -.228E+03   -.271E+02 0.286E+02 0.232E+03   0.275E+01 -.329E+01 -.348E+01
   -.401E+01 0.403E+02 -.226E+03   0.480E+01 -.452E+02 0.229E+03   -.790E+00 0.485E+01 -.253E+01
   0.235E+02 0.263E+02 -.213E+03   -.263E+02 -.298E+02 0.209E+03   0.274E+01 0.350E+01 0.322E+01
   -.547E+01 -.397E+02 -.214E+03   0.630E+01 0.445E+02 0.211E+03   -.816E+00 -.478E+01 0.263E+01
   0.303E+02 -.104E+02 -.243E+03   -.337E+02 0.115E+02 0.248E+03   0.339E+01 -.112E+01 -.422E+01
   -.314E+02 0.884E+01 -.198E+03   0.348E+02 -.968E+01 0.193E+03   -.337E+01 0.835E+00 0.428E+01
   0.400E+01 0.403E+02 -.226E+03   -.479E+01 -.452E+02 0.229E+03   0.789E+00 0.484E+01 -.253E+01
   -.243E+02 -.253E+02 -.228E+03   0.270E+02 0.286E+02 0.232E+03   -.274E+01 -.329E+01 -.348E+01
   0.235E+02 0.263E+02 -.213E+03   -.263E+02 -.298E+02 0.209E+03   0.274E+01 0.350E+01 0.321E+01
   -.548E+01 -.397E+02 -.214E+03   0.631E+01 0.445E+02 0.211E+03   -.817E+00 -.478E+01 0.263E+01
   0.303E+02 -.104E+02 -.243E+03   -.337E+02 0.115E+02 0.248E+03   0.339E+01 -.112E+01 -.422E+01
   -.314E+02 0.884E+01 -.198E+03   0.348E+02 -.968E+01 0.193E+03   -.337E+01 0.835E+00 0.428E+01
   0.400E+01 0.403E+02 -.226E+03   -.479E+01 -.452E+02 0.229E+03   0.788E+00 0.485E+01 -.253E+01
   -.243E+02 -.253E+02 -.228E+03   0.270E+02 0.286E+02 0.232E+03   -.274E+01 -.329E+01 -.348E+01
   -.882E-01 0.154E-02 0.210E+04   0.905E-01 -.856E-03 -.210E+04   -.171E-02 -.538E-03 -.677E+01
   -.882E-01 -.520E-02 0.210E+04   0.908E-01 0.594E-02 -.210E+04   -.193E-02 -.575E-03 -.678E+01
   -.304E+00 0.105E-02 0.844E+03   0.326E+00 0.119E-01 -.844E+03   -.154E-01 -.862E-02 0.426E+00
   -.321E+00 0.241E-01 0.843E+03   0.337E+00 -.134E-01 -.843E+03   -.118E-01 -.697E-02 0.504E+00
   0.673E+00 -.246E-01 -.408E+03   -.600E+00 0.240E-01 0.408E+03   -.731E-01 0.287E-03 -.272E+00
   0.415E+00 0.172E-01 -.409E+03   -.342E+00 -.174E-01 0.409E+03   -.727E-01 -.116E-02 -.294E+00
   0.686E+01 0.159E+01 -.166E+04   -.697E+01 -.163E+01 0.165E+04   0.109E+00 0.375E-01 0.585E+01
   0.141E+01 -.128E+01 -.164E+04   -.147E+01 0.132E+01 0.164E+04   0.587E-01 -.422E-01 0.572E+01
   -.886E-01 0.358E-03 0.210E+04   0.910E-01 0.341E-03 -.210E+04   -.175E-02 -.549E-03 -.677E+01
   -.882E-01 0.709E-02 0.210E+04   0.908E-01 -.659E-02 -.210E+04   -.194E-02 -.390E-03 -.678E+01
   -.303E+00 0.562E-01 0.844E+03   0.325E+00 -.446E-01 -.844E+03   -.154E-01 -.769E-02 0.427E+00
   -.318E+00 0.195E-01 0.843E+03   0.335E+00 -.869E-02 -.843E+03   -.121E-01 -.708E-02 0.511E+00
   0.707E+00 -.252E-01 -.408E+03   -.635E+00 0.247E-01 0.408E+03   -.720E-01 -.891E-04 -.274E+00
   0.414E+00 0.827E-02 -.409E+03   -.341E+00 -.836E-02 0.409E+03   -.727E-01 0.343E-03 -.294E+00
   0.687E+01 0.165E+01 -.166E+04   -.698E+01 -.168E+01 0.165E+04   0.109E+00 0.309E-01 0.585E+01
   0.141E+01 -.128E+01 -.164E+04   -.146E+01 0.132E+01 0.164E+04   0.586E-01 -.418E-01 0.572E+01
   0.880E-01 0.154E-02 0.210E+04   -.907E-01 -.924E-03 -.210E+04   0.208E-02 -.477E-03 -.678E+01
   0.880E-01 -.480E-02 0.210E+04   -.904E-01 0.556E-02 -.210E+04   0.185E-02 -.598E-03 -.677E+01
   0.315E+00 -.329E-02 0.843E+03   -.335E+00 0.152E-01 -.843E+03   0.140E-01 -.784E-02 0.507E+00
   0.295E+00 0.311E-01 0.844E+03   -.320E+00 -.188E-01 -.844E+03   0.172E-01 -.810E-02 0.426E+00
   -.397E+00 0.117E-01 -.409E+03   0.324E+00 -.122E-01 0.409E+03   0.722E-01 -.466E-04 -.292E+00
   -.686E+00 -.659E-01 -.408E+03   0.613E+00 0.657E-01 0.408E+03   0.734E-01 -.506E-03 -.269E+00
   -.148E+01 -.131E+01 -.164E+04   0.154E+01 0.135E+01 0.164E+04   -.602E-01 -.384E-01 0.572E+01
   -.681E+01 0.160E+01 -.166E+04   0.692E+01 -.163E+01 0.165E+04   -.110E+00 0.338E-01 0.585E+01
   0.883E-01 0.315E-03 0.210E+04   -.912E-01 0.303E-03 -.210E+04   0.211E-02 -.492E-03 -.678E+01
   0.880E-01 0.673E-02 0.210E+04   -.905E-01 -.610E-02 -.210E+04   0.185E-02 -.487E-03 -.677E+01
   0.315E+00 0.480E-01 0.843E+03   -.334E+00 -.384E-01 -.843E+03   0.141E-01 -.624E-02 0.507E+00
   0.294E+00 0.257E-01 0.844E+03   -.319E+00 -.133E-01 -.844E+03   0.176E-01 -.818E-02 0.429E+00
[...]
   0.667E-01 -.503E-02 0.158E+04   -.695E-01 0.473E-02 -.158E+04   0.394E-02 0.445E-03 0.361E+01
   0.667E-01 -.137E-03 0.158E+04   -.691E-01 -.358E-03 -.158E+04   0.340E-02 0.721E-03 0.361E+01
   -.356E+01 0.907E+00 -.126E+04   0.345E+01 -.866E+00 0.126E+04   0.107E+00 -.437E-01 -.516E+01
   -.805E+01 -.149E+01 -.126E+04   0.796E+01 0.148E+01 0.127E+04   0.902E-01 0.134E-01 -.525E+01
   -.222E+00 -.308E-01 -.301E+03   0.229E+00 0.338E-01 0.301E+03   -.705E-02 -.363E-02 0.224E+00
   -.376E+00 0.229E-03 -.299E+03   0.384E+00 0.387E-02 0.298E+03   -.768E-02 -.451E-02 0.456E+00
   0.198E+00 0.243E-01 0.632E+03   -.180E+00 -.383E-01 -.631E+03   -.234E-01 0.186E-01 -.117E+00
   0.190E+00 0.427E-01 0.632E+03   -.179E+00 -.582E-01 -.632E+03   -.147E-01 0.205E-01 -.623E-01
   0.667E-01 0.388E-02 0.158E+04   -.695E-01 -.443E-02 -.158E+04   0.394E-02 0.800E-03 0.361E+01
   0.665E-01 -.107E-02 0.158E+04   -.690E-01 0.585E-03 -.158E+04   0.348E-02 0.711E-03 0.361E+01
   -.363E+01 0.906E+00 -.126E+04   0.352E+01 -.864E+00 0.126E+04   0.112E+00 -.439E-01 -.516E+01
   -.805E+01 -.137E+01 -.126E+04   0.796E+01 0.136E+01 0.127E+04   0.902E-01 0.944E-02 -.525E+01
   -.222E+00 0.501E-02 -.301E+03   0.230E+00 -.300E-03 0.301E+03   -.711E-02 -.558E-02 0.224E+00
   -.381E+00 -.337E-02 -.299E+03   0.388E+00 0.727E-02 0.298E+03   -.686E-02 -.427E-02 0.456E+00
   -.214E-01 0.886E-01 0.178E+02   0.256E-12 -.242E-12 -.136E-11   0.201E-01 -.797E-01 -.178E+02

 POSITION                                       TOTAL-FORCE (eV/Angst)
      3.84718      4.11880     16.96954        -0.092957     -0.045669      0.027102
      2.52986      3.49543     17.42468         0.099818      0.044080     -0.018154
      3.84716      8.35234     16.96959        -0.090332     -0.044206      0.027072
      2.52975      7.72895     17.42476         0.107026      0.047500     -0.020060
      6.72820      6.23620     16.96966         0.092203     -0.047402      0.027234
      8.04526      5.61357     17.42632        -0.092760      0.043271     -0.018036
      6.72819      2.00264     16.96967         0.092103     -0.047280      0.027341
      8.04523      1.38001     17.42633        -0.092419      0.042962     -0.018085
      3.68024      5.06711     16.43415        -0.012099      0.030373     -0.024767
      4.39307      3.42898     16.30441         0.005638     -0.009876     -0.025397
      4.51380      4.33831     17.81623         0.015672      0.003865      0.050810
      1.86452      3.31934     16.56606        -0.031331     -0.012836     -0.045721
      1.99026      4.15495     18.12031         0.000189      0.001731      0.035466
      2.69461      2.53168     17.92864         0.004708     -0.019057      0.033676
      3.68021      0.83356     16.43408        -0.011993      0.028163     -0.023130
      4.39309      7.66254     16.30433         0.004103     -0.008783     -0.023580
      4.51399      0.10481     17.81625         0.012780      0.002856      0.048135
      1.86470      7.55302     16.56610        -0.035064     -0.014133     -0.049296
      1.99024      8.38846     18.12023        -0.001880      0.003952      0.038169
      2.69453      6.76531     17.92861         0.004960     -0.022696      0.035586
      6.18332      5.54616     16.30393        -0.005637     -0.010175     -0.024650
      6.89535      7.18449     16.43438         0.012405      0.032579     -0.025447
      6.06061      6.45550     17.81562        -0.016281      0.004166      0.050641
      0.24442      5.43743     16.56829         0.028998     -0.012326     -0.042638
      7.88065      4.64991     17.93063        -0.005222     -0.017324      0.032464
      0.11690      6.27375     18.12216        -0.002326     -0.000723      0.033081
      6.18331      1.31258     16.30394        -0.005450     -0.009905     -0.024655
      6.89543      2.95091     16.43436         0.011830      0.032229     -0.025217
      6.06055      2.22194     17.81561        -0.015921      0.004302      0.050298
      0.24438      1.20390     16.56831         0.029171     -0.012489     -0.043035
      7.88070      0.41634     17.93063        -0.005549     -0.017574      0.032568
      0.11692      2.04015     18.12217        -0.002374     -0.000246      0.033408
      2.11679      0.00000      7.50000         0.000563      0.000078      0.359718
      4.23357      2.11679      7.50000         0.000625      0.000047      0.361535
      2.11679      2.11679      9.61679         0.006485      0.004148      0.023851
      4.23357      0.00000      9.61679         0.004392      0.003527      0.035658
      2.11845      0.00261     11.74379         0.000026     -0.000459     -0.011571
      4.23588      2.11933     11.74961         0.000595     -0.001428     -0.007869
      2.11484      2.12081     13.83405        -0.002803     -0.003183      0.024671
      4.22966      0.00506     13.85909         0.002549     -0.001063     -0.008583
      2.11679      4.23357      7.50000         0.000579      0.000083      0.359730
      4.23357      6.35036      7.50000         0.000617     -0.000010      0.361543
      2.11679      6.35036      9.61679         0.006507      0.003728      0.023882
      4.23357      4.23357      9.61679         0.004509      0.003575      0.036033
      2.11842      4.23620     11.74409        -0.000186     -0.000605     -0.013125
      4.23588      6.35275     11.74964         0.000628      0.000151     -0.007920
      2.11484      6.35453     13.83411        -0.002836     -0.003079      0.024492
      4.22964      4.23862     13.85926         0.002824     -0.001035     -0.007556
      6.35036      0.00000      7.50000        -0.000633      0.000020      0.361475
      0.00000      2.11679      7.50000        -0.000572      0.000096      0.359707
      6.35036      2.11679      9.61679        -0.005523      0.003905      0.035641
      0.00000      0.00000      9.61679        -0.007332      0.003937      0.023735
      6.34741      0.00247     11.74942        -0.000942     -0.000583     -0.006559
      8.46479      2.11945     11.74392         0.000307     -0.000776     -0.012103
      6.35305      2.12176     13.85914        -0.002007     -0.000915     -0.007434
      0.00068      0.00411     13.83399         0.003832     -0.003027      0.025319
      6.35036      4.23357      7.50000        -0.000645      0.000010      0.361560
      0.00000      6.35036      7.50000        -0.000564      0.000069      0.359716
      6.35036      6.35036      9.61679        -0.005526      0.003235      0.035710
      0.00000      4.23357      9.61679        -0.007477      0.003967      0.024072
[...]
      0.00000      2.11679      9.61679        -0.003667      0.005164      0.055079
      6.35036      2.11679      7.50000         0.001138      0.000054     -0.362882
      0.00000      0.00000      7.50000         0.000979      0.000134     -0.361747
      6.35244      0.00358     13.89800         0.000504     -0.002283     -0.103285
      0.00452      2.12136     13.88914        -0.001214      0.001285     -0.101895
      6.34995      2.11916     11.74278         0.000469     -0.000697     -0.000496
      8.46599      0.00259     11.73604        -0.000011     -0.000502     -0.001405
      6.35036      4.23357      9.61679        -0.005987      0.004449      0.066422
      0.00000      6.35036      9.61679        -0.003642      0.004936      0.055174
      6.35036      6.35036      7.50000         0.001136      0.000154     -0.362883
      0.00000      4.23357      7.50000         0.000996      0.000134     -0.361773
      6.35229      4.23713     13.89841         0.003007     -0.002234     -0.104387
      0.00452      6.35531     13.88918        -0.001204     -0.002960     -0.101980
      6.34994      6.35269     11.74282         0.000476     -0.000966     -0.000673
      8.46596      4.23617     11.73620         0.000345     -0.000473     -0.000286
    total drift:                               -0.001368      0.008888     -0.011875

  FREE ENERGIE OF THE ION-ELECTRON SYSTEM (eV)
  free  energy   TOTEN  =      -417.19564255 eV

  energy  without entropy=     -417.19564255  energy(sigma->0) =     -417.19564255