 vasp.6.3.0 20Jan22 (build Apr  1 2022 16:44:48) gamma-only
 executed on        HPECrayEX_GCC date 2023.03.12  00:16:59

 INCAR:
   SYSTEM = MgO-rocksalt
   ISMEAR = 0
   SIGMA = 0.05
   EDIFF = 1E-6
   ALGO = ALL
   ISTART = 0
   IBRION = -1
   NSW = 0
   ISYM = 0
   DIPOL = 0.5 0.5 0.5
   IDIPOL = 3
   LDIPOL = .TRUE.
   LHFCALC = .TRUE.
   GGA = B5
   AEXX = 0.2
   AGGAX = 0.72
   AGGAC = 0.81
   ALDAC = 0.19
   IVDW = 1
   VDW_S6 = 1.05
   VDW_C6 = 0.14 0.70 0.63 0.70
   VDW_R0 = 1.001 1.342 1.243 1.342
   ENCUT = 520
   PREC = Accurate
   LASPH = .TRUE.
   LREAL = Auto
   ISPIN = 1
   NELM = 200
   NELMIN = 8
   NCORE = 8
   KPAR = 1
   LWAVE = .FALSE.
   LCHARG = .FALSE.

 POTCAR:    PAW_PBE H 15Jun2001
 POTCAR:    PAW_PBE O 08Apr2002
 POTCAR:    PAW_PBE Mg_pv 13Apr2007
 POTCAR:    PAW_PBE O 08Apr2002
 POTCAR:    PAW_PBE H 15Jun2001
   VRHFIN =H: ultrasoft test

   TITEL  = PAW_PBE H 15Jun2001
   POMASS =    1.000; ZVAL   =    1.000    mass and valenz
   ENMAX  =  250.000; ENMIN  =  200.000 eV

   TITEL  = PAW_PBE O 08Apr2002
   POMASS =   16.000; ZVAL   =    6.000    mass and valenz
   ENMAX  =  400.000; ENMIN  =  300.000 eV

   TITEL  = PAW_PBE Mg_pv 13Apr2007
   POMASS =   24.305; ZVAL   =    8.000    mass and valenz
   ENMAX  =  403.929; ENMIN  =  302.947 eV

[...]

 Optimization of the real space projectors (new method)

 maximal supplied QI-value         = 34.20
 optimisation between [QCUT,QGAM] = [ 11.63, 23.26] = [ 37.87,151.49] Ry
 Optimized for a Real-space Cutoff    1.21 Angstroem

   l    n(q)    QCUT    max X(q) W(low)/X(q) W(high)/X(q)  e(spline)
   0      8    11.629    19.460    0.17E-03    0.34E-03    0.21E-06
   0      8    11.629    12.209    0.16E-03    0.33E-03    0.21E-06
   1      8    11.629     4.655    0.18E-03    0.16E-03    0.26E-06
 Optimization of the real space projectors (new method)

[...]

   l    n(q)    QCUT    max X(q) W(low)/X(q) W(high)/X(q)  e(spline)
   0      8    11.635    20.381    0.10E-03    0.33E-03    0.24E-06
   0      8    11.635    15.268    0.11E-03    0.35E-03    0.26E-06
   1      7    11.635     5.964    0.24E-03    0.31E-03    0.30E-06
   1      7    11.635     5.382    0.22E-03    0.25E-03    0.26E-06
|               ----> ADVICE to this user running VASP <----                  |
|     You enforced a specific xc type in the INCAR file but a different       |
|     type was found in the POTCAR file.                                      |
|     I HOPE YOU KNOW WHAT YOU ARE DOING!                                     |

  PAW_PBE H 15Jun2001                   :
  PAW_PBE O 08Apr2002                   :
  PAW_PBE Mg_pv 13Apr2007               :
  PAW_PBE O 08Apr2002                   :

 POSCAR:  H  O Mg  O
  positions in direct lattice
 exchange correlation table for  LEXCH =       12
   RHO(1)=    0.500       N(1)  =     2000
   RHO(2)=  100.500       N(2)  =     4000

 ion  position               nearest neighbor table
   1  0.409  0.429  0.767-   9 0.98
   2  0.326  0.391  0.772-   9 0.97
   3  0.591  0.324  0.768-  10 0.98
   4  0.675  0.361  0.771-  10 0.97
   5  0.448  0.287  0.768-  11 0.98
   6  0.485  0.203  0.774-  11 0.97
   7  0.553  0.470  0.768-  12 0.98
   8  0.514  0.553  0.768-  12 0.97
   9  0.380  0.380  0.760-   2 0.97   1 0.98
  10  0.621  0.372  0.760-   4 0.97   3 0.98
  11  0.496  0.256  0.760-   6 0.97   5 0.98
  12  0.504  0.498  0.760-   8 0.97   7 0.98
  13  0.000  0.375  0.350- 141 2.14 144 2.14 151 2.14 175 2.14 224 2.14
  14  0.125  0.000  0.350- 142 2.14 143 2.14 152 2.14 159 2.14 176 2.14
  15  0.000  0.000  0.450- 147 2.14 143 2.14 142 2.14 149 2.14 173 2.14 222 2.14
  16  0.125  0.375  0.450- 144 2.14 141 2.14 150 2.14 157 2.14 174 2.14 148 2.14
  17  1.000  0.375  0.550- 228 2.14 148 2.14 155 2.14 179 2.14 141 2.14 145 2.17
  18  0.125  1.000  0.550- 156 2.14 163 2.14 147 2.14 180 2.14 142 2.14 146 2.16
  19  0.000  1.000  0.649- 147 2.12 226 2.13 146 2.13 177 2.14 153 2.14
  20  0.125  0.375  0.649- 148 2.12 161 2.12 145 2.13 154 2.14 178 2.14
  21  0.000  0.125  0.350- 149 2.14 143 2.14 151 2.14 152 2.14 232 2.14
  22  0.125  0.250  0.350- 150 2.14 144 2.14 151 2.14 152 2.14 167 2.14
  23  0.000  0.250  0.450- 151 2.14 149 2.14 150 2.14 141 2.14 230 2.14 155 2.14
  24  0.125  0.125  0.450- 156 2.14 152 2.14 150 2.14 142 2.14 149 2.14 165 2.14
  25  0.000  0.125  0.550- 156 2.13 236 2.13 147 2.14 155 2.14 149 2.14 153 2.16
  26  0.125  0.250  0.550- 171 2.13 155 2.14 148 2.14 156 2.14 150 2.14 154 2.17
  27  0.000  0.250  0.649- 155 2.12 154 2.13 234 2.13 153 2.14 145 2.14
  28  0.125  0.125  0.649- 156 2.12 169 2.13 153 2.13 154 2.14 146 2.14
  29  0.250  0.375  0.350- 157 2.14 144 2.14 160 2.14 167 2.14 191 2.14
  30  0.375  0.000  0.350- 158 2.14 159 2.14 168 2.14 192 2.14 207 2.14
  31  0.250  0.000  0.450- 163 2.14 159 2.14 142 2.14 158 2.14 165 2.14 189 2.14
  32  0.375  0.375  0.450- 160 2.14 157 2.14 166 2.14 190 2.14 205 2.14 164 2.15
  33  0.250  0.375  0.550- 164 2.12 171 2.14 195 2.14 148 2.15 157 2.15 161 2.18
  34  0.375  1.000  0.550- 172 2.13 196 2.14 211 2.14 163 2.14 158 2.14 162 2.17
  35  0.250  1.000  0.649- 163 2.12 169 2.13 193 2.14 162 2.14 146 2.14
  36  0.375  0.375  0.652- 209 2.13 170 2.15 161 2.16 194 2.17 164 2.18
  37  0.250  0.125  0.350- 165 2.14 159 2.14 152 2.14 167 2.14 168 2.14
  38  0.375  0.250  0.350- 166 2.14 160 2.14 167 2.14 168 2.14 215 2.14
  39  0.250  0.250  0.450- 171 2.14 167 2.14 165 2.14 166 2.14 150 2.14 157 2.14
  40  0.375  0.125  0.450- 172 2.13 168 2.14 166 2.14 158 2.14 165 2.14 213 2.14
  41  0.250  0.125  0.550- 171 2.14 172 2.14 156 2.14 165 2.14 163 2.14 169 2.17
  42  0.376  0.251  0.551- 219 2.13 164 2.13 170 2.14 172 2.15 171 2.15 166 2.16
  43  0.250  0.250  0.648- 171 2.11 170 2.12 154 2.14 169 2.14 161 2.15
  44  0.375  0.125  0.648- 172 2.11 170 2.12 162 2.14 169 2.14 217 2.14
  45  0.000  0.875  0.350- 173 2.14 143 2.14 176 2.14 183 2.14 256 2.14
  46  0.125  0.500  0.350- 174 2.14 144 2.14 175 2.14 184 2.14 191 2.14
  47  0.000  0.500  0.450- 175 2.14 174 2.14 141 2.14 181 2.14 254 2.14 179 2.14
  48  0.125  0.875  0.450- 180 2.14 176 2.14 142 2.14 173 2.14 182 2.14 189 2.14
  49  0.000  0.875  0.550- 260 2.14 147 2.14 187 2.14 180 2.14 173 2.14 177 2.16
  50  0.125  0.500  0.550- 195 2.13 179 2.14 148 2.14 188 2.14 174 2.14 178 2.17
  51  0.000  0.500  0.649- 179 2.12 258 2.13 178 2.13 185 2.14 145 2.14
  52  0.125  0.875  0.649- 180 2.12 146 2.13 186 2.13 177 2.13 193 2.14
  53  0.000  0.625  0.350- 181 2.14 175 2.14 183 2.14 184 2.14 264 2.14
  54  0.125  0.750  0.350- 182 2.14 176 2.14 183 2.14 184 2.14 199 2.14
  55  0.000  0.750  0.450- 187 2.14 183 2.14 182 2.14 173 2.14 181 2.14 262 2.14
  56  0.125  0.625  0.450- 188 2.14 184 2.14 182 2.14 174 2.14 181 2.14 197 2.14
  57  1.000  0.625  0.550- 268 2.13 188 2.13 187 2.14 179 2.14 181 2.14 185 2.16
  58  0.125  0.750  0.550- 203 2.14 187 2.14 188 2.14 180 2.14 182 2.14 186 2.16
  59  0.000  0.750  0.649- 187 2.12 266 2.13 186 2.13 177 2.13 185 2.14
  60  0.125  0.625  0.649- 188 2.12 201 2.13 185 2.13 178 2.14 186 2.14
[...]
 254  0.875  0.500  0.450- 126 2.14  96 2.14  47 2.14 127 2.14 136 2.14 130 2.14
 255  0.750  0.500  0.350- 127 2.14 110 2.14 126 2.14  93 2.14 133 2.14
 256  0.875  0.875  0.350- 128 2.14  94 2.14 125 2.14  45 2.14 134 2.14
 257  0.750  0.875  0.651- 139 2.13  99 2.13 132 2.14 116 2.14 129 2.16
 258  0.875  0.500  0.651-  51 2.13 140 2.14 131 2.14 100 2.14 130 2.17
 259  0.750  0.500  0.550- 131 2.11 130 2.13 127 2.14 137 2.14  97 2.14 114 2.15
 260  0.875  0.875  0.550- 132 2.12  49 2.14 138 2.14  98 2.14 128 2.14 129 2.14
 261  0.750  0.625  0.450- 133 2.14 127 2.14 120 2.14 135 2.14 136 2.14 137 2.14
 262  0.875  0.750  0.450- 134 2.14 128 2.14  55 2.14 135 2.14 136 2.14 138 2.14
 263  0.750  0.750  0.350- 135 2.14 125 2.14 133 2.14 134 2.14 118 2.14
 264  0.875  0.625  0.350- 136 2.14 126 2.14 133 2.14 134 2.14  53 2.14
 265  0.751  0.626  0.651- 140 2.13 139 2.13 124 2.14 131 2.14 137 2.17
 266  0.875  0.750  0.651-  59 2.13 132 2.13 139 2.14 140 2.14 138 2.16
 267  0.750  0.750  0.550- 139 2.12 129 2.13 135 2.14 138 2.14 137 2.14 122 2.14
 268  0.875  0.625  0.550- 140 2.12  57 2.13 136 2.14 138 2.14 137 2.14 130 2.14

IMPORTANT INFORMATION: All symmetrisations will be switched off!
NOSYMM: (Re-)initialisation of all symmetry stuff for point group C_1.

                                     Primitive cell

  volume of cell :    6254.6868

  direct lattice vectors                    reciprocal lattice vectors
    17.092227251  0.000000000  0.000000000     0.058506126  0.000000000  0.000000000
     0.000000000 17.092227251  0.000000000     0.000000000  0.058506126  0.000000000
     0.000000000  0.000000000 21.409585219     0.000000000  0.000000000  0.046708051

  length of vectors
    17.092227251 17.092227251 21.409585219     0.058506126  0.058506126  0.046708051

  position of ions in fractional coordinates (direct lattice)
     0.409076971  0.428917526  0.767209222
     0.325586001  0.390575205  0.771685312
     0.591133831  0.324266158  0.768161446
     0.675373926  0.361205236  0.771107606
     0.448488456  0.286692773  0.767903234
     0.485206472  0.202629170  0.773757645
     0.552968238  0.469718933  0.767511702
     0.514060380  0.553217635  0.768086862
     0.379767789  0.380173824  0.760268664
     0.621204608  0.372242414  0.760035662
     0.496282341  0.255995863  0.760499759
     0.503940548  0.498088864  0.759691134
     0.000000000  0.375000000  0.350310383
     0.125000000  0.000000000  0.350310383
     0.000000000  0.000000000  0.450103461
     0.125000000  0.375000000  0.450103461
     0.999998624  0.374998946  0.550118837
     0.124965415  0.999973772  0.550095936
     0.000008312  0.999896377  0.649016156
     0.124833169  0.375010242  0.648941964
     0.000000000  0.125000000  0.350310383
     0.125000000  0.250000000  0.350310383
     0.000000000  0.250000000  0.450103461
     0.125000000  0.125000000  0.450103461
     0.000004621  0.124957787  0.550098438
     0.124982932  0.250028625  0.550064426
     0.000002958  0.249844685  0.649009314
     0.124886461  0.124815911  0.648970373
     0.250000000  0.375000000  0.350310383
     0.375000000  0.000000000  0.350310383
     0.250000000  0.000000000  0.450103461
     0.375000000  0.375000000  0.450103461
     0.250488588  0.374964317  0.550377595
     0.375030634  0.999964970  0.550028282
     0.249798915  0.999894863  0.648957303
     0.375272478  0.374545643  0.652364055
     0.250000000  0.125000000  0.350310383
     0.375000000  0.250000000  0.350310383
     0.250000000  0.250000000  0.450103461
     0.375000000  0.125000000  0.450103461
     0.249951016  0.125008275  0.549959558
     0.375557703  0.250507137  0.550813598
     0.249788718  0.249596479  0.648482127
     0.374538528  0.124818390  0.648147055
     0.000000000  0.875000000  0.350310383
     0.125000000  0.500000000  0.350310383
     0.000000000  0.500000000  0.450103461
     0.125000000  0.875000000  0.450103461
     0.000003700  0.875012083  0.550092889
     0.124932418  0.499984900  0.550014215
     0.000001641  0.500182633  0.649000387
     0.124882733  0.875015599  0.649014987
[...]
     37     -44.9624      2.00000
     38     -44.9624      2.00000
     39     -44.9591      2.00000
     40     -44.9591      2.00000
     41     -44.9579      2.00000
     42     -44.9579      2.00000
     43     -44.9579      2.00000
     44     -44.9578      2.00000
     45     -44.9541      2.00000
     46     -44.9538      2.00000
     47     -44.9536      2.00000
     48     -44.9536      2.00000
     49     -44.9536      2.00000
     50     -44.9529      2.00000
     51     -44.9496      2.00000
     52     -44.9496      2.00000
     53     -44.9481      2.00000
     54     -44.9473      2.00000
     55     -44.9453      2.00000
     56     -44.9453      2.00000
     57     -44.9434      2.00000
     58     -44.9429      2.00000
     59     -44.9427      2.00000
     60     -44.9427      2.00000
[...]
   1138       9.2746      0.00000
   1139       9.3010      0.00000
   1140       9.3169      0.00000
   1141       9.3602      0.00000
   1142       9.3777      0.00000
   1143       9.4108      0.00000
   1144       9.4366      0.00000
   1145       9.5097      0.00000
   1146       9.5310      0.00000
   1147       9.5627      0.00000
   1148       9.6260      0.00000
   1149       9.6444      0.00000
   1150       9.6971      0.00000
   1151       9.7176      0.00000
   1152       9.7303      0.00000

 soft charge-density along one line, spin component           1
         0         1         2         3         4         5         6         7         8         9
 total charge-density along one line

------------------------ aborting loop EDIFF was not reached (unconverged)  ----------------------------

  DFT-D2 method for vdW energy calculation

  Parameters of vdW forcefield:
         C6(Jnm^6/mol)     R0(A)
   H        0.140          1.001
   O        0.700          1.342
   Mg       0.630          1.243
   O        0.700          1.342

  vdW correction parametrized for the method kðþ      

  IVDW =   1
  VDW_RADIUS =    50.000 A
  VDW_S6 =     1.050
  VDW_SR =     1.000
  VDW_D =    20.000
  LVDW_EWALD = F

  Number of pair interactions contributing to vdW energy: 3051193
  Edisp (eV):  -19.95282

 VOLUME and BASIS-vectors are now :
  energy-cutoff  :      520.00
  volume of cell :     6254.69
      direct lattice vectors                 reciprocal lattice vectors
    17.092227251  0.000000000  0.000000000     0.058506126  0.000000000  0.000000000
     0.000000000 17.092227251  0.000000000     0.000000000  0.058506126  0.000000000
     0.000000000  0.000000000 21.409585219     0.000000000  0.000000000  0.046708051

  length of vectors
    17.092227251 17.092227251 21.409585219     0.058506126  0.058506126  0.046708051

 FORCES acting on ions:
    Electron-Ion                     Ewald-Force                    Non-Local-Force
   -.148E+02 -.694E+02 -.273E+03   0.191E+02 0.760E+02 0.274E+03   -.428E+01 -.667E+01 -.110E+01
   0.102E+03 -.150E+02 -.276E+03   -.109E+03 0.162E+02 0.278E+03   0.783E+01 -.129E+01 -.196E+01
   0.156E+02 0.680E+02 -.275E+03   -.201E+02 -.746E+02 0.276E+03   0.438E+01 0.656E+01 -.130E+01
   -.102E+03 0.159E+02 -.276E+03   0.109E+03 -.172E+02 0.278E+03   -.783E+01 0.138E+01 -.189E+01
   0.675E+02 -.163E+02 -.273E+03   -.740E+02 0.209E+02 0.274E+03   0.652E+01 -.446E+01 -.116E+01
   0.160E+02 0.101E+03 -.278E+03   -.174E+02 -.108E+03 0.280E+03   0.139E+01 0.773E+01 -.229E+01
   -.704E+02 0.137E+02 -.275E+03   0.771E+02 -.180E+02 0.276E+03   -.674E+01 0.417E+01 -.127E+01
   -.145E+02 -.103E+03 -.274E+03   0.157E+02 0.111E+03 0.275E+03   -.124E+01 -.795E+01 -.141E+01
   0.123E+03 0.340E+02 -.158E+04   -.106E+03 -.701E+02 0.157E+04   -.156E+02 0.325E+02 0.117E+02
   -.123E+03 -.358E+02 -.158E+04   0.106E+03 0.722E+02 0.157E+04   0.152E+02 -.327E+02 0.121E+02
   -.347E+02 0.125E+03 -.158E+04   0.707E+02 -.109E+03 0.156E+04   -.324E+02 -.145E+02 0.134E+02
   0.347E+02 -.122E+03 -.159E+04   -.711E+02 0.104E+03 0.158E+04   0.327E+02 0.164E+02 0.995E+01
   -.115E-01 0.730E-01 0.202E+04   0.105E-01 -.735E-01 -.201E+04   0.704E-03 0.395E-03 -.632E+01
   0.329E+01 0.325E+01 0.202E+04   -.328E+01 -.324E+01 -.201E+04   -.576E-02 -.649E-02 -.632E+01
   -.358E-01 0.449E+01 0.683E+03   0.363E-01 -.448E+01 -.684E+03   -.304E-03 -.438E-02 0.386E+00
   0.945E+01 0.237E+00 0.694E+03   -.935E+01 -.241E+00 -.694E+03   -.665E-01 0.259E-02 0.396E+00
   -.103E+00 0.150E+00 -.639E+03   0.986E-01 -.154E+00 0.639E+03   0.441E-02 0.411E-02 -.120E+00
   0.896E+01 0.887E+01 -.648E+03   -.896E+01 -.886E+01 0.648E+03   -.476E-02 -.537E-02 -.146E+00
   -.688E-01 0.100E+02 -.198E+04   0.688E-01 -.100E+02 0.198E+04   0.250E-03 0.197E-01 0.554E+01
   0.489E+02 0.523E+00 -.196E+04   -.486E+02 -.531E+00 0.195E+04   -.324E+00 0.802E-02 0.551E+01
   -.240E-01 0.428E+01 0.202E+04   0.236E-01 -.427E+01 -.201E+04   0.300E-03 -.674E-02 -.632E+01
   0.469E+01 0.337E+01 0.202E+04   -.466E+01 -.336E+01 -.201E+04   -.208E-01 -.857E-02 -.632E+01
   -.103E+00 0.473E+01 0.689E+03   0.105E+00 -.473E+01 -.690E+03   -.139E-02 -.136E-02 0.400E+00
   0.707E+01 0.759E+01 0.689E+03   -.707E+01 -.757E+01 -.689E+03   -.496E-02 -.972E-02 0.375E+00
   -.107E+00 0.105E+02 -.646E+03   0.107E+00 -.106E+02 0.646E+03   -.388E-03 0.143E-01 -.144E+00
   0.204E+02 0.104E+02 -.634E+03   -.203E+02 -.103E+02 0.634E+03   -.124E+00 -.341E-01 -.101E+00
   -.186E+00 0.122E+02 -.197E+04   0.192E+00 -.122E+02 0.197E+04   -.377E-02 0.543E-01 0.555E+01
   0.243E+02 0.221E+02 -.197E+04   -.242E+02 -.221E+02 0.197E+04   -.982E-01 -.136E-01 0.554E+01
   0.718E+01 0.118E+00 0.203E+04   -.712E+01 -.120E+00 -.202E+04   -.390E-01 0.145E-02 -.636E+01
   0.331E+01 0.464E+01 0.202E+04   -.329E+01 -.461E+01 -.201E+04   -.965E-02 -.219E-01 -.632E+01
   0.763E+01 0.700E+01 0.689E+03   -.761E+01 -.699E+01 -.689E+03   -.847E-02 -.646E-02 0.372E+00
   0.968E+01 0.302E+00 0.715E+03   -.957E+01 -.315E+00 -.715E+03   -.687E-01 0.834E-02 0.328E+00
   0.394E+02 0.551E+00 -.607E+03   -.389E+02 -.588E+00 0.607E+03   -.485E+00 0.337E-01 0.117E+00
   0.102E+02 0.203E+02 -.633E+03   -.102E+02 -.202E+02 0.633E+03   -.393E-01 -.107E+00 -.812E-01
   0.222E+02 0.243E+02 -.197E+04   -.222E+02 -.242E+02 0.197E+04   -.131E-01 -.105E+00 0.554E+01
   0.103E+03 0.373E+01 -.176E+04   -.103E+03 -.395E+01 0.176E+04   -.635E+00 0.196E+00 0.332E+01
   0.567E+01 0.567E+01 0.202E+04   -.564E+01 -.564E+01 -.201E+04   -.221E-01 -.220E-01 -.632E+01
   0.481E+01 0.489E+01 0.203E+04   -.477E+01 -.485E+01 -.202E+04   -.278E-01 -.257E-01 -.639E+01
   0.124E+02 0.742E+01 0.701E+03   -.123E+02 -.734E+01 -.702E+03   -.811E-01 -.529E-01 0.335E+00
   0.721E+01 0.124E+02 0.702E+03   -.713E+01 -.122E+02 -.702E+03   -.550E-01 -.819E-01 0.321E+00
   0.221E+02 0.220E+02 -.626E+03   -.221E+02 -.220E+02 0.626E+03   -.233E-01 -.402E-01 -.791E-01
   0.275E+02 0.279E+02 -.582E+03   -.271E+02 -.275E+02 0.583E+03   -.391E+00 -.381E+00 -.777E+00
   0.821E+02 0.434E+02 -.192E+04   -.815E+02 -.435E+02 0.191E+04   -.528E+00 0.116E+00 0.558E+01
   0.435E+02 0.821E+02 -.191E+04   -.436E+02 -.816E+02 0.191E+04   0.828E-01 -.506E+00 0.562E+01
   -.148E-01 -.678E-01 0.202E+04   0.146E-01 0.685E-01 -.201E+04   0.157E-03 -.489E-03 -.632E+01
   0.473E+01 -.325E+01 0.202E+04   -.470E+01 0.324E+01 -.201E+04   -.196E-01 0.957E-02 -.632E+01
   0.574E-01 -.456E+01 0.689E+03   -.630E-01 0.455E+01 -.690E+03   0.332E-02 0.159E-02 0.400E+00
   0.456E+01 -.129E+00 0.683E+03   -.455E+01 0.131E+00 -.684E+03   -.334E-02 -.166E-02 0.386E+00
   -.521E-01 -.173E+00 -.652E+03   0.514E-01 0.174E+00 0.652E+03   0.853E-03 -.877E-03 -.146E+00
   0.207E+02 -.100E+02 -.633E+03   -.206E+02 0.100E+02 0.633E+03   -.955E-01 0.377E-01 -.766E-01
   -.339E-01 -.119E+02 -.197E+04   0.213E-01 0.120E+02 0.197E+04   0.102E-01 -.494E-01 0.556E+01
   0.101E+02 -.221E+00 -.198E+04   -.102E+02 0.226E+00 0.198E+04   0.217E-01 -.368E-02 0.554E+01
   -.423E-02 -.429E+01 0.202E+04   0.335E-02 0.428E+01 -.201E+04   0.591E-03 0.674E-02 -.632E+01
   0.331E+01 -.337E+01 0.202E+04   -.331E+01 0.336E+01 -.201E+04   -.547E-02 0.537E-02 -.632E+01
   -.198E-01 -.465E+01 0.684E+03   0.194E-01 0.464E+01 -.684E+03   0.313E-03 0.230E-02 0.386E+00
   0.719E+01 -.769E+01 0.689E+03   -.719E+01 0.768E+01 -.689E+03   -.211E-02 0.675E-02 0.372E+00
   -.124E-01 -.106E+02 -.646E+03   0.712E-02 0.106E+02 0.646E+03   0.443E-02 -.150E-01 -.142E+00
   0.907E+01 -.918E+01 -.648E+03   -.907E+01 0.918E+01 0.648E+03   -.122E-02 0.155E-02 -.147E+00
   -.245E-01 -.102E+02 -.198E+04   0.226E-01 0.103E+02 0.198E+04   0.143E-02 -.246E-01 0.554E+01
   0.248E+02 -.224E+02 -.197E+04   -.247E+02 0.224E+02 0.197E+04   -.949E-01 0.114E-01 0.554E+01
[...]
   -.504E+01 -.298E+01 0.152E+04   0.501E+01 0.296E+01 -.152E+04   0.403E-01 0.270E-01 0.314E+01
   -.228E+01 -.554E-01 0.152E+04   0.227E+01 0.559E-01 -.152E+04   0.549E-02 -.577E-03 0.317E+01
   -.121E+02 -.354E+00 -.150E+04   0.121E+02 0.359E+00 0.151E+04   0.205E-01 -.556E-02 -.448E+01
   -.290E+02 -.140E+02 -.149E+04   0.289E+02 0.139E+02 0.150E+04   0.663E-01 0.779E-01 -.449E+01
   -.227E+02 -.123E+02 -.450E+03   0.224E+02 0.122E+02 0.450E+03   0.278E+00 0.388E-01 0.493E+00
   -.539E+01 -.155E+00 -.483E+03   0.537E+01 0.158E+00 0.482E+03   0.168E-01 -.250E-02 0.288E+00
   -.768E+01 -.759E+01 0.522E+03   0.763E+01 0.755E+01 -.522E+03   0.533E-01 0.498E-01 0.356E-03
   -.403E+01 -.405E+01 0.514E+03   0.402E+01 0.404E+01 -.514E+03   0.147E-01 0.155E-01 -.362E-01
   -.354E+01 -.306E+01 0.152E+04   0.353E+01 0.305E+01 -.152E+04   0.119E-01 0.111E-01 0.317E+01
   -.303E+01 -.352E+01 0.152E+04   0.302E+01 0.351E+01 -.152E+04   0.116E-01 0.134E-01 0.317E+01
   -.336E+02 -.327E+02 -.149E+04   0.335E+02 0.326E+02 0.149E+04   0.906E-01 0.120E+00 -.452E+01
   -.104E+02 -.103E+02 -.151E+04   0.104E+02 0.103E+02 0.151E+04   0.319E-01 0.332E-01 -.449E+01
   -.102E+02 -.105E+02 -.476E+03   0.102E+02 0.104E+02 0.475E+03   0.422E-01 0.435E-01 0.291E+00
   -.105E+02 -.101E+02 -.476E+03   0.104E+02 0.100E+02 0.475E+03   0.304E-01 0.440E-01 0.289E+00
   -.901E-01 -.158E+01 0.326E+02   -.200E-11 -.148E-11 -.628E-10   0.819E-01 0.136E+01 -.298E+02

 POSITION                                       TOTAL-FORCE (eV/Angst)
      6.99204      7.33116     16.42563        -0.058821     -0.305449     -0.157200
      5.56499      6.67580     16.52146         0.388538     -0.129523     -0.171765
     10.10379      5.54243     16.44602         0.057256      0.289666     -0.165853
     11.54364      6.17380     16.50909        -0.385408      0.128592     -0.170763
      7.66567      4.90022     16.44049         0.287045     -0.062859     -0.162687
      8.29326      3.46338     16.56583         0.130856      0.380738     -0.188427
      9.45146      8.02854     16.43211        -0.300537      0.048410     -0.158996
      8.78644      9.45572     16.44442        -0.125166     -0.394745     -0.149482
      6.49108      6.49802     16.27704        -0.167754      0.387818      0.120320
     10.61777      6.36245     16.27205         0.170661     -0.390683      0.122550
      8.48257      4.37554     16.28198        -0.382447     -0.159752      0.142143
      8.61347      8.51345     16.26467         0.383513      0.185554      0.092147
      0.00000      6.40959      7.50000        -0.000236     -0.000109      0.619435
      2.13653      0.00000      7.50000         0.001790      0.002024      0.619377
      0.00000      0.00000      9.63653         0.000166      0.001807     -0.005870
      2.13653      6.40959      9.63653         0.027903     -0.001102      0.007547
     17.09220      6.40957     11.77782         0.000224      0.000433     -0.003387
      2.13594     17.09178     11.77733         0.000294     -0.000002     -0.004217
      0.00014     17.09046     13.89517         0.000221      0.000783     -0.233868
      2.13368      6.40976     13.89358         0.006161      0.000478     -0.236957
      0.00000      2.13653      7.50000        -0.000099      0.002206      0.620114
      2.13653      4.27306      7.50000         0.006580      0.003011      0.622432
      0.00000      4.27306      9.63653         0.001033      0.000303     -0.007159
      2.13653      2.13653      9.63653         0.000395      0.003539     -0.005588
      0.00008      2.13581     11.77738         0.000199      0.000323     -0.005128
      2.13624      4.27355     11.77665         0.001010      0.000828     -0.005084
      0.00005      4.27040     13.89502         0.001016     -0.000352     -0.238989
      2.13459      2.13338     13.89419        -0.000493     -0.000504     -0.238017
      4.27306      6.40959      7.50000         0.012816     -0.000510      0.634568
      6.40959      0.00000      7.50000         0.003312      0.006931      0.622335
      4.27306      0.00000      9.63653         0.002895      0.001514     -0.004934
      6.40959      6.40959      9.63653         0.033605     -0.003008      0.071505
      4.28141      6.40898     11.78336         0.010980     -0.000276     -0.013760
      6.41011     17.09163     11.77588         0.000288      0.000266     -0.005358
      4.26962     17.09043     13.89391        -0.000535     -0.000210     -0.237913
      6.41424      6.40182     13.96684         0.031799     -0.000640     -0.092016
      4.27306      2.13653      7.50000         0.007215      0.007259      0.622191
      6.40959      4.27306      7.50000         0.009254      0.008578      0.642617
      4.27306      4.27306      9.63653         0.036591      0.020974      0.022091
      6.40959      2.13653      9.63653         0.022036      0.036488      0.020816
      4.27222      2.13667     11.77441        -0.000751     -0.000152     -0.005838
      6.41912      4.28172     11.79269         0.010186      0.009283      0.001662
      4.26945      4.26616     13.88373         0.015632      0.004071     -0.233452
      6.40170      2.13342     13.87656         0.005967      0.015078     -0.237955
      0.00000     14.95570      7.50000        -0.000046      0.000194      0.618500
      2.13653      8.54611      7.50000         0.006160     -0.003287      0.622167
      0.00000      8.54611      9.63653        -0.001810     -0.000276     -0.007729
      2.13653     14.95570      9.63653         0.001345      0.000770     -0.005907
      0.00006     14.95591     11.77726         0.000205      0.000549     -0.002543
      2.13537      8.54586     11.77558        -0.000375     -0.000594     -0.005586
      0.00003      8.54924     13.89483        -0.001436     -0.000609     -0.239123
      2.13452     14.95597     13.89514         0.000569      0.000895     -0.233832
      0.00000     10.68264      7.50000        -0.000215     -0.002135      0.620006
      2.13653     12.81917      7.50000         0.001694     -0.001611      0.619351
      0.00000     12.81917      9.63653        -0.000083     -0.000813     -0.006248
      2.13653     10.68264      9.63653        -0.000228     -0.002080     -0.006187
     17.09220     10.68373     11.77728        -0.000405     -0.000235     -0.005430
      2.13577     12.82011     11.77728        -0.000118      0.000140     -0.004977
      0.00004     12.82163     13.89513        -0.000302     -0.000743     -0.234066
      2.13422     10.68652     13.89376        -0.000387      0.000489     -0.237921
[...]
     14.95570      8.54611      9.63653         0.019861      0.006381      0.020569
     12.81917      8.54611      7.50000         0.013105      0.008803     -0.282445
     14.95570     14.95570      7.50000         0.001743     -0.000146     -0.271192
     12.82238     14.95598     13.94034         0.001506     -0.000546     -0.158025
     14.96002      8.55079     13.94162         0.000457      0.001921     -0.160050
     12.82580      8.54762     11.77181         0.009955      0.002227      0.027186
     14.95677     14.95588     11.77273         0.000468     -0.000292      0.016667
     12.81917     10.68264      9.63653         0.016723      0.016105      0.022799
     14.95570     12.81917      9.63653         0.004772      0.004977      0.024620
     12.81917     12.81917      7.50000         0.003825      0.003627     -0.272360
     14.95570     10.68264      7.50000         0.003726      0.004336     -0.272597
     12.82870     10.69256     13.93895         0.001699      0.002875     -0.164723
     14.95895     12.82272     13.94020         0.000969      0.000132     -0.160758
     12.82087     12.82125     11.77199         0.001507      0.000372      0.019326
     14.95788     10.68441     11.77206        -0.000461      0.002268      0.019338
    total drift:                               -0.000458     -0.007295     -0.185468

  FREE ENERGIE OF THE ION-ELECTRON SYSTEM (eV)
  free  energy   TOTEN  =     -1820.52630813 eV

  energy  without entropy=    -1820.52630813  energy(sigma->0) =    -1820.52630813