 vasp.6.3.0 20Jan22 (build Apr  1 2022 16:44:48) gamma-only
 executed on        HPECrayEX_GCC date 2023.03.12  11:18:16

 INCAR:
   SYSTEM = MgO-rocksalt
   ISMEAR = 0
   SIGMA = 0.05
   EDIFF = 1E-6
   ALGO = ALL
   ISTART = 0
   IBRION = -1
   NSW = 0
   ISYM = 0
   DIPOL = 0.5 0.5 0.5
   IDIPOL = 3
   LDIPOL = .TRUE.
   LHFCALC = .TRUE.
   GGA = B5
   AEXX = 0.2
   AGGAX = 0.72
   AGGAC = 0.81
   ALDAC = 0.19
   IVDW = 1
   VDW_S6 = 1.05
   VDW_C6 = 0.63 0.70
   VDW_R0 = 1.243 1.342
   ENCUT = 520
   PREC = Accurate
   LASPH = .TRUE.
   LREAL = Auto
   ISPIN = 1
   NELM = 200
   NELMIN = 8
   NCORE = 8
   KPAR = 1
   LWAVE = .FALSE.
   LCHARG = .FALSE.

 POTCAR:    PAW_PBE Mg_pv 13Apr2007
 POTCAR:    PAW_PBE O 08Apr2002
 POTCAR:    PAW_PBE Mg_pv 13Apr2007
   VRHFIN =Mg: p6s2

   TITEL  = PAW_PBE Mg_pv 13Apr2007
   POMASS =   24.305; ZVAL   =    8.000    mass and valenz
   ENMAX  =  403.929; ENMIN  =  302.947 eV

   TITEL  = PAW_PBE O 08Apr2002
   POMASS =   16.000; ZVAL   =    6.000    mass and valenz
   ENMAX  =  400.000; ENMIN  =  300.000 eV

 Optimization of the real space projectors (new method)

 maximal supplied QI-value         = 18.90
 optimisation between [QCUT,QGAM] = [ 11.53, 23.24] = [ 37.21,151.29] Ry
 Optimized for a Real-space Cutoff    1.28 Angstroem

   l    n(q)    QCUT    max X(q) W(low)/X(q) W(high)/X(q)  e(spline)
   1      8    11.527     2.974    0.44E-04    0.56E-04    0.12E-06
   1      8    11.527     4.279    0.12E-03    0.12E-03    0.26E-06
   0      9    11.527    16.381    0.46E-04    0.64E-04    0.78E-07
   0      9    11.527     5.611    0.26E-04    0.43E-04    0.55E-07
   2      8    11.527     4.652    0.22E-03    0.72E-04    0.47E-07
 Optimization of the real space projectors (new method)

 maximal supplied QI-value         = 24.76
 optimisation between [QCUT,QGAM] = [ 11.64, 23.27] = [ 37.91,151.63] Ry
 Optimized for a Real-space Cutoff    1.14 Angstroem

   l    n(q)    QCUT    max X(q) W(low)/X(q) W(high)/X(q)  e(spline)
   0      8    11.635    20.381    0.10E-03    0.33E-03    0.24E-06
   0      8    11.635    15.268    0.11E-03    0.35E-03    0.26E-06
   1      7    11.635     5.964    0.24E-03    0.31E-03    0.30E-06
   1      7    11.635     5.382    0.22E-03    0.25E-03    0.26E-06
|               ----> ADVICE to this user running VASP <----                  |
|     You enforced a specific xc type in the INCAR file but a different       |
|     type was found in the POTCAR file.                                      |
|     I HOPE YOU KNOW WHAT YOU ARE DOING!                                     |

  PAW_PBE Mg_pv 13Apr2007               :
  PAW_PBE O 08Apr2002                   :

 POSCAR: Mg  O
  positions in direct lattice
 exchange correlation table for  LEXCH =       12
   RHO(1)=    0.500       N(1)  =     2000
   RHO(2)=  100.500       N(2)  =     4000

 ion  position               nearest neighbor table
   1  0.000  0.375  0.352- 129 2.11 132 2.11 139 2.11 163 2.11 212 2.11
   2  0.125  0.000  0.352- 130 2.11 131 2.11 140 2.11 147 2.11 164 2.11
   3  0.000  0.000  0.451- 131 2.11 130 2.11 137 2.11 161 2.11 210 2.11 135 2.11
   4  0.125  0.375  0.451- 136 2.11 132 2.11 129 2.11 138 2.11 145 2.11 162 2.11
   5  0.000  0.375  0.550- 216 2.11 136 2.11 167 2.11 143 2.11 129 2.11 133 2.15
   6  0.125  1.000  0.550- 144 2.11 151 2.11 135 2.11 168 2.11 130 2.11 134 2.15
   7  0.000  1.000  0.648- 135 2.10 134 2.11 214 2.11 165 2.11 141 2.11
   8  0.125  0.375  0.647- 149 2.09 136 2.09 133 2.11 166 2.11 142 2.11
   9  0.000  0.125  0.352- 137 2.11 131 2.11 139 2.11 140 2.11 220 2.11
  10  0.125  0.250  0.352- 138 2.11 132 2.11 139 2.11 140 2.11 155 2.11
  11  0.000  0.250  0.451- 143 2.11 139 2.11 138 2.11 129 2.11 137 2.11 218 2.11
  12  0.125  0.125  0.451- 144 2.11 140 2.11 138 2.11 130 2.11 137 2.11 153 2.11
  13  0.000  0.125  0.550- 224 2.11 144 2.11 143 2.11 135 2.11 137 2.11 141 2.15
  14  0.125  0.250  0.550- 159 2.10 143 2.11 136 2.11 138 2.11 144 2.11 142 2.15
  15  0.000  0.250  0.648- 143 2.10 222 2.11 142 2.11 141 2.11 133 2.11
  16  0.125  0.125  0.648- 144 2.10 157 2.10 141 2.11 142 2.11 134 2.11
  17  0.250  0.375  0.352- 145 2.11 132 2.11 148 2.11 155 2.11 179 2.11
  18  0.375  0.000  0.352- 146 2.11 147 2.11 156 2.11 180 2.11 195 2.11
  19  0.250  0.000  0.451- 151 2.11 147 2.11 130 2.11 146 2.11 153 2.11 177 2.11
  20  0.375  0.375  0.451- 148 2.11 145 2.11 154 2.11 178 2.11 193 2.11 152 2.12
  21  0.250  0.375  0.550- 152 2.10 159 2.11 183 2.11 145 2.12 136 2.12 149 2.14
  22  0.375  1.000  0.550- 160 2.10 184 2.11 199 2.11 146 2.11 151 2.11 150 2.15
  23  0.250  1.000  0.648- 151 2.10 157 2.10 181 2.11 150 2.11 134 2.11
  24  0.375  0.375  0.651- 197 2.12 149 2.12 158 2.13 182 2.14 152 2.16
  25  0.250  0.125  0.352- 153 2.11 147 2.11 140 2.11 155 2.11 156 2.11
  26  0.375  0.250  0.352- 154 2.11 148 2.11 155 2.11 156 2.11 203 2.11
  27  0.250  0.250  0.451- 159 2.11 155 2.11 153 2.11 154 2.11 138 2.11 145 2.11
  28  0.375  0.125  0.451- 160 2.11 156 2.11 154 2.11 146 2.11 153 2.11 201 2.11
  29  0.250  0.125  0.549- 159 2.11 160 2.11 153 2.11 144 2.11 151 2.11 157 2.15
  30  0.375  0.251  0.550- 207 2.10 152 2.10 158 2.12 159 2.13 160 2.13 154 2.13
  31  0.250  0.250  0.647- 158 2.09 159 2.09 142 2.11 149 2.11 157 2.12
  32  0.375  0.125  0.647- 160 2.08 158 2.09 150 2.11 205 2.12 157 2.12
  33  0.000  0.875  0.352- 161 2.11 131 2.11 164 2.11 171 2.11 244 2.11
  34  0.125  0.500  0.352- 162 2.11 132 2.11 163 2.11 172 2.11 179 2.11
  35  0.000  0.500  0.451- 163 2.11 162 2.11 129 2.11 169 2.11 242 2.11 167 2.11
  36  0.125  0.875  0.451- 168 2.11 164 2.11 130 2.11 161 2.11 170 2.11 177 2.11
  37  0.000  0.875  0.550- 175 2.11 135 2.11 248 2.11 168 2.11 161 2.11 165 2.15
  38  0.125  0.500  0.550- 183 2.10 136 2.11 167 2.11 162 2.11 176 2.11 166 2.15
  39  0.000  0.500  0.648- 167 2.10 166 2.11 246 2.11 173 2.11 133 2.11
  40  0.125  0.875  0.648- 168 2.10 174 2.11 134 2.11 165 2.11 181 2.11
  41  0.000  0.625  0.352- 169 2.11 163 2.11 171 2.11 172 2.11 252 2.11
  42  0.125  0.750  0.352- 170 2.11 164 2.11 171 2.11 172 2.11 187 2.11
  43  0.000  0.750  0.451- 175 2.11 171 2.11 170 2.11 161 2.11 169 2.11 250 2.11
  44  0.125  0.625  0.451- 176 2.11 172 2.11 170 2.11 162 2.11 169 2.11 185 2.11
  45  0.000  0.625  0.550- 256 2.11 176 2.11 167 2.11 175 2.11 169 2.11 173 2.15
  46  0.125  0.750  0.550- 191 2.11 176 2.11 175 2.11 168 2.11 170 2.11 174 2.15
  47  0.000  0.750  0.648- 175 2.10 174 2.11 254 2.11 165 2.11 173 2.11
  48  0.125  0.625  0.648- 176 2.10 189 2.10 166 2.11 173 2.11 174 2.11
  49  0.250  0.875  0.352- 177 2.11 164 2.11 147 2.11 180 2.11 187 2.11
  50  0.375  0.500  0.352- 178 2.11 148 2.11 179 2.11 188 2.11 227 2.11
  51  0.250  0.500  0.451- 183 2.11 179 2.11 178 2.11 145 2.11 162 2.11 185 2.11
  52  0.375  0.875  0.451- 184 2.11 180 2.11 146 2.11 177 2.11 186 2.11 225 2.11
  53  0.250  0.875  0.550- 191 2.11 151 2.11 184 2.11 168 2.11 177 2.11 181 2.15
  54  0.376  0.499  0.550- 152 2.10 231 2.10 182 2.12 192 2.13 183 2.13 178 2.13
  55  0.250  0.500  0.647- 183 2.09 182 2.09 166 2.11 149 2.11 189 2.12
  56  0.375  0.875  0.648- 184 2.10 150 2.11 190 2.11 181 2.11 229 2.11
  57  0.250  0.625  0.352- 185 2.11 179 2.11 172 2.11 187 2.11 188 2.11
  58  0.375  0.750  0.352- 186 2.11 180 2.11 187 2.11 188 2.11 235 2.11
  59  0.250  0.750  0.451- 191 2.11 187 2.11 185 2.11 186 2.11 170 2.11 177 2.11
  60  0.375  0.625  0.451- 192 2.11 188 2.11 186 2.11 178 2.11 185 2.11 233 2.11
[...]
 242  0.875  0.500  0.451- 114 2.11  84 2.11  35 2.11 115 2.11 124 2.11 118 2.11
 243  0.750  0.500  0.352- 115 2.11  98 2.11 114 2.11  81 2.11 121 2.11
 244  0.875  0.875  0.352- 116 2.11  82 2.11 113 2.11  33 2.11 122 2.11
 245  0.750  0.875  0.650-  87 2.11 127 2.11 120 2.11 104 2.11 117 2.15
 246  0.875  0.500  0.650-  39 2.11 128 2.11 119 2.11  88 2.11 118 2.15
 247  0.750  0.500  0.549- 119 2.09 118 2.10 115 2.11 125 2.11  85 2.11 102 2.13
 248  0.875  0.875  0.549- 120 2.10 116 2.11  37 2.11  86 2.11 126 2.11 117 2.11
 249  0.750  0.625  0.451- 121 2.11 115 2.11 108 2.11 123 2.11 124 2.11 125 2.11
 250  0.875  0.750  0.451- 122 2.11 116 2.11  43 2.11 123 2.11 124 2.11 126 2.11
 251  0.750  0.750  0.352- 123 2.11 113 2.11 121 2.11 122 2.11 106 2.11
 252  0.875  0.625  0.352- 124 2.11 114 2.11 121 2.11 122 2.11  41 2.11
 253  0.750  0.625  0.650- 127 2.10 128 2.11 112 2.11 119 2.12 125 2.15
 254  0.875  0.750  0.650- 120 2.11  47 2.11 128 2.11 127 2.11 126 2.15
 255  0.750  0.750  0.549- 127 2.10 117 2.11 126 2.11 123 2.11 125 2.11 110 2.11
 256  0.875  0.625  0.549- 128 2.10  45 2.11 126 2.11 124 2.11 118 2.11 125 2.11

IMPORTANT INFORMATION: All symmetrisations will be switched off!
NOSYMM: (Re-)initialisation of all symmetry stuff for point group C_1.

                                     Primitive cell

  volume of cell :    6079.2794

  direct lattice vectors                    reciprocal lattice vectors
    16.881969308  0.000000000  0.000000000     0.059234796  0.000000000  0.000000000
     0.000000000 16.881969308  0.000000000     0.000000000  0.059234796  0.000000000
     0.000000000  0.000000000 21.330738491     0.000000000  0.000000000  0.046880702

  length of vectors
    16.881969308 16.881969308 21.330738491     0.059234796  0.059234796  0.046880702

  position of ions in fractional coordinates (direct lattice)
     0.000000000  0.375000000  0.351605267
     0.125000000  0.000000000  0.351605267
     0.000000000  0.000000000  0.450535089
     0.125000000  0.375000000  0.450535089
     0.000008808  0.375018536  0.549586802
     0.124971452  0.999978444  0.549628335
     0.000003672  0.999919490  0.647797068
     0.124936914  0.375003271  0.647492343
     0.000000000  0.125000000  0.351605267
     0.125000000  0.250000000  0.351605267
     0.000000000  0.250000000  0.450535089
     0.125000000  0.125000000  0.450535089
     0.000003937  0.124963571  0.549627352
     0.124977474  0.250014811  0.549537325
     0.000002242  0.249910598  0.647727262
     0.124929818  0.124861943  0.647718410
     0.250000000  0.375000000  0.351605267
     0.375000000  0.000000000  0.351605267
     0.250000000  0.000000000  0.450535089
     0.375000000  0.375000000  0.450535089
     0.250440342  0.374965528  0.549845172
     0.375019519  0.999961109  0.549533980
     0.249870332  0.999916080  0.647705923
     0.374644803  0.374925636  0.651017521
     0.250000000  0.125000000  0.351605267
     0.375000000  0.250000000  0.351605267
     0.250000000  0.250000000  0.450535089
     0.375000000  0.125000000  0.450535089
     0.249995424  0.124995930  0.549492924
     0.375479403  0.250503784  0.550239935
     0.249915991  0.249768240  0.647050138
     0.374810520  0.124885232  0.646989309
     0.000000000  0.875000000  0.351605267
     0.125000000  0.500000000  0.351605267
     0.000000000  0.500000000  0.450535089
     0.125000000  0.875000000  0.450535089
     0.000002489  0.874994080  0.549640776
     0.124976772  0.499978421  0.549544962
     0.000014135  0.500106097  0.647752864
     0.124923381  0.874989408  0.647795667
     0.000000000  0.625000000  0.351605267
     0.125000000  0.750000000  0.351605267
[...]
   2.10985402  8.44062036 11.72219988
   0.00023863  8.44277577 13.81704694
   2.10895268 14.77154433 13.81795998
   0.00000000 10.55123082  7.50000000
   2.11024616 12.66147698  7.50000000
   0.00000000 12.66147698  9.61024616
   2.11024616 10.55123082  9.61024616
   0.00005757 10.55170279 11.72410404
   2.11004423 12.66155735 11.72410016
   0.00011834 12.66267046 13.81795984
   2.10931625 10.55311833 13.81635574
   4.22049233 14.77172314  7.50000000
   6.33073849  8.44098465  7.50000000
   4.22049233  8.44098465  9.61024616
   6.33073849 14.77172314  9.61024616
   4.21980024 14.77162723 11.72416072
   6.33994876  8.43253389 11.73756826
   4.21951284  8.44385036 13.80132191
   6.32905829 14.77175435 13.81682258
   4.22049233 10.55123082  7.50000000
   6.33073849 12.66147698  7.50000000
   4.22049233 12.66147698  9.61024616
   6.33073849 10.55123082  9.61024616
[...]
  14.77172314  8.44098465  9.61024616
  12.66147698  8.44098465  7.50000000
  14.77172314 14.77172314  7.50000000
  12.66369875 14.77160367 13.87013360
  14.77463213  8.44457437 13.87185843
  12.66814966  8.44403845 11.71530529
  14.77264247 14.77157415 11.71945103
  12.66147698 10.55123082  9.61024616
  14.77172314 12.66147698  9.61024616
  12.66147698 12.66147698  7.50000000
  14.77172314 10.55123082  7.50000000
  12.66813391 10.55871800 13.87060607
  14.77429225 12.66394353 13.87030646
  12.66316151 12.66317184 11.71912916
  14.77353776 10.55306372 11.71912031

--------------------------------------- Iteration      FINAL  ---------------------------------------

--------------------OUTCAR has been truncated-------------------------

[...]

--------------------OUTCAR has been truncated-------------------------

  DFT-D2 method for vdW energy calculation

  Parameters of vdW forcefield:
         C6(Jnm^6/mol)     R0(A)
   Mg       0.630          1.243
   O        0.700          1.342

  vdW correction parametrized for the method u±ÿ      

  IVDW =   1
  VDW_RADIUS =    50.000 A
  VDW_S6 =     1.050
  VDW_SR =     1.000
  VDW_D =    20.000
  LVDW_EWALD = F

  Number of pair interactions contributing to vdW energy: 2859921
  Edisp (eV):  -20.34218

 VOLUME and BASIS-vectors are now :
  energy-cutoff  :      520.00
  volume of cell :     6079.28
      direct lattice vectors                 reciprocal lattice vectors
    16.881969308  0.000000000  0.000000000     0.059234796  0.000000000  0.000000000
     0.000000000 16.881969308  0.000000000     0.000000000  0.059234796  0.000000000
     0.000000000  0.000000000 21.330738491     0.000000000  0.000000000  0.046880702

  length of vectors
    16.881969308 16.881969308 21.330738491     0.059234796  0.059234796  0.046880702

 FORCES acting on ions:
    Electron-Ion                     Ewald-Force                    Non-Local-Force
   -.980E-02 -.241E-01 0.207E+04   0.988E-02 0.241E-01 -.206E+04   -.716E-04 0.655E-04 -.639E+01
   -.253E+00 -.246E+00 0.207E+04   0.243E+00 0.235E+00 -.206E+04   0.691E-02 0.719E-02 -.640E+01
   -.362E-03 -.265E+00 0.687E+03   0.120E-02 0.247E+00 -.688E+03   -.559E-03 0.124E-01 0.312E+00
   -.184E+01 -.745E-01 0.687E+03   0.184E+01 0.731E-01 -.687E+03   0.693E-02 0.586E-03 0.302E+00
   -.214E-01 0.165E-01 -.691E+03   0.185E-01 -.156E-01 0.692E+03   0.208E-02 -.312E-02 -.135E+00
   -.356E+00 -.311E+00 -.691E+03   0.335E+00 0.288E+00 0.691E+03   0.100E-01 0.927E-02 -.163E+00
   0.239E-01 -.753E+00 -.205E+04   -.219E-01 0.727E+00 0.205E+04   -.199E-02 0.205E-01 0.531E+01
   0.152E+01 -.164E-01 -.205E+04   -.155E+01 0.150E-01 0.205E+04   -.605E-01 -.455E-03 0.522E+01
   -.321E-02 -.328E+00 0.207E+04   0.339E-02 0.314E+00 -.206E+04   -.124E-03 0.966E-02 -.640E+01
   -.649E+00 -.394E+00 0.207E+04   0.641E+00 0.385E+00 -.206E+04   0.554E-02 0.642E-02 -.639E+01
   0.744E-03 -.398E+00 0.687E+03   0.158E-02 0.373E+00 -.688E+03   -.154E-02 0.162E-01 0.319E+00
   -.558E+00 -.620E+00 0.687E+03   0.522E+00 0.584E+00 -.688E+03   0.237E-01 0.239E-01 0.299E+00
   0.975E-02 -.688E+00 -.691E+03   -.922E-02 0.656E+00 0.691E+03   -.272E-03 0.176E-01 -.162E+00
   -.157E+00 -.808E+00 -.691E+03   0.114E+00 0.774E+00 0.691E+03   -.217E-02 0.122E-01 -.859E-01
   0.185E-01 -.103E+01 -.205E+04   -.183E-01 0.991E+00 0.205E+04   0.235E-03 0.303E-01 0.528E+01
   0.615E-01 -.106E+01 -.205E+04   -.411E-01 0.104E+01 0.205E+04   -.364E-01 0.485E-02 0.527E+01
   -.137E+01 -.387E-01 0.207E+04   0.136E+01 0.385E-01 -.206E+04   0.236E-02 0.507E-04 -.639E+01
   -.362E+00 -.638E+00 0.207E+04   0.352E+00 0.629E+00 -.206E+04   0.644E-02 0.601E-02 -.639E+01
   -.612E+00 -.552E+00 0.687E+03   0.575E+00 0.513E+00 -.688E+03   0.244E-01 0.251E-01 0.296E+00
   -.411E+01 -.101E+00 0.681E+03   0.416E+01 0.106E+00 -.681E+03   -.234E-01 -.337E-02 0.534E+00
   -.311E+01 -.252E+00 -.693E+03   0.327E+01 0.254E+00 0.693E+03   -.228E+00 0.127E-02 -.468E-01
   -.691E+00 -.188E+00 -.690E+03   0.658E+00 0.140E+00 0.691E+03   0.112E-01 0.336E-02 -.902E-01
   -.101E+01 0.763E-01 -.205E+04   0.999E+00 -.472E-01 0.205E+04   0.320E-02 -.434E-01 0.527E+01
   -.287E+01 -.105E+01 -.208E+04   0.210E+01 0.945E+00 0.207E+04   0.498E+00 0.101E+00 0.615E+01
   -.760E+00 -.769E+00 0.207E+04   0.748E+00 0.757E+00 -.206E+04   0.816E-02 0.819E-02 -.639E+01
   -.101E+01 -.105E+01 0.207E+04   0.101E+01 0.104E+01 -.206E+04   0.101E-02 0.553E-03 -.639E+01
   -.329E+01 -.173E+01 0.686E+03   0.328E+01 0.173E+01 -.687E+03   0.648E-02 0.574E-02 0.300E+00
   -.165E+01 -.329E+01 0.686E+03   0.165E+01 0.329E+01 -.687E+03   0.371E-02 0.517E-02 0.304E+00
   -.116E+01 -.111E+01 -.689E+03   0.106E+01 0.101E+01 0.689E+03   0.486E-01 0.418E-01 -.547E-01
   -.374E+01 -.358E+01 -.695E+03   0.393E+01 0.378E+01 0.695E+03   -.229E+00 -.236E+00 -.285E+00
   0.183E+01 -.200E+01 -.205E+04   -.209E+01 0.168E+01 0.204E+04   0.346E-01 0.218E+00 0.529E+01
   -.235E+01 0.744E+00 -.205E+04   0.200E+01 -.110E+01 0.204E+04   0.237E+00 0.132E+00 0.531E+01
   -.662E-02 0.187E-01 0.207E+04   0.674E-02 -.186E-01 -.206E+04   -.751E-04 -.280E-04 -.640E+01
   -.661E+00 0.357E+00 0.207E+04   0.653E+00 -.348E+00 -.206E+04   0.534E-02 -.631E-02 -.639E+01
   -.298E-01 0.325E+00 0.687E+03   0.283E-01 -.301E+00 -.687E+03   0.114E-02 -.164E-01 0.334E+00
   -.273E+00 0.488E-01 0.687E+03   0.259E+00 -.499E-01 -.688E+03   0.104E-01 0.209E-03 0.293E+00
   -.131E-01 0.192E-01 -.691E+03   0.154E-01 -.250E-01 0.691E+03   -.141E-02 0.454E-02 -.174E+00
   -.347E+00 0.719E+00 -.691E+03   0.298E+00 -.686E+00 0.691E+03   0.568E-02 -.102E-01 -.902E-01
   0.340E-01 0.101E+01 -.205E+04   -.385E-01 -.982E+00 0.205E+04   0.239E-02 -.290E-01 0.529E+01
   -.688E+00 0.123E-01 -.205E+04   0.668E+00 -.987E-02 0.205E+04   0.153E-01 -.172E-02 0.529E+01
   -.117E-01 0.334E+00 0.207E+04   0.116E-01 -.320E+00 -.206E+04   0.157E-04 -.970E-02 -.640E+01
   -.264E+00 0.283E+00 0.207E+04   0.254E+00 -.272E+00 -.206E+04   0.662E-02 -.724E-02 -.640E+01
   -.586E-02 0.328E+00 0.687E+03   0.667E-02 -.310E+00 -.688E+03   -.562E-03 -.124E-01 0.297E+00
   -.596E+00 0.641E+00 0.687E+03   0.563E+00 -.605E+00 -.688E+03   0.219E-01 -.236E-01 0.301E+00
   -.835E-02 0.700E+00 -.691E+03   0.738E-02 -.663E+00 0.691E+03   0.854E-03 -.213E-01 -.170E+00
   -.377E+00 0.405E+00 -.691E+03   0.354E+00 -.380E+00 0.691E+03   0.986E-02 -.108E-01 -.159E+00
   0.889E-02 0.730E+00 -.205E+04   -.531E-02 -.710E+00 0.205E+04   -.284E-02 -.154E-01 0.529E+01
   0.978E-01 0.999E+00 -.205E+04   -.672E-01 -.990E+00 0.205E+04   -.458E-01 0.158E-02 0.527E+01
   -.322E+00 0.287E-01 0.207E+04   0.308E+00 -.291E-01 -.206E+04   0.955E-02 0.212E-03 -.640E+01
   -.101E+01 0.100E+01 0.207E+04   0.101E+01 -.100E+01 -.206E+04   0.409E-03 -.115E-02 -.639E+01
   -.328E+01 0.166E+01 0.686E+03   0.329E+01 -.165E+01 -.686E+03   0.166E-03 -.345E-02 0.307E+00
   -.332E+00 0.662E-01 0.687E+03   0.303E+00 -.695E-01 -.688E+03   0.189E-01 0.167E-02 0.316E+00
   -.743E+00 0.107E+00 -.691E+03   0.704E+00 -.105E+00 0.692E+03   0.244E-01 -.100E-02 -.160E+00
   -.350E+01 0.370E+01 -.695E+03   0.370E+01 -.390E+01 0.696E+03   -.235E+00 0.235E+00 -.276E+00
   0.815E+00 0.236E+01 -.205E+04   -.116E+01 -.202E+01 0.204E+04   0.131E+00 -.234E+00 0.530E+01
   -.102E+01 0.863E-01 -.205E+04   0.983E+00 -.877E-01 0.205E+04   0.281E-01 -.889E-04 0.528E+01
   -.765E+00 0.778E+00 0.207E+04   0.754E+00 -.766E+00 -.206E+04   0.754E-02 -.828E-02 -.639E+01
   -.361E+00 0.682E+00 0.207E+04   0.352E+00 -.674E+00 -.206E+04   0.647E-02 -.545E-02 -.639E+01
   -.618E+00 0.637E+00 0.687E+03   0.584E+00 -.600E+00 -.688E+03   0.226E-01 -.244E-01 0.308E+00
   -.166E+01 0.332E+01 0.686E+03   0.165E+01 -.333E+01 -.687E+03   0.463E-02 -.428E-02 0.303E+00
[...]
   0.899E+00 0.483E+00 0.155E+04   -.894E+00 -.480E+00 -.156E+04   -.598E-02 -.368E-02 0.313E+01
   0.144E+00 0.159E-01 0.156E+04   -.139E+00 -.159E-01 -.156E+04   -.351E-02 0.330E-02 0.312E+01
   0.800E+00 0.934E-01 -.156E+04   -.806E+00 -.915E-01 0.157E+04   -.230E-02 -.162E-02 -.487E+01
   0.846E+00 0.918E+00 -.157E+04   -.825E+00 -.933E+00 0.157E+04   -.519E-01 -.584E-02 -.498E+01
   0.423E+01 0.212E+01 -.509E+03   -.431E+01 -.209E+01 0.508E+03   -.110E-01 -.608E-01 0.530E+00
   0.366E+00 0.454E-01 -.512E+03   -.365E+00 -.452E-01 0.512E+03   -.665E-02 -.110E-02 0.168E+00
   0.108E+01 0.103E+01 0.515E+03   -.107E+01 -.102E+01 -.515E+03   -.644E-02 -.461E-02 -.317E-01
   0.216E+00 0.263E+00 0.515E+03   -.210E+00 -.256E+00 -.515E+03   -.463E-02 -.920E-02 -.907E-01
   0.319E+00 0.334E+00 0.155E+04   -.311E+00 -.326E+00 -.156E+04   -.105E-01 -.903E-02 0.313E+01
   0.307E+00 0.323E+00 0.155E+04   -.300E+00 -.314E+00 -.156E+04   -.518E-02 -.139E-01 0.313E+01
   0.129E+01 0.135E+01 -.157E+04   -.128E+01 -.134E+01 0.157E+04   -.624E-01 -.624E-01 -.501E+01
   0.660E+00 0.604E+00 -.156E+04   -.674E+00 -.615E+00 0.157E+04   0.385E-02 0.395E-03 -.485E+01
   0.839E+00 0.741E+00 -.512E+03   -.845E+00 -.745E+00 0.512E+03   -.867E-02 -.123E-01 0.178E+00
   0.657E+00 0.854E+00 -.513E+03   -.660E+00 -.860E+00 0.512E+03   -.130E-01 -.106E-01 0.173E+00
   -.140E-01 -.502E-01 0.798E+02   -.524E-11 0.137E-12 -.909E-11   0.152E-01 0.383E-01 -.702E+02

 POSITION                                       TOTAL-FORCE (eV/Angst)
      0.00000      6.33074      7.50000        -0.000010     -0.000027      0.466765
      2.11025      0.00000      7.50000        -0.002222     -0.002358      0.469675
      0.00000      0.00000      9.61025         0.000199     -0.004284      0.016928
      2.11025      6.33074      9.61025         0.003699     -0.000436      0.009582
      0.00015      6.33105     11.72309        -0.000600     -0.002799      0.075196
      2.10976     16.88161     11.72398        -0.009182     -0.011832      0.070449
      0.00006     16.88061     13.81799        -0.000203     -0.003032      0.026971
      2.10918      6.33079     13.81149        -0.088180     -0.001483      0.084130
      0.00000      2.11025      7.50000         0.000035     -0.003115      0.468929
      2.11025      4.22049      7.50000        -0.001755     -0.002036      0.467015
      0.00000      4.22049      9.61025         0.000589     -0.005880      0.008495
      2.11025      2.11025      9.61025        -0.008878     -0.008566      0.010038
      0.00007      2.10963     11.72396         0.000208     -0.011392      0.071629
      2.10987      4.22074     11.72204        -0.042400     -0.019897      0.069868
      0.00004      4.21898     13.81650         0.000353     -0.002145      0.044391
      2.10906      2.10792     13.81631        -0.018129     -0.008516      0.039242
      4.22049      6.33074      7.50000        -0.001009     -0.000155      0.465440
      6.33074      0.00000      7.50000        -0.002147     -0.002039      0.466484
      4.22049      0.00000      9.61025        -0.009099     -0.009867      0.010112
      6.33074      6.33074      9.61025         0.018792      0.001370      0.015057
      4.22793      6.33016     11.72860        -0.080777      0.003780     -0.010687
      6.33107     16.88131     11.72197        -0.020249     -0.040176      0.070332
      4.21830     16.88055     13.81605        -0.008387     -0.016459      0.041491
      6.32474      6.32948     13.88668        -0.212707      0.006290     -0.580904
      4.22049      2.11025      7.50000        -0.002681     -0.002496      0.466093
      6.33074      4.22049      7.50000        -0.000495     -0.000183      0.465544
      4.22049      4.22049      9.61025         0.005521     -0.000696      0.003277
      6.33074      2.11025      9.61025         0.000062      0.006494      0.004218
      4.22042      2.11018     11.72109        -0.045210     -0.046597      0.057322
      6.33883      4.22900     11.73702        -0.052645     -0.055342     -0.097463
      4.21907      4.21658     13.80206        -0.200351     -0.075714      0.098488
      6.32754      2.10831     13.80076        -0.083445     -0.192230      0.106768
      0.00000     14.77172      7.50000         0.000023     -0.000031      0.470342
      2.11025      8.44098      7.50000        -0.001840      0.002047      0.466366
      0.00000      8.44098      9.61025        -0.000273      0.006210      0.008333
      2.11025     14.77172      9.61025        -0.003320     -0.000413      0.017415
      0.00004     14.77162     11.72424         0.000752     -0.001021      0.070276
      2.10985      8.44062     11.72220        -0.039033      0.019705      0.068932
      0.00024      8.44278     13.81705        -0.001801      0.000541      0.042909
      2.10895     14.77154     13.81796        -0.003056      0.000837      0.025393
      0.00000     10.55123      7.50000        -0.000016      0.003257      0.468800
      2.11025     12.66148      7.50000        -0.002050      0.002413      0.469907
      0.00000     12.66148      9.61025         0.000173      0.004269      0.017366
      2.11025     10.55123      9.61025        -0.008277      0.008942      0.010306
      0.00006     10.55170     11.72410        -0.000031      0.013807      0.070779
      2.11004     12.66156     11.72410        -0.011951      0.012689      0.069372
      0.00012     12.66267     13.81796         0.000453      0.003195      0.025344
      2.10932     10.55312     13.81636        -0.018105      0.009828      0.040337
      4.22049     14.77172      7.50000        -0.003129     -0.000208      0.469579
      6.33074      8.44098      7.50000        -0.000194      0.000393      0.465668
      4.22049      8.44098      9.61025         0.008261     -0.000535      0.004893
      6.33074     14.77172      9.61025        -0.007447     -0.001024      0.008486
      4.21980     14.77163     11.72416        -0.011156      0.000764      0.068908
      6.33995      8.43253     11.73757        -0.053991      0.054835     -0.098300
      4.21951      8.44385     13.80132        -0.190769      0.080030      0.105649
      6.32906     14.77175     13.81682        -0.001904     -0.001142      0.042334
      4.22049     10.55123      7.50000        -0.002480      0.002893      0.466090
      6.33074     12.66148      7.50000        -0.002250      0.001926      0.467110
      4.22049     12.66148      9.61025        -0.008406      0.009330      0.011506
      6.33074     10.55123      9.61025        -0.000525     -0.006229      0.003984
[...]
     14.77172      8.44098      9.61025         0.002554     -0.000759      0.009079
     12.66148      8.44098      7.50000        -0.001911     -0.001108     -0.434612
     14.77172     14.77172      7.50000         0.001067      0.003315     -0.437169
     12.66370     14.77160     13.87013        -0.008685     -0.000478     -0.157996
     14.77463      8.44457     13.87186        -0.039291     -0.022274     -0.194209
     12.66815      8.44404     11.71531        -0.088702     -0.041194      0.054094
     14.77264     14.77157     11.71945        -0.006675     -0.000985     -0.013403
     12.66148     10.55123      9.61025        -0.001520     -0.002244      0.011695
     14.77172     12.66148      9.61025         0.000333     -0.002803      0.006893
     12.66148     12.66148      7.50000        -0.003428     -0.002931     -0.437061
     14.77172     10.55123      7.50000         0.000493     -0.006697     -0.434841
     12.66813     10.55872     13.87061        -0.060207     -0.066412     -0.198172
     14.77429     12.66394     13.87031        -0.011011     -0.011411     -0.154961
     12.66316     12.66317     11.71913        -0.017356     -0.019248     -0.013813
     14.77354     10.55306     11.71912        -0.018740     -0.018676     -0.012788
    total drift:                                0.002472     -0.005427     -0.094451

  FREE ENERGIE OF THE ION-ELECTRON SYSTEM (eV)
  free  energy   TOTEN  =     -1753.71911045 eV

  energy  without entropy=    -1753.71911045  energy(sigma->0) =    -1753.71911045