 vasp.6.3.0 20Jan22 (build Apr  1 2022 16:44:48) complex
 executed on        HPECrayEX_GCC date 2023.03.11  23:14:46

 INCAR:
   SYSTEM = MgO-rocksalt
   ISMEAR = 0
   SIGMA = 0.05
   EDIFF = 1E-6
   ALGO = ALL
   ISTART = 0
   IBRION = -1
   NSW = 0
   ISYM = 0
   DIPOL = 0.5 0.5 0.5
   IDIPOL = 3
   LDIPOL = .TRUE.
   LHFCALC = .TRUE.
   GGA = B5
   AEXX = 0.2
   AGGAX = 0.72
   AGGAC = 0.81
   ALDAC = 0.19
   IVDW = 1
   VDW_S6 = 1.05
   VDW_C6 = 1.23 0.70 0.63 0.70
   VDW_R0 = 1.397 1.342 1.243 1.342
   ENCUT = 600
   PREC = Accurate
   LASPH = .TRUE.
   LREAL = .FALSE.
   ISPIN = 1
   NELM = 200
   NELMIN = 8
   NCORE = 8
   KPAR = 1
   LWAVE = .FALSE.
   LCHARG = .FALSE.

 POTCAR:    PAW_PBE N 08Apr2002
 POTCAR:    PAW_PBE O 08Apr2002
 POTCAR:    PAW_PBE Mg_pv 13Apr2007
 POTCAR:    PAW_PBE O 08Apr2002
 POTCAR:    PAW_PBE N 08Apr2002
   VRHFIN =N: s2p3

   TITEL  = PAW_PBE N 08Apr2002
   POMASS =   14.001; ZVAL   =    5.000    mass and valenz
   ENMAX  =  400.000; ENMIN  =  300.000 eV

[...]

   TITEL  = PAW_PBE Mg_pv 13Apr2007
   POMASS =   24.305; ZVAL   =    8.000    mass and valenz
   ENMAX  =  403.929; ENMIN  =  302.947 eV

   TITEL  = PAW_PBE O 08Apr2002
   POMASS =   16.000; ZVAL   =    6.000    mass and valenz
   ENMAX  =  400.000; ENMIN  =  300.000 eV

  PAW_PBE N 08Apr2002                   :
  PAW_PBE O 08Apr2002                   :
  PAW_PBE Mg_pv 13Apr2007               :
  PAW_PBE O 08Apr2002                   :

 POSCAR:  N  O Mg  O
  positions in direct lattice
 exchange correlation table for  LEXCH =       12
   RHO(1)=    0.500       N(1)  =     2000
   RHO(2)=  100.500       N(2)  =     4000

 ion  position               nearest neighbor table
   1  0.495  0.517  0.771-   2 1.13
   2  0.471  0.596  0.813-   1 1.13   3 1.19
   3  0.446  0.679  0.857-   2 1.19
   4  0.250  0.000  0.352-  38 2.10  39 2.10  46 2.10  55 2.10  36 2.10
   5  0.500  0.250  0.352-  38 2.10  39 2.10  47 2.10  54 2.10  37 2.10
   6  0.250  0.250  0.451-  36 2.10  37 2.10  44 2.10  53 2.10  38 2.10  42 2.10
   7  0.500  0.000  0.451-  36 2.10  37 2.10  45 2.10  52 2.10  39 2.10  43 2.10
   8  0.250  0.000  0.550-  42 2.10  43 2.10  50 2.10  59 2.10  36 2.11  40 2.13
   9  0.500  0.250  0.550-  51 2.10  58 2.10  42 2.10  43 2.11  37 2.11  41 2.12
  10  0.250  0.250  0.647-  42 2.09  40 2.10  41 2.10  57 2.10  48 2.10
  11  0.500  0.000  0.647-  43 2.09  41 2.09  49 2.10  56 2.10  40 2.10
  12  0.250  0.500  0.352-  38 2.10  46 2.10  47 2.10  63 2.10  44 2.10
  13  0.500  0.750  0.352-  39 2.10  46 2.10  47 2.10  62 2.10  45 2.10
  14  0.250  0.750  0.451-  36 2.10  44 2.10  45 2.10  61 2.10  46 2.10  50 2.10
  15  0.500  0.500  0.451-  37 2.10  44 2.10  45 2.10  60 2.10  47 2.10  51 2.11
  16  0.250  0.500  0.550-  51 2.10  42 2.10  50 2.10  67 2.10  44 2.11  48 2.13
  17  0.500  0.749  0.550-  51 2.10  66 2.10  50 2.10  43 2.10  45 2.11  49 2.13
  18  0.250  0.750  0.647-  50 2.08  65 2.10  40 2.10  48 2.10  49 2.10
  19  0.500  0.499  0.649-  41 2.10  64 2.11  48 2.11  49 2.11  51 2.12
  20  0.750  0.000  0.352-  39 2.10  54 2.10  55 2.10  62 2.10  52 2.10
  21  0.000  0.250  0.352-  38 2.10  54 2.10  55 2.10  63 2.10  53 2.10
  22  0.750  0.250  0.451-  37 2.10  52 2.10  53 2.10  60 2.10  54 2.10  58 2.10
  23  0.000  0.000  0.451-  36 2.10  52 2.10  53 2.10  61 2.10  55 2.10  59 2.10
  24  0.750  0.000  0.550-  58 2.10  43 2.10  66 2.10  59 2.10  52 2.11  56 2.13
  25  1.000  0.250  0.550-  58 2.10  42 2.10  67 2.10  59 2.10  53 2.11  57 2.13
  26  0.750  0.250  0.648-  58 2.09  56 2.10  41 2.10  57 2.10  64 2.10
  27  1.000  0.000  0.647-  59 2.09  57 2.10  56 2.10  40 2.10  65 2.10
  28  0.750  0.500  0.352-  47 2.10  54 2.10  62 2.10  63 2.10  60 2.10
  29  0.000  0.750  0.352-  46 2.10  55 2.10  62 2.10  63 2.10  61 2.10
  30  0.750  0.750  0.451-  45 2.10  52 2.10  60 2.10  61 2.10  62 2.10  66 2.10
  31  0.000  0.500  0.451-  44 2.10  53 2.10  60 2.10  61 2.10  63 2.10  67 2.10
  32  0.750  0.500  0.550-  51 2.10  58 2.10  66 2.10  67 2.11  60 2.11  64 2.12
  33  1.000  0.750  0.550-  67 2.10  66 2.10  59 2.10  50 2.10  61 2.11  65 2.13
  34  0.750  0.750  0.647-  66 2.08  65 2.10  56 2.10  64 2.10  49 2.10
  35  1.000  0.500  0.647-  67 2.09  64 2.10  48 2.10  57 2.10  65 2.10
  36  0.250  0.000  0.451-   6 2.10   7 2.10  14 2.10  23 2.10   4 2.10   8 2.11
  37  0.500  0.250  0.451-   6 2.10   7 2.10  15 2.10  22 2.10   5 2.10   9 2.11
  38  0.250  0.250  0.352-   4 2.10   5 2.10  12 2.10  21 2.10   6 2.10
  39  0.500  0.000  0.352-   4 2.10   5 2.10  13 2.10  20 2.10   7 2.10
  40  0.250  1.000  0.650-  18 2.10  27 2.10  10 2.10  11 2.10   8 2.13
  41  0.500  0.249  0.649-  11 2.09  10 2.10  19 2.10  26 2.10   9 2.12
  42  0.250  0.250  0.549-  10 2.09   8 2.10  25 2.10  16 2.10   9 2.10   6 2.10
  43  0.500  1.000  0.549-  11 2.09   8 2.10  24 2.10  17 2.10   7 2.10   9 2.11
  44  0.250  0.500  0.451-   6 2.10  14 2.10  15 2.10  31 2.10  12 2.10  16 2.11
  45  0.500  0.750  0.451-   7 2.10  14 2.10  15 2.10  30 2.10  13 2.10  17 2.11
  46  0.250  0.750  0.352-   4 2.10  12 2.10  13 2.10  29 2.10  14 2.10
  47  0.500  0.500  0.352-   5 2.10  12 2.10  13 2.10  28 2.10  15 2.10
  48  0.249  0.500  0.650-  35 2.10  18 2.10  10 2.10  19 2.11  16 2.13
  49  0.500  0.751  0.650-  11 2.10  18 2.10  34 2.10  19 2.11  17 2.13
  50  0.250  0.750  0.549-  18 2.08  17 2.10  33 2.10   8 2.10  16 2.10  14 2.10
  51  0.500  0.500  0.550-  17 2.10  16 2.10  32 2.10   9 2.10  15 2.11  19 2.12
  52  0.750  0.000  0.451-   7 2.10  22 2.10  23 2.10  30 2.10  20 2.10  24 2.11
  53  0.000  0.250  0.451-   6 2.10  22 2.10  23 2.10  31 2.10  21 2.10  25 2.11
  54  0.750  0.250  0.352-   5 2.10  20 2.10  21 2.10  28 2.10  22 2.10
  55  0.000  0.000  0.352-   4 2.10  20 2.10  21 2.10  29 2.10  23 2.10
  56  0.750  1.000  0.650-  27 2.10  34 2.10  26 2.10  11 2.10  24 2.13
  57  0.000  0.250  0.650-  27 2.10  10 2.10  26 2.10  35 2.10  25 2.13
  58  0.750  0.250  0.549-  26 2.09  24 2.10  25 2.10  32 2.10   9 2.10  22 2.10
  59  0.000  1.000  0.549-  27 2.09  33 2.10   8 2.10  24 2.10  25 2.10  23 2.10
  60  0.750  0.500  0.451-  15 2.10  22 2.10  30 2.10  31 2.10  28 2.10  32 2.11
  61  0.000  0.750  0.451-  14 2.10  23 2.10  30 2.10  31 2.10  29 2.10  33 2.11
  62  0.750  0.750  0.352-  13 2.10  20 2.10  28 2.10  29 2.10  30 2.10
  63  0.000  0.500  0.352-  12 2.10  21 2.10  28 2.10  29 2.10  31 2.10
  64  0.751  0.500  0.650-  35 2.10  34 2.10  26 2.10  19 2.11  32 2.12
  65  1.000  0.750  0.650-  18 2.10  34 2.10  27 2.10  35 2.10  33 2.13
  66  0.750  0.750  0.549-  34 2.08  17 2.10  33 2.10  24 2.10  32 2.10  30 2.10
  67  0.000  0.500  0.549-  35 2.09  33 2.10  25 2.10  31 2.10  16 2.10  32 2.11

IMPORTANT INFORMATION: All symmetrisations will be switched off!
NOSYMM: (Re-)initialisation of all symmetry stuff for point group C_1.

                                     Primitive cell

  volume of cell :    1504.9259

  direct lattice vectors                    reciprocal lattice vectors
     8.404861995  0.000000000  0.000000000     0.118978753  0.000000000  0.000000000
     0.000000000  8.404861995  0.000000000     0.000000000  0.118978753  0.000000000
     0.000000000  0.000000000 21.303646496     0.000000000  0.000000000  0.046940321

  length of vectors
     8.404861995  8.404861995 21.303646496     0.118978753  0.118978753  0.046940321

  position of ions in fractional coordinates (direct lattice)
     0.494668192  0.516999772  0.771040092
     0.471130249  0.595539464  0.812803598
     0.446113157  0.678832859  0.856977092
     0.250000000  0.000000000  0.352052406
     0.500000000  0.250000000  0.352052406
     0.250000000  0.250000000  0.450684135
     0.500000000  0.000000000  0.450684135
     0.250103233  0.000075298  0.549641810
     0.500015103  0.250307081  0.549886162
     0.249997489  0.249800596  0.647487715
     0.499997865  0.000164265  0.647419413
     0.250000000  0.500000000  0.352052406
     0.500000000  0.750000000  0.352052406
     0.250000000  0.750000000  0.450684135
     0.500000000  0.500000000  0.450684135
     0.250432855  0.499851349  0.549888564
     0.500024977  0.749482687  0.549903506
     0.249669840  0.750117869  0.647168824
     0.500209165  0.499153819  0.649392945
     0.750000000  0.000000000  0.352052406
     0.000000000  0.250000000  0.352052406
     0.750000000  0.250000000  0.450684135
     0.000000000  0.000000000  0.450684135
     0.749884491  0.000043872  0.549664065
     0.999972630  0.250049359  0.549676586
     0.750000454  0.249846581  0.647518013
     0.999972127  0.000001459  0.647469677
     0.750000000  0.500000000  0.352052406
     0.000000000  0.750000000  0.352052406
     0.750000000  0.750000000  0.450684135
     0.000000000  0.500000000  0.450684135
     0.749588963  0.499862513  0.549886502
     0.999941803  0.749838981  0.549614833
     0.750236056  0.749981412  0.647313285
     0.999922522  0.499837444  0.647398113
     0.250000000  0.000000000  0.450684135
     0.500000000  0.250000000  0.450684135
     0.250000000  0.250000000  0.352052406
     0.500000000  0.000000000  0.352052406
     0.249826218  0.999880073  0.649668390
     0.499985207  0.249114897  0.649355968
     0.249887397  0.249920511  0.549451386
     0.499982779  0.999732725  0.549421276
     0.250000000  0.500000000  0.450684135
     0.500000000  0.750000000  0.450684135
     0.250000000  0.750000000  0.352052406
     0.500000000  0.500000000  0.352052406
     0.249342512  0.500040235  0.649766177
     0.499918535  0.750518115  0.650106608
     0.249997651  0.750003566  0.549473893
     0.499962729  0.500074943  0.549804290
     0.750000000  0.000000000  0.450684135
     0.000000000  0.250000000  0.450684135
     0.750000000  0.250000000  0.352052406
     0.000000000  0.000000000  0.352052406
     0.750142791  0.999868609  0.649690805
     0.000006271  0.249787517  0.649674705
     0.750103266  0.249873459  0.549435963
     0.000003254  0.999893869  0.549448953
     0.750000000  0.500000000  0.450684135
     0.000000000  0.750000000  0.450684135
     0.750000000  0.750000000  0.352052406
     0.000000000  0.500000000  0.352052406
     0.750704741  0.499981914  0.649560150
     0.999999301  0.750066899  0.649690822
     0.749973121  0.750031374  0.549482108
     0.000054940  0.500005892  0.549407954

  ion indices of the primitive-cell ions
   primitive index   ion index
                 1           1
                 2           2
                 3           3
                 4           4
                 5           5
                 6           6
                 7           7
                 8           8
                 9           9
                10          10
                11          11
                12          12
                13          13
                14          14
                15          15
                16          16
                17          17
                18          18
                19          19
                20          20
                21          21
                22          22
                23          23
                24          24
                25          25
                26          26
[...]
   0.75070474  0.49998191  0.64956015
   0.99999930  0.75006690  0.64969082
   0.74997312  0.75003137  0.54948211
   0.00005494  0.50000589  0.54940795

 position of ions in cartesian coordinates  (Angst):
   4.15761789  4.34531174 16.42596556
   3.95978472  5.00542701 17.31568053
   3.74951952  5.70549650 18.25673701
   2.10121550  0.00000000  7.50000000
   4.20243100  2.10121550  7.50000000
   2.10121550  2.10121550  9.60121550
   4.20243100  0.00000000  9.60121550
   2.10208316  0.00063287 11.70937481
   4.20255794  2.10379648 11.71458040
   2.10119439  2.09953954 13.79384939
   4.20241305  0.00138063 13.79239431
   2.10121550  4.20243100  7.50000000
   4.20243100  6.30364650  7.50000000
   2.10121550  6.30364650  9.60121550
   4.20243100  4.20243100  9.60121550
   2.10485358  4.20118161 11.71463158
   4.20264092  6.29929855 11.71494990
   2.09844055  6.30463717 13.78705586
   4.20418900  4.19531896 13.83443774
   6.30364650  0.00000000  7.50000000
   0.00000000  2.10121550  7.50000000
   6.30364650  2.10121550  9.60121550
   0.00000000  0.00000000  9.60121550
   6.30267566  0.00036874 11.70984892
   8.40463195  2.10163035 11.71011569
   6.30365031  2.09992603 13.79449485
   8.40462773  0.00001227 13.79346511
   6.30364650  4.20243100  7.50000000
   0.00000000  6.30364650  7.50000000
   6.30364650  6.30364650  9.60121550
   0.00000000  4.20243100  9.60121550
   6.30019179  4.20127543 11.71458765
   8.40437286  6.30229316 11.70880011
   6.30563051  6.30349026 13.79013340
   8.40421080  4.20106474 13.79194054
   2.10121550  0.00000000  9.60121550
   4.20243100  2.10121550  9.60121550
   2.10121550  2.10121550  7.50000000
   4.20243100  0.00000000  7.50000000
   2.09975489  8.40385403 13.84030572
   4.20230666  2.09377633 13.83364999
   2.10026909  2.10054741 11.70531809
   4.20228626  8.40261558 11.70467665
   2.10121550  4.20243100  9.60121550
   4.20243100  6.30364650  9.60121550
   2.10121550  6.30364650  7.50000000
   4.20243100  4.20243100  7.50000000
   2.09568941  4.20276917 13.84238895
   4.20174629  6.30800118 13.84964135
   2.10119575  6.30367647 11.70579759
   4.20211774  4.20306088 11.71283624
   6.30364650  0.00000000  9.60121550
   0.00000000  2.10121550  9.60121550
   6.30364650  2.10121550  7.50000000
   0.00000000  0.00000000  7.50000000
   6.30484664  8.40375767 13.84078323
   0.00005271  2.09942961 13.84044025
   6.30451443  2.10015194 11.70498952
   0.00002735  8.40396998 11.70526625
   6.30364650  4.20243100  9.60121550
   0.00000000  6.30364650  9.60121550
   6.30364650  6.30364650  7.50000000
   0.00000000  4.20243100  7.50000000
   6.30956975  4.20227899 13.83799981
   8.40485612  6.30420877 13.84078360
   6.30342058  6.30391019 11.70597258
   0.00046176  4.20248052 11.70439284

--------------------------------------- Iteration      FINAL  ---------------------------------------

--------------------OUTCAR has been truncated-------------------------

[...]

--------------------OUTCAR has been truncated-------------------------

  DFT-D2 method for vdW energy calculation

  Parameters of vdW forcefield:
         C6(Jnm^6/mol)     R0(A)
   N        1.230          1.397
   O        0.700          1.342
   Mg       0.630          1.243
   O        0.700          1.342

  vdW correction parametrized for the method        lÒ

  IVDW =   1
  VDW_RADIUS =    50.000 A
  VDW_S6 =     1.050
  VDW_SR =     1.000
  VDW_D =    20.000
  LVDW_EWALD = F

  Number of pair interactions contributing to vdW energy:  799737
  Edisp (eV):   -5.28576

 VOLUME and BASIS-vectors are now :
  energy-cutoff  :      600.00
  volume of cell :     1504.93
      direct lattice vectors                 reciprocal lattice vectors
     8.404861995  0.000000000  0.000000000     0.118978753  0.000000000  0.000000000
     0.000000000  8.404861995  0.000000000     0.000000000  0.118978753  0.000000000
     0.000000000  0.000000000 21.303646496     0.000000000  0.000000000  0.046940321

  length of vectors
     8.404861995  8.404861995 21.303646496     0.118978753  0.118978753  0.046940321

 FORCES acting on ions:
    Electron-Ion                     Ewald-Force                    Non-Local-Force
   -.531E+02 0.176E+03 -.106E+04   0.623E+02 -.207E+03 0.102E+04   -.854E+01 0.285E+02 0.380E+02
   -.387E+01 0.126E+02 -.106E+04   0.343E+01 -.111E+02 0.106E+04   0.395E+00 -.138E+01 -.140E+01
   0.542E+02 -.180E+03 -.124E+04   -.662E+02 0.220E+03 0.130E+04   0.106E+02 -.355E+02 -.476E+02
   0.197E+00 -.128E+00 0.210E+04   -.194E+00 0.129E+00 -.210E+04   -.174E-02 -.274E-03 -.641E+01
   -.446E-01 0.152E+00 0.210E+04   0.447E-01 -.149E+00 -.210E+04   -.347E-04 -.228E-02 -.642E+01
   0.602E+00 0.498E+00 0.737E+03   -.594E+00 -.477E+00 -.737E+03   -.495E-02 -.135E-01 0.380E+00
   -.144E+00 -.437E+00 0.737E+03   0.148E+00 0.420E+00 -.737E+03   -.230E-02 0.114E-01 0.352E+00
   0.390E+01 -.179E+01 -.624E+03   -.387E+01 0.182E+01 0.624E+03   -.267E-01 -.288E-01 -.151E+00
   -.522E+00 0.496E+01 -.618E+03   0.528E+00 -.486E+01 0.618E+03   -.556E-02 -.100E+00 -.452E+00
   0.205E+02 0.200E+02 -.198E+04   -.205E+02 -.201E+02 0.197E+04   -.536E-02 0.489E-01 0.555E+01
   -.237E+01 -.105E+02 -.198E+04   0.237E+01 0.106E+02 0.197E+04   -.448E-02 -.122E+00 0.551E+01
   0.205E+00 0.129E+00 0.210E+04   -.201E+00 -.129E+00 -.210E+04   -.281E-02 0.365E-03 -.642E+01
   -.496E-01 -.154E+00 0.210E+04   0.497E-01 0.150E+00 -.210E+04   -.556E-04 0.268E-02 -.642E+01
   0.662E+00 -.515E+00 0.737E+03   -.630E+00 0.492E+00 -.738E+03   -.202E-01 0.149E-01 0.402E+00
   -.155E+00 0.431E+00 0.738E+03   0.153E+00 -.425E+00 -.738E+03   0.188E-02 -.519E-02 0.450E+00
   0.573E+01 0.188E+01 -.617E+03   -.561E+01 -.191E+01 0.617E+03   -.106E+00 0.285E-01 -.274E+00
   -.754E+00 -.505E+01 -.616E+03   0.765E+00 0.493E+01 0.616E+03   -.104E-01 0.104E+00 -.145E+00
   0.274E+02 -.217E+02 -.196E+04   -.275E+02 0.217E+02 0.195E+04   0.881E-01 -.469E-01 0.558E+01
   -.491E+01 0.155E+02 -.190E+04   0.496E+01 -.157E+02 0.190E+04   -.465E-01 0.168E+00 0.507E+01
   -.197E+00 -.124E+00 0.210E+04   0.194E+00 0.124E+00 -.210E+04   0.177E-02 -.202E-03 -.641E+01
   0.444E-01 0.145E+00 0.210E+04   -.445E-01 -.142E+00 -.210E+04   0.558E-04 -.136E-02 -.641E+01
   -.600E+00 0.486E+00 0.737E+03   0.591E+00 -.472E+00 -.737E+03   0.527E-02 -.824E-02 0.371E+00
   0.140E+00 -.377E+00 0.735E+03   -.144E+00 0.386E+00 -.736E+03   0.264E-02 -.576E-02 0.382E+00
   -.388E+01 -.158E+01 -.625E+03   0.385E+01 0.160E+01 0.625E+03   0.266E-01 -.231E-01 -.153E+00
   0.493E+00 0.318E+01 -.627E+03   -.498E+00 -.315E+01 0.627E+03   0.538E-02 -.256E-01 -.163E+00
   -.202E+02 0.187E+02 -.198E+04   0.202E+02 -.187E+02 0.198E+04   0.363E-02 0.208E-01 0.555E+01
   0.213E+01 -.533E+01 -.200E+04   -.213E+01 0.536E+01 0.199E+04   0.387E-02 -.256E-01 0.551E+01
   -.205E+00 0.124E+00 0.210E+04   0.200E+00 -.124E+00 -.210E+04   0.276E-02 0.325E-03 -.642E+01
   0.493E-01 -.145E+00 0.210E+04   -.494E-01 0.143E+00 -.210E+04   0.122E-03 0.153E-02 -.640E+01
   -.660E+00 -.504E+00 0.737E+03   0.626E+00 0.487E+00 -.737E+03   0.212E-01 0.104E-01 0.401E+00
   0.152E+00 0.376E+00 0.737E+03   -.148E+00 -.389E+00 -.737E+03   -.274E-02 0.856E-02 0.347E+00
   -.569E+01 0.165E+01 -.618E+03   0.558E+01 -.168E+01 0.618E+03   0.105E+00 0.233E-01 -.362E+00
   0.708E+00 -.323E+01 -.623E+03   -.719E+00 0.320E+01 0.623E+03   0.108E-01 0.258E-01 -.127E+00
   -.264E+02 -.200E+02 -.197E+04   0.265E+02 0.200E+02 0.196E+04   -.874E-01 -.156E-01 0.557E+01
   0.317E+01 0.566E+01 -.198E+04   -.321E+01 -.570E+01 0.198E+04   0.348E-01 0.277E-01 0.551E+01
   0.530E+00 -.254E+00 0.552E+03   -.522E+00 0.256E+00 -.552E+03   -.986E-02 -.288E-02 -.550E-01
   -.859E-01 0.479E+00 0.552E+03   0.872E-01 -.492E+00 -.552E+03   -.170E-02 0.159E-01 -.102E+00
   0.145E+00 0.110E+00 0.158E+04   -.143E+00 -.107E+00 -.158E+04   -.271E-02 -.417E-02 0.312E+01
   -.350E-01 -.990E-01 0.158E+04   0.355E-01 0.984E-01 -.158E+04   -.606E-03 0.719E-03 0.312E+01
   0.109E+02 -.697E+01 -.151E+04   -.108E+02 0.699E+01 0.152E+04   -.416E-01 -.153E-01 -.457E+01
   -.187E+01 0.246E+02 -.149E+04   0.187E+01 -.245E+02 0.149E+04   0.551E-03 -.123E+00 -.462E+01
   0.328E+01 0.290E+01 -.461E+03   -.326E+01 -.289E+01 0.460E+03   -.155E-01 -.964E-02 0.308E+00
   -.457E+00 -.143E+01 -.460E+03   0.459E+00 0.146E+01 0.459E+03   -.150E-02 -.175E-01 0.319E+00
   0.591E+00 0.253E+00 0.552E+03   -.612E+00 -.252E+00 -.552E+03   0.248E-01 -.298E-03 -.109E+00
   -.108E+00 -.503E+00 0.553E+03   0.108E+00 0.529E+00 -.553E+03   -.565E-03 -.306E-01 -.115E+00
   0.152E+00 -.111E+00 0.158E+04   -.148E+00 0.107E+00 -.158E+04   -.567E-02 0.412E-02 0.312E+01
   -.363E-01 0.999E-01 0.158E+04   0.360E-01 -.990E-01 -.158E+04   0.329E-03 -.119E-02 0.311E+01
   0.293E+02 0.835E+01 -.148E+04   -.291E+02 -.836E+01 0.148E+04   -.169E+00 0.572E-02 -.457E+01
   -.358E+01 -.280E+02 -.147E+04   0.359E+01 0.278E+02 0.147E+04   -.336E-02 0.196E+00 -.450E+01
   0.360E+01 -.297E+01 -.457E+03   -.360E+01 0.296E+01 0.457E+03   0.170E-03 0.644E-02 0.414E+00
   -.513E+00 0.153E+01 -.458E+03   0.520E+00 -.155E+01 0.458E+03   -.540E-02 0.214E-01 -.115E+00
   -.529E+00 -.234E+00 0.552E+03   0.522E+00 0.238E+00 -.552E+03   0.914E-02 -.574E-02 -.641E-01
   0.826E-01 0.426E+00 0.552E+03   -.832E-01 -.415E+00 -.551E+03   0.855E-03 -.133E-01 -.716E-01
   -.145E+00 0.109E+00 0.158E+04   0.143E+00 -.106E+00 -.158E+04   0.267E-02 -.330E-02 0.312E+01
   0.349E-01 -.921E-01 0.158E+04   -.354E-01 0.938E-01 -.158E+04   0.589E-03 -.206E-02 0.312E+01
   -.107E+02 -.576E+01 -.151E+04   0.106E+02 0.577E+01 0.152E+04   0.417E-01 -.845E-02 -.456E+01
   0.160E+01 0.814E+01 -.152E+04   -.160E+01 -.810E+01 0.152E+04   0.159E-02 -.351E-01 -.456E+01
   -.325E+01 0.285E+01 -.461E+03   0.323E+01 -.283E+01 0.461E+03   0.183E-01 -.152E-01 0.294E+00
   0.438E+00 -.115E+01 -.466E+03   -.439E+00 0.116E+01 0.465E+03   0.255E-03 -.311E-02 0.282E+00
   -.586E+00 0.231E+00 0.552E+03   0.605E+00 -.232E+00 -.552E+03   -.227E-01 0.895E-03 -.106E+00
   0.102E+00 -.441E+00 0.552E+03   -.100E+00 0.436E+00 -.552E+03   -.200E-02 0.650E-02 -.435E-01
   -.152E+00 -.109E+00 0.158E+04   0.148E+00 0.107E+00 -.158E+04   0.557E-02 0.319E-02 0.312E+01
   0.360E-01 0.926E-01 0.158E+04   -.358E-01 -.941E-01 -.158E+04   -.274E-03 0.187E-02 0.312E+01
   -.281E+02 0.678E+01 -.148E+04   0.279E+02 -.678E+01 0.149E+04   0.149E+00 0.355E-02 -.459E+01
   0.275E+01 -.838E+01 -.151E+04   -.276E+01 0.834E+01 0.152E+04   0.964E-02 0.391E-01 -.456E+01
   -.356E+01 -.292E+01 -.459E+03   0.356E+01 0.290E+01 0.458E+03   0.145E-02 0.109E-01 0.372E+00
   0.477E+00 0.121E+01 -.460E+03   -.482E+00 -.122E+01 0.460E+03   0.469E-02 0.967E-02 0.320E+00
   -.316E+01 0.105E+02 0.325E+02   -.558E-12 -.313E-12 -.267E-11   0.248E+01 -.826E+01 -.273E+02

 POSITION                                       TOTAL-FORCE (eV/Angst)
      4.15762      4.34531     16.42597         0.000018      0.002583      0.008304
      3.95978      5.00543     17.31568        -0.001766      0.008408      0.012682
      3.74952      5.70550     18.25674        -0.000376      0.004369      0.003165
      2.10122      0.00000      7.50000         0.000777      0.000110      0.406231
      4.20243      2.10122      7.50000         0.000035      0.000920      0.408295
      2.10122      2.10122      9.60122         0.002978      0.006352      0.027449
      4.20243      0.00000      9.60122         0.001009     -0.004634      0.035484
      2.10208      0.00063     11.70937        -0.001756     -0.001318      0.007026
      4.20256      2.10380     11.71458         0.000061     -0.001109      0.003084
      2.10119      2.09954     13.79385         0.002160      0.002376      0.001031
      4.20241      0.00138     13.79239         0.000128      0.001324      0.005590
      2.10122      4.20243      7.50000         0.001092     -0.000035      0.409094
      4.20243      6.30365      7.50000        -0.000000     -0.000923      0.409308
      2.10122      6.30365      9.60122         0.008818     -0.006761      0.026706
      4.20243      4.20243      9.60122        -0.000486      0.001048      0.042276
      2.10485      4.20118     11.71463        -0.001086      0.000810      0.002595
      4.20264      6.29930     11.71495        -0.000247      0.001356      0.002496
      2.09844      6.30464     13.78706         0.002724     -0.002414      0.003790
      4.20419      4.19532     13.83444         0.000326     -0.000762     -0.001047
      6.30365      0.00000      7.50000        -0.000762      0.000140      0.407019
      0.00000      2.10122      7.50000        -0.000040      0.000618      0.407786
      6.30365      2.10122      9.60122        -0.003196      0.004275      0.028006
      0.00000      0.00000      9.60122        -0.001127      0.002390      0.023567
      6.30268      0.00037     11.70985         0.001393     -0.001411      0.005743
      8.40463      2.10163     11.71012         0.000550     -0.000714      0.004677
      6.30365      2.09993     13.79449        -0.001895      0.002241      0.000547
      8.40463      0.00001     13.79347        -0.000160      0.000998      0.011316
      6.30365      4.20243      7.50000        -0.001053     -0.000067      0.408784
      0.00000      6.30365      7.50000        -0.000014     -0.000609      0.405351
      6.30365      6.30365      9.60122        -0.009480     -0.005107      0.027251
      0.00000      4.20243      9.60122         0.001079     -0.003863      0.034719
      6.30019      4.20128     11.71459         0.001121      0.000506      0.002749
      8.40437      6.30229     11.70880         0.000454      0.002320      0.008652
      6.30563      6.30349     13.79013        -0.002533     -0.002345      0.002569
      8.40421      4.20106     13.79194        -0.000270     -0.000192      0.005716
      2.10122      0.00000      9.60122        -0.003606     -0.001505      0.039555
      4.20243      2.10122      9.60122        -0.000663      0.004654      0.050989
      2.10122      2.10122      7.50000        -0.000891     -0.001348     -0.494510
      4.20243      0.00000      7.50000        -0.000196      0.000294     -0.494044
      2.09975      8.40385     13.84031        -0.000564     -0.002262      0.002252
      4.20231      2.09378     13.83365        -0.000125     -0.000316      0.003104
      2.10027      2.10055     11.70532         0.000609      0.000249      0.000255
      4.20229      8.40262     11.70468         0.000084      0.000621     -0.000348
      2.10122      4.20243      9.60122         0.007284      0.000632      0.048057
      4.20243      6.30365      9.60122        -0.000321     -0.008952      0.047440
      2.10122      6.30365      7.50000        -0.001894      0.001405     -0.493644
      4.20243      4.20243      7.50000         0.000121     -0.000391     -0.496051
      2.09569      4.20277     13.84239         0.000129      0.001290      0.000958
      4.20175      6.30800     13.84964        -0.000239      0.000137     -0.000210
      2.10120      6.30368     11.70580         0.000570     -0.000685     -0.003159
      4.20212      4.20306     11.71284         0.000299     -0.000894     -0.003056
      6.30365      0.00000      9.60122         0.003373     -0.002359      0.038738
      0.00000      2.10122      9.60122         0.000422     -0.004599      0.037392
      6.30365      2.10122      7.50000         0.000895     -0.001077     -0.494723
      0.00000      0.00000      7.50000         0.000194     -0.000655     -0.492679
      6.30485      8.40376     13.84078         0.000705     -0.002382      0.002652
      0.00005      2.09943     13.84044         0.000749     -0.000617      0.003737
      6.30451      2.10015     11.70499        -0.000168      0.000119      0.001349
      0.00003      8.40397     11.70527        -0.000236      0.001033     -0.005383
      6.30365      4.20243      9.60122        -0.006661      0.000994      0.049394
      0.00000      6.30365      9.60122        -0.000419      0.002715      0.040711
      6.30365      6.30365      7.50000         0.001889      0.001096     -0.493912
      0.00000      4.20243      7.50000        -0.000089      0.000655     -0.494216
      6.30957      4.20228     13.83800         0.000060      0.001201      0.001681
      8.40486      6.30421     13.84078         0.000647      0.000807      0.002082
      6.30342      6.30391     11.70597        -0.000339     -0.000739     -0.002469
      0.00046      4.20248     11.70439        -0.000099     -0.000005      0.000047
    total drift:                               -0.000366     -0.002447      0.000426

  FREE ENERGIE OF THE ION-ELECTRON SYSTEM (eV)
  free  energy   TOTEN  =      -465.21034382 eV

  energy  without entropy=     -465.21034382  energy(sigma->0) =     -465.21034382