 vasp.6.3.0 20Jan22 (build Dec 25 2023 18:06:01) complex
 executed on        HPECrayEX_GCC date 2024.02.07  17:34:07

 INCAR:
   SYSTEM = TiO2
   ISMEAR = 0
   SIGMA = 0.05
   EDIFF = 1E-4
   ALGO = ALL
   ICHARG = 1
   IBRION = -1
   NSW = 0
   ISYM = 0
   ISIF = 2
   EDIFFG = -0.01
   DIPOL = 0.5 0.5 0.5
   IDIPOL = 3
   LDIPOL = .TRUE.
   LHFCALC = .TRUE.
   HFSCREEN = 0.2
   GGA = PE
   IVDW = 13
   VDW_S8 = 1.19528249
   VDW_A1 = 0.38663183
   VDW_A2 = 5.19133469
   ENCUT = 520
   PREC = Normal
   PRECFOCK = Fast
   LASPH = .TRUE.
   LREAL = .FALSE.
   ISPIN = 1
   NELM = 200
   NELMIN = 8
   NCORE = 4
   KPAR = 1
   NKREDX = 2
   NKREDY = 2
   LWAVE = .FALSE.
   LCHARG = .FALSE.

 POTCAR:    PAW_PBE C 08Apr2002
 POTCAR:    PAW_PBE O 08Apr2002
 POTCAR:    PAW_PBE H 15Jun2001
 POTCAR:    PAW_PBE Ti 08Apr2002
 POTCAR:    PAW_PBE O 08Apr2002
 POTCAR:    PAW_PBE C 08Apr2002
   VRHFIN =C: s2p2

   TITEL  = PAW_PBE C 08Apr2002
   POMASS =   12.011; ZVAL   =    4.000    mass and valenz
   ENMAX  =  400.000; ENMIN  =  300.000 eV

[...]

   TITEL  = PAW_PBE H 15Jun2001
   POMASS =    1.000; ZVAL   =    1.000    mass and valenz
   ENMAX  =  250.000; ENMIN  =  200.000 eV

[...]

   TITEL  = PAW_PBE O 08Apr2002
   POMASS =   16.000; ZVAL   =    6.000    mass and valenz
   ENMAX  =  400.000; ENMIN  =  300.000 eV

  PAW_PBE C 08Apr2002                   :
  PAW_PBE O 08Apr2002                   :
  PAW_PBE H 15Jun2001                   :
  PAW_PBE Ti 08Apr2002                  :
  PAW_PBE O 08Apr2002                   :

 POSCAR:  C  O  H Ti  O
  positions in direct lattice
|           W    W    AA    RRRRR   N    N  II  N    N   GGGG   !!!           |
|           W    W   A  A   R    R  NN   N  II  NN   N  G    G  !!!           |
|           W    W  A    A  R    R  N N  N  II  N N  N  G       !!!           |
|           W WW W  AAAAAA  RRRRR   N  N N  II  N  N N  G  GGG   !            |
|           WW  WW  A    A  R   R   N   NN  II  N   NN  G    G                |
|           W    W  A    A  R    R  N    N  II  N    N   GGGG   !!!           |
|     Specifying the vdW parameters                                           |
|     VDW_S8 = 1.195                                                          |
|     VDW_A1 = 0.387                                                          |
|     VDW_A2 = 5.191                                                          |
|     in the INCAR file will overwrite the defaults for hse06. Please         |
|     make sure that is what you intended.                                    |

 ion  position               nearest neighbor table
   1  0.509  0.588  0.844-   3 1.09   5 1.09   6 1.09   2 1.43
   2  0.539  0.500  0.811-   4 0.99   1 1.43  86 2.13
   3  0.425  0.596  0.842-   1 1.09
   4  0.615  0.495  0.810-   2 0.99
   5  0.532  0.564  0.881-   1 1.09
   6  0.546  0.668  0.835-   1 1.09
   7  0.750  0.625  0.264-  88 1.94 148 1.94 147 1.94  87 1.94 169 1.97  90 1.97  17 2.94  37 2.94

   8  0.000  0.750  0.264-  90 1.94 110 1.94 109 1.94  89 1.94  91 1.97  38 2.94  18 2.94
   9  0.000  0.625  0.382-  92 1.94 152 1.94 151 1.94  91 1.94  93 1.97  94 1.97  19 2.94  39 2.94

[...]

  87  0.750  0.750  0.218-   7 1.94  17 1.94
  88  0.750  0.750  0.311-   7 1.94  17 1.94  10 1.97
  89  0.098  0.625  0.264-   8 1.94  38 1.94  47 1.97
  90  0.902  0.625  0.264-   8 1.94  38 1.94   7 1.97
  91  0.000  0.750  0.336-   9 1.94  19 1.94   8 1.97
  92  0.000  0.750  0.428-   9 1.94  19 1.94  12 1.97
  93  0.848  0.625  0.382-  10 1.94  40 1.94   9 1.97
  94  0.152  0.625  0.382-  50 1.94  80 1.94   9 1.97
  95  0.750  0.750  0.454-  11 1.94  21 1.94  10 1.97
  96  0.750  0.750  0.546-  11 1.94  21 1.94  14 2.07
  97  0.098  0.625  0.500-  12 1.94  42 1.94  51 1.97
  98  0.902  0.625  0.500-  12 1.94  42 1.94  11 1.97
  99  0.000  0.750  0.572-  23 1.89  13 1.89  12 1.98
 100  0.999  0.750  0.665-  16 1.81  13 2.00  23 2.00
 101  0.850  0.625  0.618-  13 1.95  44 1.96  14 1.96
 102  0.150  0.625  0.618-  13 1.93  54 1.96  84 1.97
 103  0.754  0.751  0.690-  14 1.87  15 2.05  25 2.07
 104  0.748  0.749  0.782-  15 1.83  25 1.84
 105  0.094  0.625  0.742-  46 1.93  16 1.94  55 2.02
 106  0.907  0.624  0.743-  46 1.93  16 1.94  15 2.01
 107  0.750  0.000  0.218-  17 1.94  27 1.94
 108  0.750  0.000  0.311-  17 1.94  27 1.94  20 1.97
 109  0.098  0.875  0.264-   8 1.94  18 1.94  57 1.97
 110  0.902  0.875  0.264-   8 1.94  18 1.94  17 1.97
 111  0.000  0.000  0.336-  19 1.94  29 1.94  18 1.97
 112  0.000  0.000  0.428-  19 1.94  29 1.94  22 1.97
 113  0.848  0.875  0.382-  10 1.94  20 1.94  19 1.97
 114  0.152  0.875  0.382-  50 1.94  60 1.94  19 1.97
 115  0.750  0.000  0.454-  21 1.94  31 1.94  20 1.97
 116  0.750  0.000  0.546-  21 1.94  31 1.94  24 2.08
 117  0.098  0.875  0.500-  12 1.94  22 1.94  61 1.97
 118  0.902  0.875  0.500-  12 1.94  22 1.94  21 1.97
 119  0.000  0.000  0.572-  33 1.89  23 1.89  22 1.98
 120  1.000  1.000  0.665-  26 1.81  23 2.00  33 2.00
 121  0.850  0.876  0.618-  23 1.94  14 1.96  24 1.96
 122  0.150  0.875  0.619-  23 1.94  64 1.96  54 1.97
 123  0.750  1.000  0.690-  24 1.87  35 2.06  25 2.06
 124  0.750  1.000  0.783-  35 1.83  25 1.83
 125  0.094  0.875  0.742-  16 1.93  26 1.93  65 2.03
 126  0.907  0.875  0.743-  16 1.93  26 1.93  25 2.03
 127  0.750  0.250  0.218-  27 1.94  37 1.94
 128  0.750  0.250  0.311-  27 1.94  37 1.94  30 1.97
 129  0.098  0.125  0.264-  18 1.94  28 1.94  67 1.97
 130  0.902  0.125  0.264-  18 1.94  28 1.94  27 1.97
 131  0.000  0.250  0.336-  29 1.94  39 1.94  28 1.97
 132  0.000  0.250  0.428-  29 1.94  39 1.94  32 1.97
 133  0.848  0.125  0.382-  20 1.94  30 1.94  29 1.97
 134  0.152  0.125  0.382-  60 1.94  70 1.94  29 1.97
 135  0.750  0.250  0.454-  31 1.94  41 1.94  30 1.97
 136  0.750  0.250  0.546-  31 1.94  41 1.94  34 2.07
 137  0.098  0.125  0.500-  22 1.94  32 1.94  71 1.97
 138  0.902  0.125  0.500-  22 1.94  32 1.94  31 1.97
 139  0.000  0.250  0.572-  33 1.89  43 1.89  32 1.98
 140  1.000  0.250  0.665-  36 1.81  43 2.00  33 2.00
 141  0.850  0.125  0.618-  33 1.94  24 1.96  34 1.96
 142  0.150  0.125  0.618-  33 1.94  64 1.96  74 1.96
 143  0.753  0.250  0.690-  34 1.88  45 2.04  35 2.07
 144  0.750  0.251  0.782-  45 1.82  35 1.84
 145  0.094  0.125  0.742-  36 1.93  26 1.93  75 2.03
 146  0.907  0.125  0.742-  36 1.93  26 1.93  35 2.03
[...]
 232  0.500  0.500  0.428-  49 1.94  79 1.94  82 1.97
 233  0.348  0.375  0.382-  70 1.94  80 1.94  79 1.97
 234  0.652  0.375  0.382-  30 1.94  40 1.94  79 1.97
 235  0.250  0.500  0.454-  51 1.94  81 1.94  80 1.97
 236  0.250  0.500  0.546-  51 1.94  81 1.94  84 2.08
 237  0.598  0.375  0.500-  72 1.94  82 1.94  41 1.97
 238  0.402  0.375  0.500-  72 1.94  82 1.94  81 1.97
 239  0.500  0.500  0.572-  53 1.89  83 1.89  82 1.99
 240  0.499  0.500  0.665-  86 1.92  53 1.96  83 1.96
 241  0.349  0.375  0.619-  84 1.95  74 1.95  83 1.95
 242  0.651  0.375  0.619-  83 1.95  34 1.95  44 1.96
 243  0.250  0.500  0.690-  84 1.87  55 2.06  85 2.07
 244  0.252  0.500  0.782-  55 1.83  85 1.83
 245  0.596  0.371  0.738-  76 1.91  86 1.94  45 2.01
 246  0.407  0.374  0.741-  76 1.92  86 1.93  85 2.02

IMPORTANT INFORMATION: All symmetrisations will be switched off!
NOSYMM: (Re-)initialisation of all symmetry stuff for point group C_1.

                                     Primitive cell

  volume of cell :    4180.4259

  direct lattice vectors                    reciprocal lattice vectors
    12.939701814  0.000000000  0.000000000     0.077281534  0.000000000  0.000000000
     0.000000000 11.760793336  0.000000000     0.000000000  0.085028278  0.000000000
     0.000000000  0.000000000 27.470062065     0.000000000  0.000000000  0.036403267

  length of vectors
    12.939701814 11.760793336 27.470062065     0.077281534  0.085028278  0.036403267

  position of ions in fractional coordinates (direct lattice)
     0.508715751  0.587650973  0.844134641
     0.539099792  0.500028967  0.810965985
     0.425098181  0.595718620  0.842177150
     0.615463063  0.494876614  0.809715555
     0.531796367  0.563542014  0.880873703
     0.545785792  0.668304185  0.834654736
     0.750000000  0.625000000  0.264476291
     0.000000000  0.750000000  0.264476291
     0.000000000  0.625000000  0.382238145
     0.750000000  0.750000000  0.382238145
     0.750000000  0.625000000  0.500000000
     0.000000000  0.750000000  0.500000000
     0.000655574  0.625037840  0.615455445
     0.750551015  0.750165610  0.621382553
     0.751059446  0.626062814  0.741455910
     0.000018669  0.750204295  0.730740361
     0.750000000  0.875000000  0.264476291
     0.000000000  0.000000000  0.264476291
     0.000000000  0.875000000  0.382238145
     0.750000000  0.000000000  0.382238145
     0.750000000  0.875000000  0.500000000
     0.000000000  0.000000000  0.500000000
     0.000133302  0.875015525  0.615542843
     0.749677296  0.000030157  0.621788573
     0.749830572  0.875150212  0.742791306
     0.000230788  0.999920399  0.730725939
     0.750000000  0.125000000  0.264476291
     0.000000000  0.250000000  0.264476291
     0.000000000  0.125000000  0.382238145
     0.750000000  0.250000000  0.382238145
     0.750000000  0.125000000  0.500000000
     0.000000000  0.250000000  0.500000000
     0.999984444  0.124936024  0.615559126
     0.750088618  0.249842574  0.621398638
     0.749729163  0.124526740  0.742827649
     0.000121192  0.249717652  0.730753461
     0.750000000  0.375000000  0.264476291
     0.000000000  0.500000000  0.264476291
     0.000000000  0.375000000  0.382238145
     0.750000000  0.500000000  0.382238145
     0.750000000  0.375000000  0.500000000
     0.000000000  0.500000000  0.500000000
     0.000447942  0.374933309  0.615454248
     0.751218451  0.499956561  0.621589150
     0.751448791  0.373543975  0.741665243
     0.000979714  0.500030166  0.730651364
     0.250000000  0.625000000  0.264476291
     0.500000000  0.750000000  0.264476291
     0.500000000  0.625000000  0.382238145
     0.250000000  0.750000000  0.382238145
     0.250000000  0.625000000  0.500000000
     0.500000000  0.750000000  0.500000000
     0.500740332  0.622559070  0.616975815
     0.250601409  0.749915099  0.621725735
     0.250540728  0.625178946  0.742658057
     0.500258712  0.750464792  0.729263892
     0.250000000  0.875000000  0.264476291
     0.500000000  0.000000000  0.264476291
     0.500000000  0.875000000  0.382238145
     0.250000000  0.000000000  0.382238145
[...]
     0.500000000  0.500000000  0.428294835
     0.347775060  0.375000000  0.382238145
     0.652224940  0.375000000  0.382238145
     0.250000000  0.500000000  0.453943310
     0.250000000  0.500000000  0.546056690
     0.597775060  0.375000000  0.500000000
     0.402224940  0.375000000  0.500000000
     0.500349050  0.499872004  0.572483233
     0.499487337  0.500220406  0.665415861
     0.349450933  0.374972640  0.618505752
     0.650874230  0.375029740  0.618967107
     0.249664642  0.500255834  0.689855872
     0.251944976  0.500221244  0.782426073
     0.596211938  0.371479987  0.737719045
     0.406865012  0.374154996  0.741349503

  ion indices of the primitive-cell ions
   primitive index   ion index
[...]
   3.24192231  7.35260038 20.40086291
   6.47319857  8.82606133 20.03292438
   3.23492545 10.29069417  7.26518013
   6.46985091  0.00000000  7.26518013
   6.46985091 10.29069417 10.50010558
   3.23492545  0.00000000 10.50010558
[...]
   6.46985091  5.88039667 11.76528570
   4.50010558  4.41029750 10.50010558
   8.43959623  4.41029750 10.50010558
   3.23492545  5.88039667 12.46985091
   3.23492545  5.88039667 15.00021116
   7.73503103  4.41029750 13.73503103
   5.20467078  4.41029750 13.73503103
   6.47436751  5.87889133 15.72614995
   6.46321721  5.88298882 18.27901501
   4.52179087  4.40997573 16.99039139
   8.42211845  4.41064727 17.00306484
   3.23058602  5.88340548 18.95038363
   3.26009287  5.88299868 21.49329278
   7.71480470  4.36889936 20.26518795
   5.26471194  4.40035959 20.36491685

--------------------------------------- Iteration      FINAL  ---------------------------------------

--------------------OUTCAR has been truncated-------------------------

[...]

--------------------OUTCAR has been truncated-------------------------

  FORCE on cell =-STRESS in cart. coord.  units (eV):
  Direction    XX          YY          ZZ          XY          YZ          ZX
  Alpha Z  3345.29620  3345.29620  3345.29620
  Ewald  348687.72094353762.64379************   -72.06362   129.15282   -86.59693
  Hartree371044.17243372252.32886************   -38.60041    73.37251   -56.58134
  E(xc)   -4690.57149 -4741.52627 -4690.90895    -0.02974     0.12079    -0.02621
  Local  ************************732434.86703   104.43119  -193.08877   139.59706
  n-local -2911.31562 -2803.48506 -2965.55198    -0.87326     1.42462    -0.59354
  augment  1343.67856  1324.49749  1349.41810     0.48814    -0.80588     0.22129
  Kinetic 23609.60697 23085.23308 23673.46859     6.65530   -10.55845     3.96766
  Fock    -2148.49186 -2173.54850 -2150.35781    -0.06930     0.19118     0.06444
  vdW       -51.02480   -51.11162   -44.65266     0.00300    -0.00211     0.00466
  Total      10.39727   -42.88791   -33.38708    -0.05870    -0.19330     0.05710
  in kB       3.98483   -16.43709   -12.79583    -0.02250    -0.07408     0.02188

 VOLUME and BASIS-vectors are now :
  energy-cutoff  :      520.00
  volume of cell :     4180.43
      direct lattice vectors                 reciprocal lattice vectors
    12.939701814  0.000000000  0.000000000     0.077281534  0.000000000  0.000000000
     0.000000000 11.760793336  0.000000000     0.000000000  0.085028278  0.000000000
     0.000000000  0.000000000 27.470062065     0.000000000  0.000000000  0.036403267

  length of vectors
    12.939701814 11.760793336 27.470062065     0.077281534  0.085028278  0.036403267

 FORCES acting on ions:
    Electron-Ion                     Ewald-Force                    Non-Local-Force
   0.404E+02 -.900E+02 -.100E+04   -.432E+02 0.953E+02 0.101E+04   0.264E+01 -.497E+01 -.478E+01
   0.301E+02 0.125E+03 -.151E+04   -.525E+02 -.151E+03 0.150E+04   0.197E+02 0.227E+02 0.914E+01
   0.595E+02 -.144E+02 -.240E+03   -.655E+02 0.149E+02 0.240E+03   0.583E+01 -.543E+00 0.238E+00
   -.716E+02 0.161E+02 -.265E+03   0.796E+02 -.168E+02 0.265E+03   -.762E+01 0.642E+00 0.322E+00
   -.115E+02 0.705E+01 -.246E+03   0.131E+02 -.856E+01 0.252E+03   -.151E+01 0.144E+01 -.532E+01
   -.187E+02 -.624E+02 -.236E+03   0.212E+02 0.674E+02 0.235E+03   -.247E+01 -.487E+01 0.121E+01
   -.248E+00 -.479E-01 0.966E+03   0.246E+00 0.483E-01 -.968E+03   -.203E-03 0.211E-03 -.124E+01
   -.408E-01 -.967E-01 0.104E+04   0.421E-01 0.972E-01 -.104E+04   0.375E-03 0.200E-03 -.183E+01
   -.756E-01 -.324E-01 0.502E+03   0.805E-01 0.324E-01 -.501E+03   0.160E-02 0.677E-04 0.182E+00
   -.208E+00 -.743E-01 0.498E+03   0.201E+00 0.749E-01 -.499E+03   -.173E-02 0.438E-03 -.169E+00
   -.585E+00 -.137E+00 0.715E+01   0.550E+00 0.125E+00 -.674E+01   -.116E-01 -.659E-02 0.162E+00
   -.282E+00 -.360E+00 0.662E+01   0.297E+00 0.364E+00 -.724E+01   0.686E-03 -.119E-02 -.768E-01
   -.174E+01 -.729E+00 -.479E+03   0.169E+01 0.733E+00 0.480E+03   0.144E-01 -.562E-02 -.529E-01
   -.327E+01 -.370E+01 -.482E+03   0.328E+01 0.371E+01 0.482E+03   -.156E-01 -.597E-02 0.339E-01
   -.400E+02 -.805E+01 -.925E+03   0.401E+02 0.775E+01 0.924E+03   0.160E+00 0.744E-01 0.145E+00
   -.206E+01 -.261E+01 -.974E+03   0.207E+01 0.255E+01 0.975E+03   -.412E-01 -.808E-02 0.655E+00
   -.230E+00 -.113E+00 0.966E+03   0.227E+00 0.114E+00 -.969E+03   -.214E-03 0.622E-03 -.124E+01
   -.378E-01 -.386E-01 0.104E+04   0.391E-01 0.389E-01 -.104E+04   0.374E-03 0.130E-03 -.183E+01
   -.651E-01 -.813E-01 0.502E+03   0.699E-01 0.813E-01 -.501E+03   0.156E-02 0.500E-04 0.181E+00
   -.218E+00 -.409E-01 0.498E+03   0.211E+00 0.408E-01 -.499E+03   -.194E-02 -.761E-04 -.169E+00
   -.800E+00 -.429E+00 0.647E+01   0.775E+00 0.453E+00 -.605E+01   -.732E-02 0.139E-01 0.166E+00
   -.214E+00 -.124E+00 0.607E+01   0.228E+00 0.125E+00 -.669E+01   0.188E-02 0.151E-03 -.758E-01
   -.118E+01 -.121E+01 -.481E+03   0.117E+01 0.122E+01 0.481E+03   0.453E-02 -.725E-02 -.539E-01
   -.216E+01 -.767E+00 -.489E+03   0.218E+01 0.763E+00 0.488E+03   -.234E-01 0.156E-02 0.401E-01
   -.122E+02 -.114E+02 -.944E+03   0.122E+02 0.114E+02 0.943E+03   0.289E-01 0.126E-01 0.450E-01
   -.185E+01 -.937E+00 -.977E+03   0.184E+01 0.936E+00 0.977E+03   0.173E-01 -.112E-02 0.687E+00
   -.220E+00 0.476E-01 0.966E+03   0.218E+00 -.480E-01 -.969E+03   -.252E-03 -.262E-03 -.124E+01
   -.402E-01 0.965E-01 0.104E+04   0.415E-01 -.970E-01 -.104E+04   0.377E-03 -.193E-03 -.183E+01
   -.650E-01 0.330E-01 0.502E+03   0.699E-01 -.329E-01 -.501E+03   0.160E-02 -.330E-04 0.181E+00
   -.194E+00 0.744E-01 0.498E+03   0.187E+00 -.750E-01 -.499E+03   -.171E-02 -.445E-03 -.169E+00
   -.751E+00 0.173E+00 0.623E+01   0.724E+00 -.197E+00 -.581E+01   -.653E-02 -.141E-01 0.165E+00
   -.284E+00 0.348E+00 0.638E+01   0.301E+00 -.353E+00 -.700E+01   0.178E-02 0.160E-02 -.756E-01
   -.962E+00 0.617E+00 -.481E+03   0.954E+00 -.615E+00 0.482E+03   0.272E-02 0.534E-02 -.511E-01
   -.308E+01 0.361E+01 -.484E+03   0.311E+01 -.361E+01 0.484E+03   -.181E-01 -.802E-03 0.253E-01
   -.886E+01 0.632E+01 -.946E+03   0.887E+01 -.627E+01 0.945E+03   0.237E-01 -.478E-02 0.348E-01
   -.181E+01 0.245E+01 -.976E+03   0.181E+01 -.238E+01 0.976E+03   -.333E-01 0.716E-02 0.660E+00
   -.239E+00 0.113E+00 0.966E+03   0.237E+00 -.114E+00 -.968E+03   -.196E-03 -.596E-03 -.124E+01
   -.432E-01 0.387E-01 0.104E+04   0.445E-01 -.390E-01 -.104E+04   0.384E-03 -.146E-03 -.184E+01
   -.757E-01 0.808E-01 0.502E+03   0.808E-01 -.808E-01 -.501E+03   0.165E-02 -.107E-03 0.181E+00
   -.185E+00 0.409E-01 0.498E+03   0.178E+00 -.407E-01 -.499E+03   -.173E-02 0.590E-04 -.169E+00
   -.522E+00 0.394E+00 0.692E+01   0.486E+00 -.382E+00 -.651E+01   -.110E-01 0.686E-02 0.161E+00
   -.331E+00 0.125E+00 0.693E+01   0.347E+00 -.125E+00 -.755E+01   0.692E-03 -.296E-04 -.790E-01
   -.170E+01 0.135E+01 -.480E+03   0.168E+01 -.135E+01 0.480E+03   0.911E-02 0.479E-02 -.533E-01
   -.353E+01 0.750E+00 -.479E+03   0.350E+01 -.746E+00 0.478E+03   -.352E-01 0.307E-02 0.326E-01
   -.339E+02 0.126E+02 -.930E+03   0.339E+02 -.123E+02 0.929E+03   0.122E+00 -.977E-01 0.134E+00
   -.315E+01 0.109E+01 -.973E+03   0.310E+01 -.109E+01 0.973E+03   0.361E-01 0.305E-02 0.618E+00
   0.248E+00 -.443E-01 0.966E+03   -.246E+00 0.444E-01 -.968E+03   0.203E-03 0.847E-04 -.124E+01
   0.410E-01 -.126E+00 0.104E+04   -.423E-01 0.127E+00 -.104E+04   -.375E-03 0.353E-03 -.183E+01
   0.722E-01 0.124E-01 0.502E+03   -.768E-01 -.390E-02 -.502E+03   -.168E-02 0.245E-02 0.190E+00
   0.212E+00 -.579E-01 0.498E+03   -.205E+00 0.583E-01 -.499E+03   0.173E-02 0.234E-03 -.165E+00
   0.790E+00 -.487E-01 0.640E+01   -.754E+00 0.396E-01 -.595E+01   0.802E-02 -.494E-02 0.178E+00
   0.392E+00 -.453E+00 0.863E+01   -.398E+00 0.389E+00 -.912E+01   -.814E-02 0.112E-01 -.735E-01
   0.152E+01 -.382E+01 -.471E+03   -.157E+01 0.414E+01 0.472E+03   0.235E-01 -.113E+00 -.868E-02
   0.550E+01 -.281E+01 -.486E+03   -.554E+01 0.282E+01 0.485E+03   0.247E-02 0.427E-02 0.444E-01
   0.259E+02 -.615E+01 -.931E+03   -.259E+02 0.613E+01 0.930E+03   0.347E-01 0.399E-02 0.190E-01
   0.906E+01 -.329E+02 -.940E+03   -.908E+01 0.331E+02 0.941E+03   -.131E+00 -.473E-01 0.796E+00
   0.229E+00 -.108E+00 0.966E+03   -.227E+00 0.109E+00 -.969E+03   0.234E-03 0.537E-03 -.124E+01
   0.379E-01 -.534E-01 0.104E+04   -.392E-01 0.537E-01 -.104E+04   -.382E-03 0.150E-03 -.183E+01
   0.616E-01 -.631E-01 0.502E+03   -.660E-01 0.643E-01 -.502E+03   -.163E-02 -.401E-03 0.190E+00
   0.222E+00 -.414E-01 0.498E+03   -.215E+00 0.415E-01 -.499E+03   0.177E-02 0.115E-03 -.165E+00
[...]
   -.254E+02 0.992E-01 0.749E+03   0.298E+02 -.100E+00 -.749E+03   -.344E+01 0.149E-02 0.185E+00
   0.255E+02 0.112E+00 0.749E+03   -.299E+02 -.113E+00 -.750E+03   0.345E+01 0.156E-02 0.194E+00
   0.566E+00 0.150E+00 0.323E+03   -.544E+00 -.152E+00 -.328E+03   -.255E-01 0.385E-02 0.410E+01
   0.231E+01 0.593E+00 -.309E+03   -.228E+01 -.595E+00 0.316E+03   -.334E-01 0.158E-02 -.665E+01
   -.249E+02 0.274E+00 0.128E+02   0.301E+02 -.282E+00 -.129E+02   -.489E+01 0.280E-01 0.217E+00
   0.257E+02 0.211E+00 0.122E+02   -.309E+02 -.222E+00 -.123E+02   0.494E+01 0.325E-01 0.210E+00
   0.914E+00 0.107E+01 -.401E+03   -.924E+00 -.115E+01 0.393E+03   0.897E-02 0.729E-01 0.656E+01
   0.947E+01 0.406E+01 -.101E+04   -.995E+01 -.398E+01 0.101E+04   0.413E+00 -.620E-01 -.263E+01
   -.633E+01 0.424E+01 -.716E+03   0.101E+02 -.449E+01 0.715E+03   -.326E+01 0.217E+00 0.977E+00
   0.889E+01 0.495E+01 -.715E+03   -.123E+02 -.491E+01 0.714E+03   0.300E+01 -.301E-01 0.574E+00
   0.212E+02 0.276E+01 -.113E+04   -.213E+02 -.284E+01 0.113E+04   0.799E-01 0.619E-01 -.180E+01
   0.613E+02 0.112E+02 -.166E+04   -.611E+02 -.113E+02 0.168E+04   -.160E+00 0.765E-01 -.196E+02
   -.201E+02 0.632E+02 -.138E+04   0.268E+02 -.632E+02 0.139E+04   -.583E+01 -.537E-01 -.847E+00
   0.391E+02 0.473E+02 -.143E+04   -.459E+02 -.471E+02 0.144E+04   0.597E+01 -.187E+00 -.311E+01
   -.164E+02 -.179E+02 0.904E+02   0.718E-12 -.782E-13 0.205E-11   0.141E+02 0.149E+02 -.842E+02

 POSITION                                       TOTAL-FORCE (eV/Angst)
      6.58263      6.91124     23.18843        -0.016812      0.001237     -0.000809
      6.97579      5.88074     22.27729         0.013447     -0.005658      0.001182
      5.50064      7.00612     23.13466         0.008640     -0.011915     -0.000545
      7.96391      5.82014     22.24294        -0.011392     -0.005950     -0.003841
      6.88129      6.62770     24.19766        -0.000202     -0.006278     -0.003313
      7.06231      7.85979     22.92802        -0.005209     -0.007534      0.001200
      9.70478      7.35050      7.26518        -0.002396      0.000592     -3.960804
      0.00000      8.82060      7.26518         0.001620      0.000777      3.129163
      0.00000      7.35050     10.50011         0.006672     -0.000004      0.581661
      9.70478      8.82060     10.50011        -0.009268      0.001108     -0.869641
      9.70478      7.35050     13.73503        -0.048052     -0.019643      0.610002
      0.00000      8.82060     13.73503         0.017729      0.003502     -0.783869
      0.00848      7.35094     16.90660         0.000088      0.000211     -0.000089
      9.71191      8.82254     17.06942         0.001056     -0.000106      0.000320
      9.71849      7.36300     20.36784        -0.001774      0.002640     -0.001142
      0.00024      8.82300     20.07348         0.000660     -0.002760      0.000656
      9.70478     10.29069      7.26518        -0.002688      0.001630     -3.961545
      0.00000      0.00000      7.26518         0.001605      0.000464      3.128312
      0.00000     10.29069     10.50011         0.006431      0.000070      0.581645
      9.70478      0.00000     10.50011        -0.009692     -0.000204     -0.869049
      9.70478     10.29069     13.73503        -0.033881      0.040583      0.625044
      0.00000      0.00000     13.73503         0.018232      0.001344     -0.777553
      0.00172     10.29088     16.90900         0.001156      0.000548     -0.002298
      9.70060      0.00035     17.08057        -0.003467      0.000304      0.001259
      9.70258     10.29246     20.40452         0.002336      0.002196     -0.002542
      0.00299     11.75986     20.07309         0.001860      0.000840     -0.000063
      9.70478      1.47010      7.26518        -0.002763     -0.000722     -3.962195
      0.00000      2.94020      7.26518         0.001649     -0.000764      3.128521
      0.00000      1.47010     10.50011         0.006679      0.000035      0.581606
      9.70478      2.94020     10.50011        -0.008930     -0.001096     -0.869917
      9.70478      1.47010     13.73503        -0.034828     -0.041706      0.624338
      0.00000      2.94020     13.73503         0.020718     -0.004244     -0.782426
     12.93950      1.46935     16.90945         0.001530      0.000568     -0.002356
      9.70592      2.93835     17.06986         0.001361      0.000633     -0.000342
      9.70127      1.46453     20.40552         0.002074     -0.001770     -0.002928
      0.00157      2.93688     20.07384         0.001291      0.003563      0.000639
      9.70478      4.41030      7.26518        -0.002412     -0.001517     -3.961431
      0.00000      5.88040      7.26518         0.001709     -0.000435      3.129392
      0.00000      4.41030     10.50011         0.006921     -0.000001      0.581555
      9.70478      5.88040     10.50011        -0.008629      0.000205     -0.870364
      9.70478      4.41030     13.73503        -0.048381      0.020605      0.609985
      0.00000      5.88040     13.73503         0.018951     -0.000716     -0.786308
      0.00580      4.40951     16.90657         0.000337      0.000555      0.000188
      9.72054      5.87989     17.07509        -0.002673      0.000245      0.000592
      9.72352      4.39317     20.37359        -0.002006     -0.002313     -0.002418
      0.01268      5.88075     20.07104         0.002745      0.000284      0.002005
      3.23493      7.35050      7.26518         0.002149      0.000214     -3.958810
      6.46985      8.82060      7.26518        -0.001911      0.001348      3.138748
      6.46985      7.35050     10.50011        -0.006677      0.011838      0.607959
      3.23493      8.82060     10.50011         0.008793      0.000691     -0.850734
      3.23493      7.35050     13.73503         0.045422     -0.014838      0.671502
      6.46985      8.82060     13.73503        -0.012839     -0.057433     -0.628111
      6.47943      7.32179     16.94836        -0.000243      0.001231     -0.001078
      3.24271      8.81960     17.07884         0.000888      0.000829     -0.000177
      3.24192      7.35260     20.40086         0.003742      0.003105      0.000931
      6.47320      8.82606     20.03292        -0.001134     -0.004196      0.000816
      3.23493     10.29069      7.26518         0.002445      0.001460     -3.959606
      6.46985      0.00000      7.26518        -0.001847      0.000588      3.137513
      6.46985     10.29069     10.50011        -0.006349      0.001024      0.611177
      3.23493      0.00000     10.50011         0.009075      0.000162     -0.850179
[...]
      6.46985      5.88040     11.76529         0.002424     -0.000717     -0.148544
      4.50011      4.41030     10.50011         0.474642      0.000627      0.057973
      8.43960      4.41030     10.50011        -0.467245      0.000726      0.060528
      3.23493      5.88040     12.46985        -0.007775      0.002542     -0.081155
      3.23493      5.88040     15.00021        -0.016615     -0.000101      0.058282
      7.73503      4.41030     13.73503        -0.429895      0.025899      0.068211
      5.20467      4.41030     13.73503         0.466665      0.027718      0.072012
      6.47437      5.87889     15.72615        -0.000029      0.000279      0.002150
      6.46322      5.88299     18.27902         0.001550      0.000589     -0.007759
      4.52179      4.40998     16.99039         0.000275      0.001550      0.000688
      8.42212      4.41065     17.00306         0.000821      0.000886     -0.001223
      3.23059      5.88341     18.95038         0.002405      0.000637      0.000498
      3.26009      5.88300     21.49329        -0.000520      0.000259      0.003678
      7.71480      4.36890     20.26519         0.005220     -0.001904     -0.001199
      5.26471      4.40036     20.36492        -0.002296     -0.001213      0.000463
    total drift:                                0.028339     -0.001098      0.025089

  FREE ENERGIE OF THE ION-ELECTRON SYSTEM (eV)
  free  energy   TOTEN  =     -2655.83527181 eV

  energy  without entropy=    -2655.83527181  energy(sigma->0) =    -2655.83527181