 vasp.6.3.0 20Jan22 (build Mar 11 2022 13:48:16) complex

 executed on             LinuxIFC date 2024.08.29  04:47:47

 INCAR:
   SYSTEM = MgO-rocksalt
   ISMEAR = 0
   SIGMA = 0.05
   EDIFF = 1E-7
   ALGO = Normal
   ISTART = 0
   IBRION = 2
   NSW = 1000
   ISYM = 0
   ISIF = 2
   EDIFFG = -0.01
   DIPOL = 0.5 0.5 0.5
   IDIPOL = 3
   LDIPOL = .TRUE.
   LHFCALC = .TRUE.
   HFSCREEN = 0.2
   GGA = PE
   IVDW = 13
   VDW_S8 = 1.19528249
   VDW_A1 = 0.38663183
   VDW_A2 = 5.19133469
   ENCUT = 520
   PREC = Normal
   PRECFOCK = Fast
   LASPH = .TRUE.
   LREAL = .FALSE.
   ISPIN = 1
   NKREDX = 3
   NKREDY = 3
   NELM = 200
   NELMIN = 8
   NCORE = 8
   KPAR = 1
   LWAVE = .FALSE.
   LCHARG = .FALSE.

 POTCAR:    PAW_PBE Ti 08Apr2002
 POTCAR:    PAW_PBE O 08Apr2002
|           W    W    AA    RRRRR   N    N  II  N    N   GGGG   !!!           |
|           W    W   A  A   R    R  NN   N  II  NN   N  G    G  !!!           |
|           W    W  A    A  R    R  N N  N  II  N N  N  G       !!!           |
|           W WW W  AAAAAA  RRRRR   N  N N  II  N  N N  G  GGG   !            |
|           WW  WW  A    A  R   R   N   NN  II  N   NN  G    G                |
|           W    W  A    A  R    R  N    N  II  N    N   GGGG   !!!           |
|     For optimal performance we recommend to set                             |
|       NCORE = 2 up to number-of-cores-per-socket                            |
|     This setting can greatly improve the performance of VASP for DFT.       |
|     The default, NCORE=1 might be grossly inefficient on modern             |
|     multi-core architectures or massively parallel machines. Do your        |
|     Unfortunately you need to use the default for GW and RPA                |
|     calculations (for HF NCORE is supported but not extensively tested      |
|     yet).                                                                   |

   TITEL  = PAW_PBE Ti 08Apr2002
   POMASS =   47.880; ZVAL   =    4.000    mass and valenz
   ENMAX  =  178.330; ENMIN  =  133.747 eV

   TITEL  = PAW_PBE O 08Apr2002
   POMASS =   16.000; ZVAL   =    6.000    mass and valenz
   ENMAX  =  400.000; ENMIN  =  300.000 eV

  PAW_PBE Ti 08Apr2002                  :
  PAW_PBE O 08Apr2002                   :

 POSCAR: Ti  O
  positions in direct lattice
  velocities in cartesian coordinates
|           W    W    AA    RRRRR   N    N  II  N    N   GGGG   !!!           |
|           W    W   A  A   R    R  NN   N  II  NN   N  G    G  !!!           |
|           W    W  A    A  R    R  N N  N  II  N N  N  G       !!!           |
|           W WW W  AAAAAA  RRRRR   N  N N  II  N  N N  G  GGG   !            |
|           WW  WW  A    A  R   R   N   NN  II  N   NN  G    G                |
|           W    W  A    A  R    R  N    N  II  N    N   GGGG   !!!           |
|     Specifying the vdW parameters                                           |
|     VDW_S8 = 1.195                                                          |
|     VDW_A1 = 0.387                                                          |
|     VDW_A2 = 5.191                                                          |
|     in the INCAR file will overwrite the defaults for hse06. Please         |
|     make sure that is what you intended.                                    |

 ion  position               nearest neighbor table
   1  0.815  0.833  0.271-  85 1.92  51 1.92  53 1.92  50 1.97  52 1.97  18 3.03   4 3.03   2 3.03

   2  0.598  0.667  0.306- 116 1.92  49 1.92  52 1.92  54 1.92  53 1.97  55 1.97  33 3.03   3 3.03
                             1 3.03   7 3.06
   3  0.315  0.667  0.271- 121 1.92  55 1.92  57 1.92  49 1.97  56 1.97  36 3.03   2 3.03   4 3.03

   4  0.098  0.833  0.306-  88 1.92  50 1.92  56 1.92  58 1.92  51 1.97  57 1.97  19 3.03   1 3.03
                             3 3.03   5 3.06
   5  0.950  0.833  0.414-  59 1.92  93 1.92  61 1.92  51 1.96  60 1.97  58 1.98   8 2.99  22 3.04
                             6 3.04   4 3.06
   6  0.730  0.667  0.447-  54 1.90 124 1.92  60 1.92  62 1.96  63 1.96  61 1.99   7 2.99  37 3.04
                             5 3.04  11 3.08
   7  0.450  0.667  0.414-  63 1.92 129 1.92  65 1.92  55 1.96  64 1.97  54 1.98   6 2.99  40 3.04
                             8 3.04   2 3.06
   8  0.230  0.833  0.447-  58 1.90  96 1.92  64 1.92  66 1.96  59 1.96  65 1.99   5 2.99  23 3.04
                             7 3.04   9 3.08
   9  0.089  0.833  0.557- 101 1.92  69 1.92  67 1.92  68 1.97  66 1.98  59 1.99  12 2.95  26 3.04
                            10 3.04   8 3.08
  10  0.867  0.667  0.587-  62 1.87 132 1.92  68 1.92  71 1.94  70 1.98  69 2.00  11 2.95  41 3.04
                             9 3.04  15 3.17
  11  0.589  0.667  0.557- 137 1.92  73 1.92  71 1.92  72 1.97  62 1.98  63 1.99  10 2.95  44 3.04
                            12 3.04   6 3.08
  12  0.367  0.833  0.587-  66 1.87 104 1.92  72 1.92  67 1.94  74 1.98  73 2.00   9 2.95  27 3.04
                            11 3.04  13 3.17
  13  0.234  0.833  0.702-  75 1.85 109 1.92  77 1.92  76 2.00  74 2.05  67 2.07  16 2.84  30 3.06
                            14 3.06  12 3.17
  14  0.005  0.667  0.726-  70 1.79  78 1.83 140 1.96  76 1.96  77 2.02  15 2.84  45 3.06  13 3.06

[...]

  17  0.815  0.167  0.271-  85 1.92  83 1.92 117 1.92  82 1.97  84 1.97  18 3.03  20 3.03  34 3.03

[...]

  36  0.098  0.500  0.306-  56 1.92 120 1.92 114 1.92 122 1.92 115 1.97 121 1.97   3 3.03  35 3.03
                            33 3.03  37 3.06
  37  0.950  0.500  0.414- 123 1.92  61 1.92 125 1.92 115 1.96 124 1.97 122 1.98  40 2.99   6 3.04
                            38 3.04  36 3.06
  38  0.730  0.333  0.447- 118 1.90 124 1.92  92 1.92 126 1.96 127 1.96 125 1.99  39 2.99  37 3.04
                            21 3.04  43 3.08
  39  0.450  0.333  0.414- 127 1.92 129 1.92  97 1.92 119 1.96 128 1.97 118 1.98  38 2.99  40 3.04
                            24 3.04  34 3.06
  40  0.230  0.500  0.447- 122 1.90  64 1.92 128 1.92 130 1.96 123 1.96 129 1.99  37 2.99   7 3.04
                            39 3.04  41 3.08
  41  0.089  0.500  0.557-  69 1.92 133 1.92 131 1.92 132 1.97 130 1.98 123 1.99  44 2.94  42 3.04
                            10 3.04  40 3.08
  42  0.867  0.333  0.587- 126 1.87 132 1.92 100 1.92 135 1.94 134 1.98 133 2.00  43 2.95  41 3.04
                            25 3.04  47 3.17
  43  0.589  0.333  0.557- 137 1.92 105 1.92 135 1.92 136 1.97 126 1.98 127 1.99  42 2.95  44 3.04
                            28 3.04  38 3.08
  44  0.367  0.500  0.587- 130 1.87  72 1.92 136 1.92 131 1.94 138 1.98 137 2.00  41 2.94  11 3.04
                            43 3.04  45 3.17
  45  0.234  0.500  0.702- 139 1.85 141 1.92  77 1.92 140 2.00 138 2.05 131 2.07  48 2.84  46 3.06
                            14 3.06  44 3.17
  46  0.005  0.333  0.726- 134 1.79 142 1.83 140 1.96 108 1.96 141 2.02  47 2.84  45 3.06  29 3.06

  47  0.734  0.333  0.702- 142 1.85 144 1.92 112 1.92 143 2.00 134 2.05 135 2.07  46 2.84  48 3.06
                            32 3.06  42 3.17
  48  0.505  0.500  0.726- 138 1.79 139 1.83 143 1.96  79 1.96 144 2.02  45 2.84  47 3.06  15 3.06

  49  0.494  0.667  0.242-   2 1.92   3 1.97
  50  0.994  0.833  0.242-   4 1.92   1 1.97
  51  0.919  0.833  0.336-   1 1.92   5 1.96   4 1.97
  52  0.636  0.833  0.300-  18 1.92   2 1.92   1 1.97
  53  0.778  0.667  0.277-  33 1.92   1 1.92   2 1.97
  54  0.628  0.667  0.383-   6 1.90   2 1.92   7 1.98
  55  0.419  0.667  0.336-   3 1.92   7 1.96   2 1.97
  56  0.136  0.667  0.300-  36 1.92   4 1.92   3 1.97
  57  0.278  0.833  0.277-  19 1.92   3 1.92   4 1.97
  58  0.128  0.833  0.383-   8 1.90   4 1.92   5 1.98
  59  0.054  0.833  0.478-   5 1.92   8 1.96   9 1.99
  60  0.770  0.833  0.442-  22 1.92   6 1.92   5 1.97
  61  0.912  0.667  0.419-  37 1.92   5 1.92   6 1.99
  62  0.765  0.667  0.524-  10 1.87   6 1.96  11 1.98
  63  0.554  0.667  0.478-   7 1.92   6 1.96  11 1.99
  64  0.270  0.667  0.442-  40 1.92   8 1.92   7 1.97
  65  0.412  0.833  0.419-  23 1.92   7 1.92   8 1.99
  66  0.265  0.833  0.524-  12 1.87   8 1.96   9 1.98
  67  0.196  0.833  0.620-   9 1.92  12 1.94  13 2.07
  68  0.908  0.833  0.583-  10 1.92  26 1.92   9 1.97
  69  0.051  0.667  0.561-   9 1.92  41 1.92  10 2.00
  70  0.912  0.667  0.665-  14 1.79  10 1.98  15 2.05
  71  0.696  0.667  0.620-  11 1.92  10 1.94  15 2.07
  72  0.408  0.667  0.583-  12 1.92  44 1.92  11 1.97
  73  0.551  0.833  0.561-  11 1.92  27 1.92  12 2.00
  74  0.412  0.833  0.665-  16 1.79  12 1.98  13 2.05
  75  0.347  0.833  0.760-  16 1.83  13 1.85
  76  0.055  0.833  0.735-  30 1.96  14 1.96  13 2.00
  77  0.194  0.667  0.703-  45 1.92  13 1.92  14 2.02
  78  0.847  0.667  0.760-  14 1.83  15 1.85
  79  0.555  0.667  0.735-  48 1.96  16 1.96  15 2.00
  80  0.694  0.833  0.703-  31 1.92  15 1.92  16 2.02
  81  0.494  0.000  0.242-  18 1.92  19 1.97
  82  0.994  0.167  0.242-  20 1.92  17 1.97
  83  0.919  0.167  0.336-  17 1.92  21 1.96  20 1.97
  84  0.636  0.167  0.300-  18 1.92  34 1.92  17 1.97
  85  0.778  0.000  0.277-   1 1.92  17 1.92  18 1.97
  86  0.628  0.000  0.383-  22 1.90  18 1.92  23 1.98
  87  0.419  0.000  0.336-  19 1.92  23 1.96  18 1.97
  88  0.136  0.000  0.300-   4 1.92  20 1.92  19 1.97
  89  0.278  0.167  0.277-  19 1.92  35 1.92  20 1.97
  90  0.128  0.167  0.383-  24 1.90  20 1.92  21 1.98
  91  0.054  0.167  0.478-  21 1.92  24 1.96  25 1.99
  92  0.770  0.167  0.442-  22 1.92  38 1.92  21 1.97
  93  0.912  0.000  0.419-  21 1.92   5 1.92  22 1.99
  94  0.765  1.000  0.524-  26 1.87  22 1.96  27 1.98
  95  0.554  1.000  0.478-  23 1.92  22 1.96  27 1.99
  96  0.270  1.000  0.442-   8 1.92  24 1.92  23 1.97
  97  0.412  0.167  0.419-  23 1.92  39 1.92  24 1.99
  98  0.265  0.167  0.524-  28 1.87  24 1.96  25 1.98
  99  0.196  0.167  0.620-  25 1.92  28 1.94  29 2.07
 100  0.908  0.167  0.583-  42 1.92  26 1.92  25 1.97
 101  0.051  1.000  0.561-   9 1.92  25 1.92  26 2.00
 102  0.912  1.000  0.665-  30 1.79  26 1.98  31 2.05
 103  0.696  0.000  0.620-  27 1.92  26 1.94  31 2.07
 104  0.408  0.000  0.583-  28 1.92  12 1.92  27 1.97
 105  0.551  0.167  0.561-  43 1.92  27 1.92  28 2.00
 106  0.412  0.167  0.665-  32 1.79  28 1.98  29 2.05
 107  0.347  0.167  0.760-  32 1.83  29 1.85
 108  0.055  0.167  0.735-  30 1.96  46 1.96  29 2.00
[...]
 130  0.265  0.500  0.524-  44 1.87  40 1.96  41 1.98
 131  0.196  0.500  0.620-  41 1.92  44 1.94  45 2.07
 132  0.908  0.500  0.583-  42 1.92  10 1.92  41 1.97
 133  0.051  0.333  0.561-  25 1.92  41 1.92  42 2.00
 134  0.912  0.333  0.665-  46 1.79  42 1.98  47 2.05
 135  0.696  0.333  0.620-  43 1.92  42 1.94  47 2.07
 136  0.408  0.333  0.583-  28 1.92  44 1.92  43 1.97
 137  0.551  0.500  0.561-  11 1.92  43 1.92  44 2.00
 138  0.412  0.500  0.665-  48 1.79  44 1.98  45 2.05
 139  0.347  0.500  0.760-  48 1.83  45 1.85
 140  0.055  0.500  0.735-  14 1.96  46 1.96  45 2.00
 141  0.194  0.333  0.703-  45 1.92  29 1.92  46 2.02
 142  0.847  0.333  0.760-  46 1.83  47 1.85
 143  0.555  0.333  0.735-  48 1.96  32 1.96  47 2.00
 144  0.694  0.500  0.703-  15 1.92  47 1.92  48 2.02

IMPORTANT INFORMATION: All symmetrisations will be switched off!
[...]
   0.963E+01 -.106E-02 0.886E+03   -.644E+01 0.950E-03 -.882E+03   0.956E+00 -.241E-03 -.204E+01   0.737E-05 0.298E-06 0.130E-02
   -.176E+01 0.472E-02 0.711E+03   0.675E+00 -.474E-02 -.713E+03   -.742E+00 0.219E-03 -.875E+00   -.369E-05 -.537E-07 0.135E-02
   -.319E+00 0.397E-01 0.321E+03   0.173E+00 -.400E-01 -.321E+03   0.139E+00 -.397E-03 0.351E-01   0.197E-04 -.982E-06 0.102E-02
   -.734E+00 -.542E-01 0.198E+03   0.856E+00 0.541E-01 -.198E+03   -.659E-01 0.932E-03 -.999E-01   -.193E-05 -.240E-05 0.766E-03
   -.319E+00 -.397E-01 0.321E+03   0.173E+00 0.400E-01 -.321E+03   0.139E+00 0.397E-03 0.351E-01   0.197E-04 0.101E-05 0.102E-02
   -.734E+00 0.542E-01 0.198E+03   0.856E+00 -.541E-01 -.198E+03   -.659E-01 -.932E-03 -.999E-01   -.192E-05 0.243E-05 0.766E-03
   -.157E+01 0.534E-01 -.209E+03   0.132E+01 -.527E-01 0.209E+03   0.221E+00 -.616E-03 0.138E+00   0.245E-04 -.525E-06 -.362E-03
   -.143E+01 -.607E-01 -.317E+03   0.174E+01 0.606E-01 0.318E+03   -.166E+00 0.933E-03 -.218E+00   0.491E-04 -.767E-05 -.726E-03
   -.157E+01 -.534E-01 -.209E+03   0.132E+01 0.527E-01 0.209E+03   0.221E+00 0.616E-03 0.138E+00   0.244E-04 0.575E-06 -.362E-03
   -.143E+01 0.607E-01 -.317E+03   0.174E+01 -.606E-01 0.318E+03   -.166E+00 -.933E-03 -.218E+00   0.490E-04 0.769E-05 -.726E-03
   0.573E+01 0.559E-01 -.718E+03   -.649E+01 -.565E-01 0.718E+03   0.589E+00 -.105E-02 0.422E-01   0.854E-04 0.148E-04 -.149E-02
   -.255E+02 -.431E-01 -.830E+03   0.262E+02 0.429E-01 0.830E+03   -.105E+00 0.237E-03 0.699E+00   0.249E-04 0.312E-05 -.152E-02
   0.573E+01 -.560E-01 -.718E+03   -.649E+01 0.565E-01 0.718E+03   0.589E+00 0.105E-02 0.422E-01   0.854E-04 -.148E-04 -.149E-02
   -.255E+02 0.431E-01 -.830E+03   0.262E+02 -.429E-01 0.830E+03   -.105E+00 -.237E-03 0.699E+00   0.246E-04 -.310E-05 -.152E-02
   0.963E+01 -.106E-02 0.886E+03   -.644E+01 0.951E-03 -.882E+03   0.956E+00 -.241E-03 -.204E+01   0.737E-05 0.282E-06 0.130E-02
   -.176E+01 -.175E-06 0.711E+03   0.676E+00 0.503E-07 -.713E+03   -.742E+00 -.405E-07 -.874E+00   -.423E-05 -.103E-07 0.135E-02
   0.963E+01 -.606E-06 0.886E+03   -.644E+01 0.584E-06 -.882E+03   0.956E+00 -.138E-07 -.204E+01   0.747E-05 -.884E-08 0.130E-02
   -.176E+01 -.472E-02 0.711E+03   0.675E+00 0.474E-02 -.713E+03   -.742E+00 -.219E-03 -.875E+00   -.369E-05 0.461E-07 0.135E-02
   -.319E+00 -.397E-01 0.321E+03   0.173E+00 0.400E-01 -.321E+03   0.139E+00 0.397E-03 0.351E-01   0.197E-04 0.968E-06 0.102E-02
   -.724E+00 0.487E-05 0.198E+03   0.846E+00 -.571E-05 -.198E+03   -.661E-01 -.205E-06 -.100E+00   -.483E-05 -.174E-07 0.766E-03
   -.345E+00 0.246E-05 0.321E+03   0.200E+00 -.265E-05 -.321E+03   0.140E+00 -.817E-07 0.348E-01   0.180E-04 -.235E-07 0.102E-02
   -.734E+00 -.542E-01 0.198E+03   0.856E+00 0.541E-01 -.198E+03   -.659E-01 0.932E-03 -.999E-01   -.194E-05 -.245E-05 0.766E-03
   -.157E+01 -.534E-01 -.209E+03   0.132E+01 0.527E-01 0.209E+03   0.221E+00 0.616E-03 0.138E+00   0.244E-04 0.497E-06 -.362E-03
   -.140E+01 -.165E-05 -.317E+03   0.171E+01 0.109E-05 0.318E+03   -.167E+00 -.157E-06 -.217E+00   0.527E-04 -.858E-08 -.735E-03
   -.160E+01 -.163E-05 -.209E+03   0.136E+01 0.175E-05 0.209E+03   0.221E+00 0.726E-07 0.139E+00   0.121E-04 -.410E-07 -.369E-03
   -.143E+01 -.607E-01 -.317E+03   0.174E+01 0.606E-01 0.318E+03   -.166E+00 0.933E-03 -.218E+00   0.490E-04 -.775E-05 -.726E-03
   0.573E+01 -.560E-01 -.718E+03   -.649E+01 0.565E-01 0.718E+03   0.589E+00 0.105E-02 0.422E-01   0.854E-04 -.149E-04 -.149E-02
   -.255E+02 0.223E-05 -.830E+03   0.262E+02 -.212E-05 0.830E+03   -.105E+00 -.174E-07 0.699E+00   0.552E-04 -.250E-07 -.151E-02
   0.573E+01 0.103E-04 -.718E+03   -.649E+01 -.124E-04 0.718E+03   0.589E+00 -.799E-06 0.416E-01   0.812E-04 0.399E-07 -.150E-02
   -.255E+02 -.431E-01 -.830E+03   0.262E+02 0.429E-01 0.830E+03   -.105E+00 0.237E-03 0.699E+00   0.248E-04 0.310E-05 -.152E-02
   0.963E+01 0.206E-06 0.886E+03   -.644E+01 -.181E-06 -.882E+03   0.956E+00 0.409E-08 -.204E+01   0.747E-05 0.728E-08 0.130E-02
   -.176E+01 0.472E-02 0.711E+03   0.675E+00 -.474E-02 -.713E+03   -.742E+00 0.219E-03 -.875E+00   -.369E-05 -.542E-07 0.135E-02
   0.963E+01 0.106E-02 0.886E+03   -.644E+01 -.951E-03 -.882E+03   0.956E+00 0.241E-03 -.204E+01   0.736E-05 -.289E-06 0.130E-02
   -.176E+01 0.723E-06 0.711E+03   0.676E+00 -.802E-06 -.713E+03   -.742E+00 -.813E-08 -.874E+00   -.422E-05 0.751E-08 0.135E-02
   -.345E+00 0.583E-05 0.321E+03   0.200E+00 -.683E-05 -.321E+03   0.140E+00 -.214E-06 0.348E-01   0.180E-04 0.144E-07 0.102E-02
   -.734E+00 0.542E-01 0.198E+03   0.856E+00 -.541E-01 -.198E+03   -.659E-01 -.932E-03 -.999E-01   -.192E-05 0.242E-05 0.766E-03
   -.319E+00 0.397E-01 0.321E+03   0.173E+00 -.400E-01 -.321E+03   0.139E+00 -.397E-03 0.351E-01   0.197E-04 -.985E-06 0.102E-02
   -.724E+00 0.510E-05 0.198E+03   0.846E+00 -.639E-05 -.198E+03   -.661E-01 -.238E-06 -.100E+00   -.483E-05 0.217E-07 0.766E-03
   -.160E+01 -.394E-05 -.209E+03   0.136E+01 0.402E-05 0.209E+03   0.221E+00 0.167E-06 0.139E+00   0.122E-04 0.279E-07 -.369E-03
   -.143E+01 0.607E-01 -.317E+03   0.174E+01 -.606E-01 0.318E+03   -.166E+00 -.933E-03 -.218E+00   0.490E-04 0.768E-05 -.726E-03
   -.157E+01 0.534E-01 -.209E+03   0.132E+01 -.527E-01 0.209E+03   0.221E+00 -.616E-03 0.138E+00   0.244E-04 -.534E-06 -.362E-03
   -.140E+01 0.456E-05 -.317E+03   0.171E+01 -.552E-05 0.318E+03   -.167E+00 -.293E-06 -.217E+00   0.527E-04 0.624E-07 -.735E-03
   0.573E+01 0.108E-04 -.718E+03   -.649E+01 -.119E-04 0.718E+03   0.589E+00 -.495E-06 0.416E-01   0.812E-04 0.676E-07 -.150E-02
   -.255E+02 0.431E-01 -.830E+03   0.262E+02 -.429E-01 0.830E+03   -.105E+00 -.237E-03 0.699E+00   0.248E-04 -.309E-05 -.152E-02
   0.573E+01 0.559E-01 -.718E+03   -.649E+01 -.565E-01 0.718E+03   0.589E+00 -.105E-02 0.422E-01   0.854E-04 0.148E-04 -.149E-02
   -.255E+02 0.669E-05 -.830E+03   0.262E+02 -.646E-05 0.830E+03   -.105E+00 -.490E-07 0.699E+00   0.551E-04 -.324E-08 -.151E-02
   -.693E+01 -.177E-02 0.142E+04   0.122E+02 0.142E-02 -.144E+04   -.628E+01 -.892E-03 0.164E+02   -.158E-04 0.273E-06 0.190E-02
   -.693E+01 0.177E-02 0.142E+04   0.122E+02 -.142E-02 -.144E+04   -.628E+01 0.892E-03 0.164E+02   -.158E-04 -.262E-06 0.190E-02
   0.454E+02 0.149E-01 0.896E+03   -.501E+02 -.149E-01 -.891E+03   0.313E+01 0.111E-02 -.388E+01   0.520E-08 -.548E-06 0.196E-02
   0.320E+02 0.998E-03 0.109E+04   -.392E+02 -.633E-03 -.109E+04   0.667E+01 0.759E-03 -.235E+01   0.877E-05 -.388E-06 0.203E-02
   -.445E+02 -.351E-02 0.125E+04   0.518E+02 0.328E-02 -.125E+04   -.604E+01 -.153E-02 -.397E+00   0.156E-05 0.793E-07 0.200E-02
   -.393E+02 -.395E-01 0.666E+03   0.455E+02 0.395E-01 -.670E+03   -.543E+01 -.100E-02 0.395E+01   -.451E-05 -.503E-06 0.174E-02
   0.454E+02 -.149E-01 0.896E+03   -.501E+02 0.149E-01 -.891E+03   0.313E+01 -.111E-02 -.388E+01   -.106E-08 0.568E-06 0.196E-02
   0.320E+02 -.997E-03 0.109E+04   -.392E+02 0.632E-03 -.109E+04   0.667E+01 -.758E-03 -.235E+01   0.877E-05 0.405E-06 0.203E-02
   -.445E+02 0.350E-02 0.125E+04   0.518E+02 -.328E-02 -.125E+04   -.604E+01 0.153E-02 -.397E+00   0.156E-05 -.649E-07 0.200E-02
   -.393E+02 0.395E-01 0.666E+03   0.455E+02 -.395E-01 -.670E+03   -.543E+01 0.100E-02 0.395E+01   -.451E-05 0.529E-06 0.174E-02
   0.420E+02 0.202E-01 0.105E+03   -.490E+02 -.463E-02 -.995E+02   0.607E+01 -.135E-01 -.441E+01   -.256E-04 -.864E-06 0.679E-03
   0.396E+02 0.420E-01 0.310E+03   -.460E+02 -.461E-01 -.307E+03   0.554E+01 0.324E-02 -.249E+01   0.110E-05 -.993E-06 0.120E-02
[...]
   0.457E+02 -.253E-06 -.688E+03   -.525E+02 -.159E-07 0.696E+03   0.596E+01 0.246E-06 -.670E+01   -.346E-04 0.666E-07 -.149E-02
   0.388E+02 -.676E-05 -.471E+03   -.451E+02 0.715E-05 0.474E+03   0.555E+01 0.941E-07 -.262E+01   -.269E-04 0.167E-07 -.986E-03
   -.416E+02 0.307E-01 -.319E+03   0.478E+02 -.295E-01 0.316E+03   -.537E+01 -.272E-04 0.218E+01   -.881E-05 0.201E-05 -.626E-03
   -.397E+02 0.187E-01 -.872E+03   0.420E+02 -.360E-02 0.862E+03   -.203E+01 -.132E-01 0.867E+01   -.451E-05 0.626E-05 -.193E-02
   0.457E+02 0.467E-01 -.688E+03   -.525E+02 -.363E-01 0.696E+03   0.596E+01 -.901E-02 -.669E+01   -.297E-04 0.881E-05 -.149E-02
   0.388E+02 0.342E-01 -.471E+03   -.452E+02 -.346E-01 0.474E+03   0.554E+01 0.923E-04 -.262E+01   -.201E-04 -.232E-05 -.989E-03
   -.416E+02 -.123E-04 -.319E+03   0.478E+02 0.137E-04 0.316E+03   -.536E+01 -.144E-06 0.218E+01   0.194E-06 0.363E-07 -.623E-03
   -.397E+02 0.967E-06 -.872E+03   0.420E+02 -.130E-05 0.862E+03   -.203E+01 0.282E-06 0.867E+01   0.912E-05 0.535E-07 -.194E-02
   0.163E+02 -.551E-06 -.142E+04   -.223E+02 0.290E-06 0.144E+04   0.518E+01 0.226E-06 -.202E+02   -.605E-06 0.510E-07 -.229E-02
   0.312E+02 0.193E-04 -.128E+04   -.355E+02 -.209E-04 0.129E+04   0.377E+01 0.125E-06 -.734E+01   -.369E-04 0.349E-07 -.232E-02
   -.270E+02 0.673E-01 -.108E+04   0.322E+02 -.749E-01 0.108E+04   -.453E+01 0.438E-02 0.294E+01   -.276E-04 -.749E-05 -.222E-02
   0.163E+02 0.322E-01 -.142E+04   -.223E+02 -.336E-01 0.144E+04   0.518E+01 0.143E-02 -.202E+02   -.176E-04 0.122E-04 -.227E-02
   0.312E+02 0.388E-01 -.128E+04   -.355E+02 -.410E-01 0.129E+04   0.378E+01 0.129E-02 -.734E+01   -.146E-04 0.575E-05 -.231E-02
   -.270E+02 0.544E-04 -.108E+04   0.322E+02 -.603E-04 0.108E+04   -.453E+01 0.998E-06 0.294E+01   -.206E-04 -.722E-08 -.221E-02
   -.137E+02 0.910E-07 0.743E+02   -.924E-13 -.227E-13 -.682E-12   0.155E+02 -.978E-07 -.674E+02   0.433E-03 -.490E-09 0.849E-02

 POSITION                                       TOTAL-FORCE (eV/Angst)
      8.35277      9.37768      6.72231         4.328881      0.000360      1.776436
      6.13317      7.50214      7.59504        -1.943676     -0.000203     -2.132691
      3.22728      7.50214      6.72231         4.328881     -0.000360      1.776436
      1.00768      9.37768      7.59504        -1.943675      0.000203     -2.132692
      9.73965      9.37774     10.25166         0.001600     -0.000426      0.004953
      7.48832      7.50207     11.06912        -0.004841      0.000546      0.003530
      4.61416      7.50208     10.25166         0.001601      0.000426      0.004951
      2.36283      9.37774     11.06912        -0.004841     -0.000545      0.003532
      0.92576      9.37777     13.79411        -0.003801      0.000265     -0.000468
      8.89981      7.50206     14.53861         0.004611      0.000562      0.002546
      6.05125      7.50204     13.79411        -0.003798     -0.000265     -0.000464
      3.77432      9.37775     14.53861         0.004612     -0.000561      0.002542
      2.42330      9.37775     17.40208         0.001491     -0.001244      0.003286
      0.07502      7.50204     17.98275         0.004963     -0.000191      0.002152
      7.54879      7.50207     17.40208         0.001490      0.001246      0.003283
      5.20051      9.37778     17.98275         0.004968      0.000191      0.002153
      8.35277      1.87554      6.72231         4.328882     -0.000360      1.776436
      6.13317      0.00000      7.59504        -1.943763     -0.000000     -2.131873
      3.22728      0.00000      6.72231         4.329303     -0.000000      1.776592
      1.00768      1.87554      7.59504        -1.943676     -0.000203     -2.132691
      9.73965      1.87547     10.25166         0.001600      0.000427      0.004950
      7.48827      0.00000     11.06922        -0.005524     -0.000001      0.001285
      4.61418      0.00000     10.25165         0.003051     -0.000000      0.003089
      2.36283      1.87547     11.06912        -0.004839      0.000546      0.003529
      0.92576      1.87544     13.79411        -0.003800     -0.000265     -0.000463
      8.89965      0.00000     14.53871         0.004066     -0.000001      0.005382
      6.05130     -0.00000     13.79401        -0.003329      0.000000      0.001839
      3.77432      1.87546     14.53861         0.004610      0.000562      0.002547
      2.42330      1.87546     17.40208         0.001490      0.001245      0.003282
      0.07497      0.00000     17.98283         0.006067      0.000000      0.001973
      7.54887      0.00000     17.40235         0.000727     -0.000003      0.000421
      5.20051      1.87544     17.98275         0.004969     -0.000191      0.002154
      8.35277      5.62661      6.72231         4.329304      0.000000      1.776592
      6.13317      3.75107      7.59504        -1.943676      0.000203     -2.132693
      3.22728      3.75107      6.72231         4.328881      0.000360      1.776436
      1.00768      5.62661      7.59504        -1.943762     -0.000000     -2.131872
      9.73967      5.62661     10.25165         0.003052     -0.000001      0.003088
      7.48832      3.75114     11.06912        -0.004837     -0.000545      0.003534
      4.61416      3.75113     10.25166         0.001596     -0.000425      0.004953
      2.36278      5.62661     11.06922        -0.005523     -0.000001      0.001282
      0.92581      5.62661     13.79401        -0.003333      0.000000      0.001839
      8.89981      3.75115     14.53861         0.004611     -0.000561      0.002541
      6.05125      3.75117     13.79411        -0.003797      0.000265     -0.000466
      3.77416      5.62661     14.53871         0.004067     -0.000001      0.005382
      2.42338      5.62661     17.40235         0.000728     -0.000001      0.000421
      0.07502      3.75117     17.98275         0.004964      0.000191      0.002155
      7.54879      3.75114     17.40208         0.001489     -0.001243      0.003287
      5.20046      5.62661     17.98283         0.006073      0.000000      0.001975
      5.06431      7.50214      6.00000        -2.039831     -0.001415      1.038607
     10.18980      9.37768      6.00000        -2.039831      0.001415      1.038607
      9.42163      9.37768      8.31734        -1.134307      0.001350     -0.093265
      6.51574      9.37768      7.44462         0.420299      0.001185     -0.075224
      7.97020      7.50214      6.87273         0.366460     -0.001849     -1.195167
      6.43691      7.50214      9.49092        -0.012411     -0.001169      0.674342
      4.29614      7.50214      8.31734        -1.134307     -0.001350     -0.093265
      1.39025      7.50214      7.44462         0.420299     -0.001185     -0.075224
      2.84471      9.37768      6.87273         0.366460      0.001850     -1.195167
      1.31142      9.37768      9.49092        -0.012412      0.001169      0.674341
      0.56370      9.37827     11.84287         0.004235     -0.000030     -0.000824
      7.89199      9.37774     10.94582        -0.000419     -0.000624      0.001431
[...]
      2.72976      5.62661     12.98818        -0.003015      0.000000     -0.008798
      2.02730      5.62661     15.36807         0.003512      0.000000      0.001221
      9.31569      5.62661     14.44453         0.000371      0.000001      0.000516
      0.54106      3.75100     13.89882         0.000482      0.001075      0.001223
      9.37136      3.75165     16.46554        -0.001952      0.000035     -0.004802
      7.15301      3.75148     15.36794         0.003583     -0.000042      0.004420
      4.19004      3.75106     14.44489         0.000045     -0.000334      0.000900
      5.66633      5.62661     13.89909         0.000463      0.000001      0.001280
      4.24574      5.62661     16.46573        -0.001843      0.000000     -0.007149
      3.59086      5.62661     18.84315        -0.000007      0.000000      0.001577
      0.59286      5.62661     18.19868         0.003281     -0.000002      0.000806
      2.01829      3.75121     17.41906         0.002215     -0.002853     -0.001417
      8.71627      3.75107     18.84302         0.000067      0.000311     -0.002618
      5.71824      3.75107     18.19827         0.004677     -0.000826      0.000063
      7.14368      5.62661     17.41926         0.003067     -0.000005     -0.001937
    total drift:                               -0.001042      0.000000      0.055062

  FREE ENERGIE OF THE ION-ELECTRON SYSTEM (eV)
  free  energy   TOTEN  =     -1571.63158053 eV

  energy  without entropy=    -1571.63158053  energy(sigma->0) =    -1571.63158053

 d Force = 0.5843762E-04[ 0.272E-04, 0.896E-04]  d Energy = 0.5975977E-04-0.132E-05
 d Force = 0.2258579E+01[ 0.226E+01, 0.226E+01]  d Ewald  = 0.2258579E+01 0.288E-08

 Conjugate gradient step on ions:
 trial-energy change:   -0.000060  1 .order   -0.000058   -0.000090   -0.000027
  (g-gl).g = 0.225E-03      g.g   = 0.226E-03  gl.gl    = 0.277E-03
 g(Force)  = 0.226E-03   g(Stress)= 0.000E+00 ortho     =-0.191E-04
 gamma     =   0.81312
 trial     =   0.42569
 opt step  =   0.58400  (harmonic =   0.61162) maximal distance =0.00064753
 next E    = -1571.631586   (d E  =  -0.00006)

 reached required accuracy - stopping structural energy minimisation