 vasp.6.3.0 20Jan22 (build Mar 06 2023 08:06:32) gamma-only

 executed on             LinuxIFC date 2025.03.25  20:13:19

 INCAR:
   SYSTEM = Oxide-Surface
   ISMEAR = 0
   SIGMA = 0.05
   EDIFF = 1E-5
   ALGO = Normal
   IBRION = -1
   NSW = 0
   ISYM = 0
   NCORE = 12
   ISTART = 1
   LHFCALC = .TRUE.
   GGA = PE
   IVDW = 21
   VDW_SR = 0.96
   HFRCUT = -1
   ENCUT = 520
   PREC = Normal
   PRECFOCK = Normal
   LASPH = .TRUE.
   LREAL = Auto
   ISPIN = 1
   NELM = 200
   NELMIN = 8
   LWAVE = .FALSE.
   LCHARG = .FALSE.

 POTCAR:    PAW_PBE H 15Jun2001
 POTCAR:    PAW_PBE O 08Apr2002
 POTCAR:    PAW_PBE Ti_sv 26Sep2005
 POTCAR:    PAW_PBE O 08Apr2002
 POTCAR:    PAW_PBE H 15Jun2001
   VRHFIN =H: ultrasoft test

   TITEL  = PAW_PBE H 15Jun2001
   POMASS =    1.000; ZVAL   =    1.000    mass and valenz
   ENMAX  =  250.000; ENMIN  =  200.000 eV

   TITEL  = PAW_PBE O 08Apr2002
   POMASS =   16.000; ZVAL   =    6.000    mass and valenz
   ENMAX  =  400.000; ENMIN  =  300.000 eV

   TITEL  = PAW_PBE Ti_sv 26Sep2005
   POMASS =   47.880; ZVAL   =   12.000    mass and valenz
   ENMAX  =  274.610; ENMIN  =  205.957 eV

   TITEL  = PAW_PBE O 08Apr2002
   POMASS =   16.000; ZVAL   =    6.000    mass and valenz
   ENMAX  =  400.000; ENMIN  =  300.000 eV

 Optimization of the real space projectors (new method)

 maximal supplied QI-value         = 34.20
 optimisation between [QCUT,QGAM] = [ 11.63, 23.26] = [ 37.87,151.49] Ry
 Optimized for a Real-space Cutoff    1.14 Angstroem

   l    n(q)    QCUT    max X(q) W(low)/X(q) W(high)/X(q)  e(spline)
   0      8    11.629    19.460    0.27E-03    0.65E-03    0.17E-06
   0      8    11.629    12.209    0.25E-03    0.62E-03    0.16E-06
   1      7    11.629     4.655    0.29E-03    0.85E-04    0.19E-06
 Optimization of the real space projectors (new method)

[...]

   l    n(q)    QCUT    max X(q) W(low)/X(q) W(high)/X(q)  e(spline)
   0      9    11.539    12.277    0.48E-04    0.33E-04    0.20E-07
   0      9    11.539    11.419    0.83E-04    0.33E-04    0.30E-07
   1      8    11.539     4.010    0.33E-04    0.76E-04    0.41E-07
   1      8    11.539     6.182    0.83E-04    0.12E-03    0.13E-06
   2      8    11.539    47.177    0.11E-03    0.55E-03    0.26E-06
   2      8    11.539    42.437    0.11E-03    0.53E-03    0.25E-06
 Optimization of the real space projectors (new method)

 maximal supplied QI-value         = 24.76
 optimisation between [QCUT,QGAM] = [ 11.64, 23.27] = [ 37.91,151.63] Ry
 Optimized for a Real-space Cutoff    1.04 Angstroem

   l    n(q)    QCUT    max X(q) W(low)/X(q) W(high)/X(q)  e(spline)
   0      7    11.635    20.381    0.14E-03    0.49E-03    0.18E-06
   0      7    11.635    15.268    0.16E-03    0.52E-03    0.19E-06
   1      7    11.635     5.964    0.30E-03    0.44E-03    0.22E-06
   1      7    11.635     5.382    0.27E-03    0.34E-03    0.19E-06
  PAW_PBE H 15Jun2001                   :
  PAW_PBE O 08Apr2002                   :
  PAW_PBE Ti_sv 26Sep2005               :
  PAW_PBE O 08Apr2002                   :

 POSCAR:  H  O Ti  O
  positions in direct lattice
 exchange correlation table for  LEXCH =        8
   RHO(1)=    0.500       N(1)  =     2000
   RHO(2)=  100.500       N(2)  =     4000

 ion  position               nearest neighbor table
   1  0.511  0.550  0.802-   3 0.97
   2  0.614  0.496  0.783-   3 1.00
   3  0.537  0.491  0.783-   1 0.97   2 1.00  83 2.23
   4  0.750  0.625  0.287-  85 1.95 145 1.95 144 1.95  84 1.95  87 1.98 166 1.98
   5  0.000  0.750  0.287-  86 1.95  87 1.95 106 1.95 107 1.95  88 1.98
   6  0.000  0.625  0.394-  88 1.95 148 1.95  89 1.95 149 1.95  90 1.98  91 1.98
   7  0.750  0.750  0.394-  90 1.95 110 1.95 171 1.95 191 1.95  92 1.98  85 1.98
   8  0.750  0.625  0.500-  92 1.95  93 1.95 152 1.95 153 1.95  95 1.98 174 1.98
   9  0.000  0.750  0.500-  94 1.95  95 1.95 114 1.95 115 1.95  89 1.98  96 2.00
  10  0.007  0.625  0.604-  99 1.87 156 1.90  96 1.90  97 2.02 157 2.02  98 2.03
  11  0.756  0.750  0.610- 100 1.87  98 1.93 118 1.93 179 2.01 199 2.01  93 2.10
  12  0.752  0.626  0.719- 101 1.83 161 1.86 182 2.01 103 2.02 100 2.08 160 2.09
  13  0.001  0.750  0.708-  97 1.81 122 1.94 123 1.94 102 1.95 103 1.96
  14  0.750  0.875  0.287-  85 1.95 105 1.95 104 1.95  84 1.95 107 1.98 186 1.98
  15  0.000  0.000  0.287- 106 1.95 107 1.95 126 1.95 127 1.95 108 1.98
  16  0.000  0.875  0.394-  88 1.95 108 1.95  89 1.95 109 1.95 110 1.98 111 1.98
  17  0.750  0.000  0.394- 110 1.95 130 1.95 191 1.95 211 1.95 112 1.98 105 1.98
  18  0.750  0.875  0.500-  92 1.95  93 1.95 112 1.95 113 1.95 115 1.98 194 1.98
  19  0.000  0.000  0.500- 114 1.95 115 1.95 134 1.95 135 1.95 109 1.98 116 2.00
  20  0.007  0.875  0.604- 119 1.87  96 1.90 116 1.90 117 2.02  97 2.02 118 2.04
  21  0.756  1.000  0.611- 120 1.87 118 1.93 138 1.93 219 2.01 199 2.01 113 2.10
  22  0.751  0.875  0.720- 121 1.84 101 1.84 202 2.02 123 2.04 100 2.09 120 2.10
  23  0.001  1.000  0.708- 117 1.81 123 1.95 143 1.95 142 1.95 122 1.95
  24  0.750  0.125  0.287- 105 1.95 125 1.95 124 1.95 104 1.95 127 1.98 206 1.98
  25  0.000  0.250  0.287- 126 1.95 127 1.95 146 1.95 147 1.95 128 1.98
  26  0.000  0.125  0.394- 108 1.95 128 1.95 109 1.95 129 1.95 130 1.98 131 1.98
  27  0.750  0.250  0.394- 130 1.95 150 1.95 211 1.95 231 1.95 132 1.98 125 1.98
  28  0.750  0.125  0.500- 112 1.95 113 1.95 132 1.95 133 1.95 135 1.98 214 1.98
  29  0.000  0.250  0.500- 134 1.95 135 1.95 154 1.95 155 1.95 129 1.98 136 2.00
  30  0.007  0.125  0.604- 139 1.87 136 1.90 116 1.90 117 2.02 137 2.02 138 2.04
  31  0.756  0.250  0.610- 140 1.87 158 1.93 138 1.93 219 2.01 239 2.02 133 2.10
  32  0.750  0.124  0.720- 121 1.83 141 1.84 222 2.02 143 2.04 120 2.09 140 2.10
  33  0.001  0.250  0.708- 137 1.81 142 1.94 143 1.94 162 1.95 163 1.96
  34  0.750  0.375  0.287- 125 1.95 145 1.95 144 1.95 124 1.95 147 1.98 226 1.98
  35  0.000  0.500  0.287-  86 1.95  87 1.95 146 1.95 147 1.95 148 1.98
  36  0.000  0.375  0.394- 128 1.95 148 1.95 129 1.95 149 1.95 150 1.98 151 1.98
  37  0.750  0.500  0.394-  90 1.95 150 1.95 171 1.95 231 1.95 145 1.98 152 1.98
  38  0.750  0.375  0.500- 132 1.95 133 1.95 152 1.95 153 1.95 155 1.98 234 1.98
  39  0.000  0.500  0.500-  94 1.95  95 1.95 154 1.95 155 1.95 149 1.98 156 2.00
  40  0.007  0.375  0.604- 159 1.87 156 1.90 136 1.90 137 2.02 157 2.02 158 2.03
  41  0.757  0.500  0.610- 160 1.86 158 1.93  98 1.93 239 2.02 179 2.02 153 2.10
  42  0.752  0.373  0.719- 141 1.83 161 1.87 163 2.01 242 2.02 140 2.07 160 2.10
  43  0.002  0.500  0.708- 157 1.81 102 1.94 162 1.94 103 1.95 163 1.95
  44  0.250  0.625  0.287- 165 1.95 225 1.95 224 1.95 164 1.95  86 1.98 167 1.98
  45  0.500  0.750  0.287- 166 1.95 167 1.95 186 1.95 187 1.95 168 1.98
  46  0.500  0.625  0.394- 168 1.95 228 1.95 169 1.95 229 1.95 170 1.98 171 1.98
  47  0.250  0.750  0.394-  91 1.95 111 1.95 170 1.95 190 1.95 172 1.98 165 1.98
  48  0.250  0.625  0.500- 172 1.95 173 1.95 232 1.95 233 1.95  94 1.98 175 1.98
  49  0.500  0.750  0.500- 174 1.95 175 1.95 194 1.95 195 1.95 169 1.98 176 1.99
  50  0.507  0.623  0.605- 179 1.87 236 1.90 176 1.93 237 1.99 177 2.01 178 2.04  80 2.91
  51  0.256  0.750  0.611- 180 1.87 178 1.92 198 1.93  99 2.02 119 2.02 173 2.10
  52  0.251  0.625  0.720- 181 1.83 241 1.84 102 2.03 183 2.04 180 2.09 240 2.09
  53  0.502  0.750  0.707- 177 1.80 182 1.91 202 1.94 183 1.95 203 1.96
  54  0.250  0.875  0.287- 165 1.95 185 1.95 184 1.95 164 1.95 106 1.98 187 1.98
  55  0.500  0.000  0.287- 186 1.95 187 1.95 206 1.95 207 1.95 188 1.98
  56  0.500  0.875  0.394- 168 1.95 188 1.95 169 1.95 189 1.95 190 1.98 191 1.98
  57  0.250  0.000  0.394- 111 1.95 131 1.95 190 1.95 210 1.95 192 1.98 185 1.98
  58  0.250  0.875  0.500- 172 1.95 173 1.95 192 1.95 193 1.95 114 1.98 195 1.98
  59  0.500  0.000  0.500- 194 1.95 195 1.95 214 1.95 215 1.95 189 1.98 196 1.98
  60  0.507  0.874  0.603- 199 1.88 176 1.88 196 1.90 177 2.00 197 2.03 198 2.04
[...]
 229  0.500  0.500  0.435-  46 1.95  76 1.95  79 1.98
 230  0.348  0.375  0.394-  67 1.95  77 1.95  76 1.98
 231  0.652  0.375  0.394-  27 1.95  37 1.95  76 1.98
 232  0.250  0.500  0.458-  48 1.95  78 1.95  77 1.98
 233  0.250  0.500  0.542-  48 1.95  78 1.95  81 2.11
 234  0.598  0.375  0.500-  69 1.95  79 1.95  38 1.98
 235  0.402  0.375  0.500-  69 1.95  79 1.95  78 1.98
 236  0.501  0.500  0.566-  50 1.90  80 1.90  79 2.00
 237  0.500  0.500  0.650-  83 1.89  50 1.99  80 1.99
 238  0.350  0.375  0.607-  71 1.92  81 1.93  80 2.04
 239  0.651  0.375  0.608-  80 1.87  31 2.02  41 2.02
 240  0.251  0.500  0.672-  81 1.86  52 2.09  82 2.10
 241  0.252  0.500  0.756-  82 1.84  52 1.84
 242  0.598  0.371  0.714-  73 1.92  83 1.96  42 2.02
 243  0.407  0.374  0.718-  83 1.93  73 1.94  82 2.03

IMPORTANT INFORMATION: All symmetrisations will be switched off!
NOSYMM: (Re-)initialisation of all symmetry stuff for point group C_1.

                                     Primitive cell

  volume of cell :    4700.2961

  direct lattice vectors                    reciprocal lattice vectors
    13.003980404  0.000000000  0.000000000     0.076899531  0.000000000  0.000000000
     0.000000000 11.830378115  0.000000000     0.000000000  0.084528152  0.000000000
     0.000000000  0.000000000 30.552748813     0.000000000  0.000000000  0.032730279

  length of vectors
    13.003980404 11.830378115 30.552748813     0.076899531  0.084528152  0.032730279

  position of ions in fractional coordinates (direct lattice)
     0.510874486  0.549744949  0.802031162
     0.613779755  0.496082292  0.783151407
     0.537360385  0.491119463  0.782809003
     0.750000000  0.625000000  0.287188045
     0.000000000  0.750000000  0.287188045
     0.000000000  0.625000000  0.393594023
     0.750000000  0.750000000  0.393594023
     0.750000000  0.625000000  0.500000000
     0.000000000  0.750000000  0.500000000
     0.007153851  0.625014308  0.604051248
     0.756304002  0.750075782  0.610262489
     0.751644692  0.625562917  0.719252858
     0.000794862  0.750172552  0.708180947
     0.750000000  0.875000000  0.287188045
     0.000000000  0.000000000  0.287188045
     0.000000000  0.875000000  0.393594023
     0.750000000  0.000000000  0.393594023
     0.750000000  0.875000000  0.500000000
     0.000000000  0.000000000  0.500000000
     0.007277969  0.874988203  0.604120477
     0.755823970  0.999936719  0.610540702
     0.750558456  0.874801778  0.720210742
     0.000972366  0.999860664  0.708137749
     0.750000000  0.125000000  0.287188045
     0.000000000  0.250000000  0.287188045
     0.000000000  0.125000000  0.393594023
     0.750000000  0.250000000  0.393594023
     0.750000000  0.125000000  0.500000000
     0.000000000  0.250000000  0.500000000
     0.007298258  0.124917644  0.604100230
     0.756284959  0.249808457  0.610237489
     0.750454270  0.124164987  0.720199614
     0.000891816  0.249547152  0.708163781
     0.750000000  0.375000000  0.287188045
     0.000000000  0.500000000  0.287188045
     0.000000000  0.375000000  0.393594023
     0.750000000  0.500000000  0.393594023
     0.750000000  0.375000000  0.500000000
     0.000000000  0.500000000  0.500000000
     0.007178713  0.374943068  0.604052437
[...]
     0.000000000  0.000000000 30.552748813     0.000000000  0.000000000  0.032730279

  length of vectors
    13.003980404 11.830378115 30.552748813     0.076899531  0.084528152  0.032730279

 FORCES acting on ions
    electron-ion (+dipol)            ewald-force                    non-local-force                 convergence-correction
   0.344E+02 -.621E+02 -.491E+03   -.375E+02 0.678E+02 0.496E+03   0.308E+01 -.571E+01 -.497E+01   0.391E-03 0.884E-04 -.277E-01
   -.637E+02 -.245E+01 -.476E+03   0.712E+02 0.265E+01 0.476E+03   -.751E+01 -.245E+00 0.201E-03   0.465E-03 0.269E-03 -.280E-01
   0.506E+02 0.403E+02 -.282E+04   -.696E+02 -.727E+02 0.281E+04   0.165E+02 0.282E+02 0.123E+02   0.235E-02 0.272E-02 -.168E+00
   -.125E+00 -.140E-01 0.498E+04   0.120E+00 0.144E-01 -.499E+04   0.167E-03 -.199E-01 -.578E+00   0.999E-04 -.183E-04 0.305E+00
   -.635E-01 -.326E-01 0.520E+04   0.651E-01 0.328E-01 -.519E+04   0.825E-04 0.991E-05 0.983E+00   -.521E-04 -.149E-04 0.306E+00
   -.180E+00 -.495E-01 0.254E+04   0.187E+00 0.498E-01 -.254E+04   0.359E-03 -.550E-02 0.882E-01   -.262E-04 -.186E-06 0.188E+00
   -.406E+00 0.171E-01 0.253E+04   0.395E+00 -.170E-01 -.253E+04   -.388E-03 0.783E-04 -.119E+00   0.171E-03 0.110E-04 0.190E+00
   -.152E+01 -.511E-01 -.126E+00   0.147E+01 0.305E-01 0.110E+01   0.178E-02 0.326E-01 0.103E+00   0.352E-03 0.768E-04 0.278E-01
   0.214E+01 -.801E+00 0.138E+02   -.213E+01 0.806E+00 -.152E+02   0.104E-01 0.310E-04 -.166E+00   -.504E-04 0.153E-04 0.288E-01
   0.172E+02 -.225E+01 -.245E+04   -.163E+02 0.227E+01 0.245E+04   0.146E+01 0.103E-01 -.125E+01   -.281E-03 0.109E-03 -.138E+00
   0.451E+01 -.866E+01 -.253E+04   -.392E+01 0.867E+01 0.253E+04   0.890E+00 -.929E-02 0.184E+01   0.570E-03 0.572E-04 -.147E+00
   -.825E+02 -.195E+02 -.492E+04   0.821E+02 0.196E+02 0.492E+04   -.333E+00 0.529E+00 0.268E+01   0.556E-03 0.274E-04 -.287E+00
   -.634E+01 -.261E+01 -.497E+04   0.643E+01 0.275E+01 0.496E+04   0.305E-01 0.209E+00 -.220E+01   -.883E-03 -.157E-03 -.277E+00
   -.140E+00 -.207E-01 0.498E+04   0.136E+00 0.206E-01 -.499E+04   0.177E-03 0.200E-01 -.578E+00   0.924E-04 0.730E-05 0.305E+00
   -.604E-01 -.297E-02 0.520E+04   0.620E-01 0.306E-02 -.519E+04   0.762E-04 0.116E-04 0.987E+00   -.476E-04 -.119E-04 0.306E+00
   -.139E+00 -.667E-01 0.254E+04   0.146E+00 0.662E-01 -.254E+04   0.355E-03 0.548E-02 0.882E-01   -.387E-04 0.129E-04 0.188E+00
   -.535E+00 -.202E-01 0.253E+04   0.524E+00 0.198E-01 -.253E+04   -.456E-03 -.438E-04 -.115E+00   0.170E-03 -.146E-04 0.190E+00
   -.341E+01 -.521E+00 -.122E+01   0.338E+01 0.551E+00 0.221E+01   0.175E-02 -.306E-01 0.106E+00   0.315E-03 -.127E-04 0.279E-01
   0.266E+01 -.340E-01 0.127E+02   -.265E+01 0.301E-01 -.141E+02   0.114E-01 -.273E-03 -.167E+00   -.659E-04 -.293E-04 0.288E-01
   0.208E+02 -.178E+01 -.246E+04   -.199E+02 0.180E+01 0.246E+04   0.152E+01 0.138E-01 -.124E+01   -.294E-03 -.629E-04 -.138E+00
   0.647E+01 0.318E-01 -.255E+04   -.587E+01 -.296E-01 0.255E+04   0.888E+00 0.612E-03 0.186E+01   0.577E-03 -.158E-03 -.148E+00
   -.183E+02 -.198E+02 -.496E+04   0.181E+02 0.198E+02 0.497E+04   -.866E-01 0.721E-01 0.284E+01   0.732E-03 -.682E-03 -.289E+00
   -.556E+01 0.393E+00 -.497E+04   0.553E+01 -.385E+00 0.497E+04   -.225E-01 -.415E-02 -.219E+01   -.891E-03 -.438E-03 -.278E+00
   -.138E+00 0.146E-01 0.498E+04   0.134E+00 -.145E-01 -.499E+04   0.173E-03 -.200E-01 -.578E+00   0.969E-04 -.151E-04 0.305E+00
   -.638E-01 0.326E-01 0.520E+04   0.654E-01 -.327E-01 -.519E+04   0.751E-04 -.146E-04 0.983E+00   -.528E-04 0.105E-04 0.306E+00
   -.139E+00 0.535E-01 0.254E+04   0.147E+00 -.534E-01 -.254E+04   0.356E-03 -.551E-02 0.881E-01   -.300E-04 -.116E-04 0.188E+00
   -.381E+00 -.181E-01 0.253E+04   0.370E+00 0.180E-01 -.253E+04   -.397E-03 -.609E-04 -.119E+00   0.166E-03 -.915E-05 0.190E+00
   -.332E+01 0.419E+00 -.122E+01   0.329E+01 -.457E+00 0.221E+01   0.184E-02 0.297E-01 0.105E+00   0.327E-03 -.501E-04 0.278E-01
   0.218E+01 0.767E+00 0.138E+02   -.217E+01 -.771E+00 -.152E+02   0.104E-01 -.274E-04 -.167E+00   -.562E-04 -.993E-05 0.287E-01
   0.218E+02 0.188E+01 -.246E+04   -.209E+02 -.190E+01 0.246E+04   0.154E+01 -.129E-01 -.124E+01   -.286E-03 -.118E-03 -.138E+00
   0.427E+01 0.826E+01 -.253E+04   -.368E+01 -.828E+01 0.253E+04   0.901E+00 -.925E-02 0.183E+01   0.617E-03 -.609E-04 -.148E+00
   -.185E+02 0.171E+02 -.496E+04   0.183E+02 -.172E+02 0.497E+04   -.897E-01 -.217E+00 0.284E+01   0.109E-02 -.379E-03 -.290E+00
   -.568E+01 0.245E+01 -.497E+04   0.577E+01 -.258E+01 0.496E+04   0.535E-01 -.221E+00 -.220E+01   -.903E-03 0.172E-03 -.278E+00
   -.123E+00 0.201E-01 0.498E+04   0.118E+00 -.205E-01 -.499E+04   0.164E-03 0.199E-01 -.578E+00   0.992E-04 0.250E-04 0.305E+00
   -.668E-01 0.300E-02 0.520E+04   0.685E-01 -.309E-02 -.519E+04   0.787E-04 -.114E-04 0.986E+00   -.606E-04 0.180E-04 0.306E+00
   -.181E+00 0.628E-01 0.254E+04   0.188E+00 -.627E-01 -.254E+04   0.369E-03 0.556E-02 0.881E-01   -.140E-04 -.415E-05 0.188E+00
   -.256E+00 0.212E-01 0.253E+04   0.245E+00 -.208E-01 -.253E+04   -.462E-03 0.326E-04 -.115E+00   0.165E-03 0.102E-04 0.190E+00
   -.138E+01 0.164E+00 -.247E+00   0.133E+01 -.136E+00 0.122E+01   0.174E-02 -.314E-01 0.103E+00   0.360E-03 -.170E-04 0.278E-01
   0.194E+01 -.931E-02 0.148E+02   -.193E+01 0.908E-02 -.163E+02   0.110E-01 -.613E-05 -.162E+00   -.442E-04 0.268E-04 0.287E-01
   0.178E+02 0.234E+01 -.245E+04   -.169E+02 -.235E+01 0.245E+04   0.147E+01 -.369E-02 -.125E+01   -.268E-03 0.648E-04 -.138E+00
   0.303E+01 -.223E-02 -.252E+04   -.238E+01 -.410E-02 0.252E+04   0.944E+00 -.152E-02 0.201E+01   0.628E-03 0.159E-03 -.148E+00
   -.825E+02 0.154E+02 -.492E+04   0.822E+02 -.156E+02 0.492E+04   -.259E+00 -.729E+00 0.270E+01   0.988E-03 0.970E-03 -.288E+00
   -.861E+01 0.327E+00 -.496E+04   0.861E+01 -.324E+00 0.496E+04   0.221E-01 0.224E-01 -.214E+01   -.955E-03 0.419E-03 -.277E+00
   0.117E+00 -.911E-02 0.498E+04   -.112E+00 0.935E-02 -.499E+04   -.175E-03 -.200E-01 -.578E+00   -.104E-03 -.593E-05 0.305E+00
   0.715E-01 -.811E-02 0.520E+04   -.730E-01 0.856E-02 -.519E+04   -.772E-04 0.325E-04 0.983E+00   0.555E-04 -.699E-05 0.306E+00
   0.363E+00 0.196E+00 0.254E+04   -.370E+00 -.184E+00 -.254E+04   -.180E-03 -.364E-02 0.902E-01   0.352E-04 -.128E-04 0.188E+00
   0.229E+00 0.741E-01 0.253E+04   -.218E+00 -.741E-01 -.253E+04   0.302E-03 0.666E-04 -.117E+00   -.175E-03 -.289E-06 0.190E+00
   -.442E+00 0.237E+00 -.302E+01   0.512E+00 -.254E+00 0.407E+01   0.352E-02 0.338E-01 0.110E+00   -.380E-03 0.774E-04 0.277E-01
   0.467E+01 0.193E+01 0.177E+02   -.470E+01 -.203E+01 -.188E+02   0.953E-02 0.314E-02 -.123E+00   0.649E-04 0.712E-04 0.284E-01
   0.265E+02 -.148E+02 -.245E+04   -.256E+02 0.146E+02 0.245E+04   0.143E+01 -.445E+00 -.877E+00   0.289E-03 0.225E-03 -.140E+00
   0.218E+02 -.588E+01 -.254E+04   -.212E+02 0.584E+01 0.255E+04   0.954E+00 -.543E-01 0.189E+01   -.627E-03 0.339E-04 -.148E+00
   0.444E+02 -.170E+02 -.494E+04   -.445E+02 0.170E+02 0.494E+04   -.450E-01 0.397E-01 0.294E+01   -.588E-03 0.263E-03 -.290E+00
   0.240E+02 -.659E+02 -.491E+04   -.237E+02 0.658E+02 0.491E+04   0.327E+00 -.316E+00 -.223E+01   0.888E-03 -.274E-03 -.275E+00
   0.132E+00 -.160E-01 0.498E+04   -.128E+00 0.159E-01 -.499E+04   -.176E-03 0.200E-01 -.578E+00   -.992E-04 -.693E-05 0.305E+00
   0.686E-01 -.601E-02 0.520E+04   -.701E-01 0.605E-02 -.519E+04   -.715E-04 0.460E-05 0.987E+00   0.492E-04 0.122E-05 0.306E+00
   0.329E+00 0.135E+00 0.254E+04   -.336E+00 -.135E+00 -.254E+04   -.146E-03 0.570E-02 0.912E-01   0.415E-04 0.123E-04 0.188E+00
   0.351E+00 -.229E-01 0.253E+04   -.340E+00 0.227E-01 -.253E+04   0.377E-03 -.371E-04 -.113E+00   -.175E-03 -.498E-05 0.190E+00
   0.109E+01 0.696E-01 -.321E+01   -.104E+01 -.655E-01 0.425E+01   0.329E-02 -.344E-01 0.110E+00   -.348E-03 -.201E-04 0.277E-01
   0.416E+01 -.314E+00 0.220E+02   -.420E+01 0.309E+00 -.233E+02   0.792E-02 -.637E-03 -.590E-01   0.838E-04 -.337E-04 0.285E-01
   0.222E+02 -.127E+02 -.242E+04   -.213E+02 0.126E+02 0.242E+04   0.136E+01 -.237E+00 -.127E+01   0.319E-03 -.105E-03 -.137E+00
[...]
   -.624E+02 -.457E-01 0.127E+04   0.666E+02 0.451E-01 -.127E+04   -.344E+01 0.967E-02 0.133E+00   0.245E-03 -.220E-05 0.949E-01
   0.626E+02 -.328E-01 0.127E+04   -.667E+02 0.323E-01 -.127E+04   0.345E+01 0.965E-02 0.140E+00   -.234E-03 -.816E-05 0.949E-01
   -.128E+00 0.372E-01 0.557E+03   0.153E+00 -.376E-01 -.562E+03   -.289E-01 0.725E-03 0.394E+01   -.143E-03 0.598E-05 0.476E-01
   0.275E+01 0.207E+00 -.580E+03   -.306E+01 -.202E+00 0.588E+03   0.276E+00 -.669E-02 -.684E+01   -.271E-03 0.268E-04 -.202E-01
   -.646E+02 -.424E+00 0.776E+01   0.696E+02 0.420E+00 -.799E+01   -.492E+01 0.224E-01 0.242E+00   0.179E-03 -.758E-05 0.141E-01
   0.655E+02 -.512E+00 0.441E+01   -.706E+02 0.506E+00 -.458E+01   0.496E+01 0.256E-01 0.211E+00   -.140E-03 -.628E-05 0.140E-01
   0.146E+02 0.764E+00 -.672E+03   -.158E+02 -.859E+00 0.665E+03   0.105E+01 0.857E-01 0.638E+01   0.613E-04 0.429E-04 -.395E-01
   0.223E+02 -.209E+01 -.176E+04   -.238E+02 0.216E+01 0.176E+04   0.129E+01 -.701E-01 -.124E+01   0.210E-03 0.189E-03 -.102E+00
   -.609E+02 0.205E+01 -.123E+04   0.674E+02 -.210E+01 0.123E+04   -.588E+01 0.442E-01 0.121E+01   0.853E-06 0.542E-04 -.718E-01
   0.109E+01 0.435E+01 -.124E+04   -.101E+01 -.451E+01 0.124E+04   0.523E-01 0.132E+00 0.337E+00   0.188E-03 0.434E-04 -.720E-01
   0.192E+02 -.537E+00 -.198E+04   -.197E+02 0.512E+00 0.199E+04   0.394E+00 0.165E-01 -.208E+01   -.440E-03 0.206E-03 -.116E+00
   0.367E+02 0.587E+00 -.300E+04   -.366E+02 -.651E+00 0.302E+04   -.176E+00 0.622E-01 -.196E+02   -.111E-03 0.657E-03 -.164E+00
   -.578E+02 0.410E+02 -.244E+04   0.643E+02 -.407E+02 0.244E+04   -.587E+01 -.264E+00 -.594E+00   0.103E-02 0.334E-03 -.143E+00
   0.736E+02 0.344E+02 -.253E+04   -.802E+02 -.345E+02 0.253E+04   0.603E+01 0.637E-01 -.317E+01   -.147E-03 0.495E-03 -.145E+00
   0.258E+02 -.278E+02 0.100E+03   -.263E-11 -.301E-11 -.136E-11   0.575E+01 0.225E+02 -.490E+02   0.200E-02 0.308E-02 0.280E+01

 POSITION                                       TOTAL-FORCE (eV/Angst)
      6.64340      6.50369     24.50426         0.119833     -0.332828     -0.264969
      7.98158      5.86884     23.92743        -0.381336     -0.058280     -0.044760
      6.98782      5.81013     23.91697         0.253185      0.409861      0.010085
      9.75299      7.39399      8.77438        -0.002465     -0.008019     -3.893458
      0.00000      8.87278      8.77438         0.001128      0.000164      3.357480
      0.00000      7.39399     12.02538         0.005309     -0.003868      0.585859
      9.75299      8.87278     12.02538        -0.007787      0.000200     -0.746021
      9.75299      7.39399     15.27637        -0.037702      0.004753      0.721217
      0.00000      8.87278     15.27637         0.001033      0.002373     -0.771183
      0.09303      7.39416     18.45543         0.055845      0.004098      0.035362
      9.83496      8.87368     18.64520        -0.021768     -0.006781      0.137708
      9.77437      7.40065     21.97515        -0.056943      0.067737      0.265099
      0.01034      8.87482     21.63687        -0.006053      0.016187     -0.122354
      9.75299     10.35158      8.77438        -0.002594      0.008434     -3.893582
      0.00000      0.00000      8.77438         0.001124      0.000126      3.360709
      0.00000     10.35158     12.02538         0.005136      0.003896      0.586003
      9.75299      0.00000     12.02538        -0.007842     -0.000306     -0.744217
      9.75299     10.35158     15.27637        -0.019290      0.002363      0.728677
      0.00000      0.00000     15.27637         0.000107     -0.001979     -0.766681
      0.09464     10.35144     18.45754         0.055061      0.004353      0.047964
      9.82872     11.82963     18.65370        -0.023464      0.005842      0.152439
      9.76025     10.34924     22.00442         0.002855      0.018378      0.290296
      0.01264     11.82873     21.63555        -0.000929     -0.001567     -0.118876
      9.75299      1.47880      8.77438        -0.002580     -0.008301     -3.893787
      0.00000      2.95759      8.77438         0.001148     -0.000049      3.357275
      0.00000      1.47880     12.02538         0.005278     -0.004084      0.585717
      9.75299      2.95759     12.02538        -0.007578     -0.000024     -0.747114
      9.75299      1.47880     15.27637        -0.018241     -0.008402      0.724763
      0.00000      2.95759     15.27637         0.002578     -0.000968     -0.772004
      0.09491      1.47782     18.45692         0.051770     -0.002581      0.048665
      9.83471      2.95533     18.64443        -0.024418      0.008202      0.147400
      9.75889      1.46892     22.00408        -0.000392     -0.015245      0.293624
      0.01160      2.95224     21.63635        -0.002134     -0.013736     -0.118448
      9.75299      4.43639      8.77438        -0.002447      0.008119     -3.893645
      0.00000      5.91519      8.77438         0.001152     -0.000009      3.360949
      0.00000      4.43639     12.02538         0.005450      0.004291      0.585664
      9.75299      5.91519     12.02538        -0.007515      0.000369     -0.742847
      9.75299      4.43639     15.27637        -0.039421      0.001532      0.717908
      0.00000      5.91519     15.27637         0.002360      0.000281     -0.774322
      0.09335      4.43572     18.45546         0.056194     -0.003069      0.034549
      9.83833      5.91470     18.65004        -0.007264     -0.000334      0.165112
      9.78137      4.41717     21.97620        -0.078059     -0.073625      0.259366
      0.02119      5.91516     21.63480        -0.005596     -0.005488     -0.094081
      3.25100      7.39399      8.77438         0.002489     -0.008164     -3.891220
      6.50199      8.87278      8.77438        -0.001085      0.000405      3.363744
      6.50199      7.39399     12.02538        -0.004968      0.004573      0.608210
      3.25100      8.87278     12.02538         0.007749      0.000073     -0.730433
      3.25100      7.39399     15.27637         0.045850      0.007891      0.773196
      6.50199      8.87278     15.27637        -0.025495     -0.051997     -0.647983
      6.59718      7.36924     18.49046         0.039229      0.024408      0.044675
      3.33310      8.87117     18.65354        -0.007083     -0.011555      0.138597
      3.26822      7.39486     22.00593         0.013718     -0.000166      0.301296
      6.52184      8.87333     21.60077         0.024590     -0.021012     -0.140775
      3.25100     10.35158      8.77438         0.002632      0.008395     -3.891452
      6.50199      0.00000      8.77438        -0.001079      0.000090      3.367225
      6.50199     10.35158     12.02538        -0.005075      0.003677      0.609889
      3.25100      0.00000     12.02538         0.007925     -0.000085     -0.728683
      3.25100     10.35158     15.27637         0.032965     -0.018159      0.766859
      6.50199      0.00000     15.27637        -0.030789     -0.002957     -0.828527
      6.59416     10.34079     18.42794         0.022029      0.004783      0.057772
[...]
      6.50199      5.91519     13.29976         0.003708     -0.000620     -0.412569
      4.52538      4.43639     12.02538         0.179868      0.007835      0.055885
      8.47860      4.43639     12.02538        -0.174080      0.007880      0.057860
      3.25100      5.91519     14.00199        -0.009577      0.000522      0.123208
      3.25100      5.91519     16.55076         0.008522     -0.002852     -0.341014
      7.77637      4.43639     15.27637        -0.733295      0.021591      0.066123
      5.22761      4.43639     15.27637         0.773693      0.023282      0.088233
      6.51652      5.91257     17.27859         0.030414      0.004982      0.251623
      6.49826      5.91976     19.84679         0.036383     -0.007860     -0.238197
      4.55649      4.43633     18.54881        -0.266171     -0.003911      0.025303
      8.46983      4.43629     18.56617         0.146629     -0.006943     -0.008829
      3.26637      5.91968     20.51974         0.027344     -0.004511     -0.017526
      3.28156      5.91325     23.09083        -0.026133      0.008727     -0.751199
      7.77014      4.39492     21.81608        -0.392912     -0.023449     -0.015790
      5.29699      4.42315     21.93300         0.394757     -0.023154     -0.109462
    total drift:                               -0.003503     -0.014274      0.050008

  FREE ENERGIE OF THE ION-ELECTRON SYSTEM (eV)
  free  energy   TOTEN  =     -2867.98752217 eV

  energy  without entropy=    -2867.98752217  energy(sigma->0) =    -2867.98752217