 vasp.6.3.0 20Jan22 (build Mar 11 2022 13:48:16) complex

 executed on             LinuxIFC date 2024.02.11  08:07:55

 INCAR:
   SYSTEM = Oxide-Surface
   ISMEAR = 0
   SIGMA = 0.05
   EDIFF = 1E-5
   ALGO = ALL
   ISTART = 0
   IBRION = -1
   NSW = 0
   ISYM = 2
   DIPOL = 0.5 0.5 0.5
   IDIPOL = 3
   LDIPOL = .TRUE.
   METAGGA = R2SCAN
   LUSE_VDW = .TRUE.
   BPARAM = 11.95
   CPARAM = 0.0093
   LASPH = .TRUE.
   ENCUT = 600
   PREC = Accurate
   LASPH = .TRUE.
   LREAL = .FALSE.
   ISPIN = 1
   NELM = 200
   NELMIN = 8
   NCORE = 19
   KPAR = 1
   LWAVE = .FALSE.
   LCHARG = .FALSE.

 POTCAR:    PAW_PBE C 08Apr2002
 POTCAR:    PAW_PBE H 15Jun2001
 POTCAR:    PAW_PBE Mg_pv 13Apr2007
 POTCAR:    PAW_PBE O 08Apr2002
|               ----> ADVICE to this user running VASP <----                  |
|     You have switched on vdW-DFT.                                           |
|     This routine was written and supplied by Jiri Klimes. We recommend      |
|     that you carefully read and cite the following publications:            |
|       J. Klimes, D.R. Bowler, A. Michelides                                 |
|          J. Phys.: Cond Matt. 22 022201 (2010)                              |
|       J. Klimes, D.R. Bowler, A. Michelides                                 |
|          Phys. Rev. B. 83, 195131 (2011)                                    |
|     and references therein.                                                 |

   TITEL  = PAW_PBE C 08Apr2002
   POMASS =   12.011; ZVAL   =    4.000    mass and valenz
   ENMAX  =  400.000; ENMIN  =  300.000 eV

   TITEL  = PAW_PBE H 15Jun2001
   POMASS =    1.000; ZVAL   =    1.000    mass and valenz
   ENMAX  =  250.000; ENMIN  =  200.000 eV

   TITEL  = PAW_PBE Mg_pv 13Apr2007
   POMASS =   24.305; ZVAL   =    8.000    mass and valenz
   ENMAX  =  403.929; ENMIN  =  302.947 eV

   TITEL  = PAW_PBE O 08Apr2002
   POMASS =   16.000; ZVAL   =    6.000    mass and valenz
   ENMAX  =  400.000; ENMIN  =  300.000 eV

  PAW_PBE C 08Apr2002                   :
  PAW_PBE H 15Jun2001                   :
  PAW_PBE Mg_pv 13Apr2007               :
  PAW_PBE O 08Apr2002                   :

 POSCAR:  C  H Mg  O
  positions in direct lattice

 METAGGA = R2SCA    LMAXTAU =  6    LMIXTAU =  F

 ion  position               nearest neighbor table
   1  0.500  0.500  0.796-   3 1.10   2 1.10   4 1.10   5 1.10
   2  0.500  0.606  0.825-   1 1.10
   3  0.500  0.394  0.825-   1 1.10
   4  0.607  0.500  0.766-   1 1.10
   5  0.393  0.500  0.766-   1 1.10
   6  0.000  0.750  0.352-  38 2.11  40 2.11  41 2.11  48 2.11  57 2.11
   7  0.250  0.000  0.352-  39 2.11  40 2.11  41 2.11  49 2.11  56 2.11
   8  0.000  0.000  0.451-  40 2.11  39 2.11  38 2.11  46 2.11  55 2.11  44 2.12
   9  0.250  0.750  0.451-  41 2.11  39 2.11  38 2.11  47 2.11  54 2.11  45 2.12
  10  0.000  0.750  0.550-  61 2.11  45 2.11  44 2.11  52 2.11  38 2.12  42 2.15
  11  0.250  1.000  0.550-  53 2.11  45 2.11  44 2.11  60 2.11  39 2.12  43 2.15
  12  0.000  1.000  0.649-  44 2.11  59 2.11  43 2.11  42 2.11  50 2.11
  13  0.250  0.750  0.649-  45 2.11  58 2.11  43 2.11  51 2.11  42 2.11
  14  0.000  0.250  0.352-  46 2.11  40 2.11  48 2.11  49 2.11  65 2.11
  15  0.250  0.500  0.352-  47 2.11  41 2.11  48 2.11  49 2.11  64 2.11
  16  0.000  0.500  0.451-  48 2.11  46 2.11  47 2.11  38 2.11  63 2.11  52 2.12
  17  0.250  0.250  0.451-  49 2.11  46 2.11  47 2.11  39 2.11  62 2.11  53 2.12
  18  0.000  0.250  0.550-  53 2.11  69 2.11  44 2.11  52 2.11  46 2.12  50 2.15
  19  0.250  0.500  0.550-  68 2.11  45 2.11  53 2.11  52 2.11  47 2.12  51 2.15
  20  0.000  0.500  0.649-  52 2.11  67 2.11  51 2.11  42 2.11  50 2.11
  21  0.250  0.250  0.649-  53 2.11  66 2.11  43 2.11  51 2.11  50 2.11
  22  0.500  0.750  0.352-  54 2.11  41 2.11  56 2.11  57 2.11  64 2.11
  23  0.750  0.000  0.352-  55 2.11  40 2.11  56 2.11  57 2.11  65 2.11
  24  0.500  0.000  0.451-  56 2.11  54 2.11  55 2.11  39 2.11  62 2.11  60 2.12
  25  0.750  0.750  0.451-  57 2.11  54 2.11  55 2.11  38 2.11  63 2.11  61 2.12
  26  0.500  0.750  0.550-  68 2.11  45 2.11  61 2.11  60 2.11  54 2.13  58 2.15
  27  0.750  0.000  0.550-  69 2.11  61 2.11  44 2.11  60 2.11  55 2.12  59 2.15
  28  0.500  1.000  0.649-  66 2.11  58 2.11  60 2.11  43 2.11  59 2.11
  29  0.750  0.750  0.649-  61 2.11  58 2.11  59 2.11  67 2.11  42 2.11
  30  0.500  0.250  0.352-  62 2.11  56 2.11  49 2.11  64 2.11  65 2.11
  31  0.750  0.500  0.352-  63 2.11  57 2.11  48 2.11  64 2.11  65 2.11
  32  0.500  0.500  0.451-  64 2.11  54 2.11  62 2.11  63 2.11  47 2.11  68 2.12
  33  0.750  0.250  0.451-  65 2.11  55 2.11  62 2.11  63 2.11  46 2.11  69 2.12
  34  0.500  0.250  0.550-  68 2.11  53 2.11  69 2.11  60 2.11  62 2.13  66 2.15
  35  0.750  0.500  0.550-  68 2.11  61 2.11  69 2.11  52 2.11  63 2.12  67 2.15
  36  0.500  0.500  0.649-  66 2.11  58 2.11  51 2.11  67 2.11  68 2.12
  37  0.750  0.250  0.649-  69 2.11  66 2.11  59 2.11  67 2.11  50 2.11
  38  0.000  0.750  0.451-   6 2.11   8 2.11   9 2.11  16 2.11  25 2.11  10 2.12
  39  0.250  0.000  0.451-   7 2.11   8 2.11   9 2.11  17 2.11  24 2.11  11 2.12
  40  0.000  0.000  0.352-   8 2.11   7 2.11   6 2.11  14 2.11  23 2.11
  41  0.250  0.750  0.352-   9 2.11   7 2.11   6 2.11  15 2.11  22 2.11
  42  0.000  0.750  0.651-  12 2.11  20 2.11  29 2.11  13 2.11  10 2.15
  43  0.250  0.000  0.651-  21 2.11  13 2.11  12 2.11  28 2.11  11 2.15
  44  0.000  1.000  0.550-  10 2.11  18 2.11  12 2.11  11 2.11  27 2.11   8 2.12
  45  0.250  0.750  0.550-  13 2.11  10 2.11  11 2.11  19 2.11  26 2.11   9 2.12
  46  0.000  0.250  0.451-  14 2.11   8 2.11  16 2.11  17 2.11  33 2.11  18 2.12
  47  0.250  0.500  0.451-  15 2.11   9 2.11  16 2.11  17 2.11  32 2.11  19 2.12
  48  0.000  0.500  0.352-  16 2.11  14 2.11  15 2.11   6 2.11  31 2.11
  49  0.250  0.250  0.352-  17 2.11  14 2.11  15 2.11   7 2.11  30 2.11
  50  0.000  0.250  0.651-  12 2.11  20 2.11  21 2.11  37 2.11  18 2.15
  51  0.250  0.500  0.651-  20 2.11  21 2.11  13 2.11  36 2.11  19 2.15
  52  0.000  0.500  0.550-  20 2.11  10 2.11  18 2.11  19 2.11  35 2.11  16 2.12
  53  0.250  0.250  0.550-  21 2.11  18 2.11  11 2.11  19 2.11  34 2.11  17 2.12
  54  0.500  0.750  0.451-  22 2.11   9 2.11  24 2.11  25 2.11  32 2.11  26 2.13
  55  0.750  0.000  0.451-  23 2.11   8 2.11  24 2.11  25 2.11  33 2.11  27 2.12
  56  0.500  0.000  0.352-  24 2.11  22 2.11  23 2.11   7 2.11  30 2.11
  57  0.750  0.750  0.352-  25 2.11  22 2.11  23 2.11   6 2.11  31 2.11
  58  0.500  0.750  0.651-  28 2.11  13 2.11  29 2.11  36 2.11  26 2.15
  59  0.750  0.000  0.651-  37 2.11  29 2.11  12 2.11  28 2.11  27 2.15
  60  0.500  1.000  0.550-  28 2.11  27 2.11  11 2.11  26 2.11  34 2.11  24 2.12
  61  0.750  0.750  0.550-  29 2.11  10 2.11  27 2.11  35 2.11  26 2.11  25 2.12
  62  0.500  0.250  0.451-  30 2.11  24 2.11  17 2.11  32 2.11  33 2.11  34 2.13
  63  0.750  0.500  0.451-  31 2.11  25 2.11  16 2.11  32 2.11  33 2.11  35 2.12
  64  0.500  0.500  0.352-  32 2.11  22 2.11  30 2.11  31 2.11  15 2.11
  65  0.750  0.250  0.352-  33 2.11  23 2.11  30 2.11  31 2.11  14 2.11
  66  0.500  0.250  0.651-  28 2.11  21 2.11  37 2.11  36 2.11  34 2.15
  67  0.750  0.500  0.651-  20 2.11  29 2.11  37 2.11  36 2.11  35 2.15
  68  0.500  0.500  0.550-  35 2.11  19 2.11  34 2.11  26 2.11  36 2.12  32 2.12
  69  0.750  0.250  0.550-  37 2.11  18 2.11  27 2.11  35 2.11  34 2.11  33 2.12

  LATTYP: Found a simple tetragonal cell.
 ALAT       =     8.4409846542
 C/A-ratio  =     2.5270438657

  Lattice vectors:

 A1 = (   8.4409846542,   0.0000000000,   0.0000000000)
 A2 = (   0.0000000000,   8.4409846542,   0.0000000000)
 A3 = (   0.0000000000,   0.0000000000,  21.3307384906)

Analysis of symmetry for initial positions (statically):
 Subroutine PRICEL returns:
 Original cell was already a primitive cell.

 Routine SETGRP: Setting up the symmetry group for a
 simple tetragonal supercell.

 Subroutine GETGRP returns: Found  4 space group operations
 (whereof  4 operations were pure point group operations)
 out of a pool of 16 trial point group operations.

The static configuration has the point symmetry C_2v.

Analysis of symmetry for dynamics (positions and initial velocities):
 Subroutine PRICEL returns:
 Original cell was already a primitive cell.

[...]

The dynamic configuration has the point symmetry C_2v.

Analysis of constrained symmetry for selective dynamics:
 Subroutine PRICEL returns:
 Original cell was already a primitive cell.

 Routine SETGRP: Setting up the symmetry group for a
 simple tetragonal supercell.

 Subroutine GETGRP returns: Found  4 space group operations
 (whereof  4 operations were pure point group operations)
 out of a pool of 16 trial point group operations.

The constrained configuration has the point symmetry C_2v.

 Subroutine INISYM returns: Found  4 space group operations
 (whereof  4 operations are pure point group operations),
 and found     1 'primitive' translations

                                     Primitive cell

  volume of cell :    1519.8199

  direct lattice vectors                    reciprocal lattice vectors
     8.440984654  0.000000000  0.000000000     0.118469591  0.000000000  0.000000000
     0.000000000  8.440984654  0.000000000     0.000000000  0.118469591  0.000000000
     0.000000000  0.000000000 21.330738491     0.000000000  0.000000000  0.046880702

  length of vectors
     8.440984654  8.440984654 21.330738491     0.118469591  0.118469591  0.046880702

  position of ions in fractional coordinates (direct lattice)
     0.500000022  0.499997701  0.795765481
     0.499999966  0.606400245  0.825294148
     0.499999960  0.393601765  0.825293628
     0.607088423  0.500000081  0.766452828
     0.392911520  0.500000085  0.766452812
     0.000000000  0.750000000  0.351605267
     0.250000000  0.000000000  0.351605267
     0.000000000  0.000000000  0.450535089
     0.250000000  0.750000000  0.450535089
     0.000000003  0.750032167  0.550141647
     0.249992769  0.999999998  0.550135640
     0.000000010  0.999999991  0.648847037
     0.250116514  0.750097339  0.648710816
     0.000000000  0.250000000  0.351605267
     0.250000000  0.500000000  0.351605267
     0.000000000  0.500000000  0.450535089
     0.250000000  0.250000000  0.450535089
     0.000000007  0.249967822  0.550141651
     0.250108445  0.500000001  0.550153757
     0.000000011  0.499999994  0.648675549
     0.250116504  0.249902631  0.648710813
     0.500000000  0.750000000  0.351605267
     0.750000000  0.000000000  0.351605267
     0.500000000  0.000000000  0.450535089
     0.750000000  0.750000000  0.450535089
     0.499999994  0.749901112  0.550182719
     0.750007254  0.000000005  0.550135636
     0.500000006  0.999999998  0.648747779
     0.749883526  0.750097344  0.648710829
     0.500000000  0.250000000  0.351605267
     0.750000000  0.500000000  0.351605267
     0.500000000  0.500000000  0.450535089
     0.750000000  0.250000000  0.450535089
     0.500000001  0.250098874  0.550182703
     0.749891587  0.499999991  0.550153763
     0.500000014  0.499999988  0.649279172
     0.749883523  0.249902625  0.648710829
     0.000000000  0.750000000  0.450535089
[...]
   0.00000009  4.22049228 13.83672850
   2.11122957  2.10942427 13.83748070
   4.22049233  6.33073849  7.50000000
   6.33073849  0.00000000  7.50000000
   4.22049233  0.00000000  9.61024616
   6.33073849  6.33073849  9.61024616
   4.22049228  6.32990378 11.73580370
   6.33079972  0.00000005 11.73479938
   4.22049238  8.44098463 13.83826923
   6.32975533  6.33156017 13.83748104
   4.22049233  2.11024616  7.50000000
   6.33073849  4.22049233  7.50000000
   4.22049233  4.22049233  9.61024616
   6.33073849  2.11024616  9.61024616
   4.22049233  2.11108076 11.73580336
   6.32982338  4.22049225 11.73518604
   4.22049245  4.22049223 13.84960423
   6.32975531  2.10942422 13.83748104
   0.00000000  6.33073849  9.61024616
   2.11024616  0.00000000  9.61024616
   0.00000000  0.00000000  7.50000000
   2.11024616  6.33073849  7.50000000
   0.00000009  6.33109112 13.88591387
   2.10973855  0.00000002 13.88667115
   0.00000012  8.44098449 11.73026565
   2.10960548  6.33084647 11.72904882
   0.00000000  2.11024616  9.61024616
   2.11024616  4.22049233  9.61024616
   0.00000000  4.22049233  7.50000000
   2.11024616  2.11024616  7.50000000
   0.00000014  2.10989341 13.88591345
   2.10813128  4.22049217 13.88635517
   0.00000014  4.22049235 11.72825144
   2.10960551  2.11013810 11.72904875
   4.22049233  6.33073849  9.61024616
   6.33073849  0.00000000  9.61024616
   4.22049233  0.00000000  7.50000000
   6.33073849  6.33073849  7.50000000
   4.22049236  6.33193375 13.88123768
   6.33124642  0.00000003 13.88667128
   4.22049244  8.44098455 11.72804908
   6.33137928  6.33084645 11.72904886
   4.22049233  2.11024616  9.61024616
   6.33073849  4.22049233  9.61024616
   4.22049233  4.22049233  7.50000000
   6.33073849  2.11024616  7.50000000
   4.22049236  2.10905082 13.88123754
   6.33285378  4.22049222 13.88635524
   4.22049247  4.22049226 11.73183669
   6.33137917  2.11013802 11.72904886

--------------------------------------- Iteration      FINAL  ---------------------------------------

--------------------OUTCAR has been truncated-------------------------

[...]

--------------------OUTCAR has been truncated-------------------------

  FORCE on cell =-STRESS in cart. coord.  units (eV):
  Direction    XX          YY          ZZ          XY          YZ          ZX
  Alpha Z   899.97440   899.97440   899.97440
  Ewald  158472.03545158469.55949************    -0.00000    -0.00268    -0.00001
  Hartree168721.76703168720.52216************    -0.00000    -0.00003     0.00001
  E(xc)   -2682.19001 -2682.17036 -2680.37908     0.00001     0.00003     0.00000
  Local  ************************337124.05647     0.00000     0.00100    -0.00003
  n-local -2801.09577 -2801.08350 -2822.48646    -0.00004    -0.00003     0.00001
  augment  1177.49605  1177.49748  1168.33743     0.00000     0.00001     0.00000
  Kinetic  7418.34748  7418.35740  7454.87872     0.00020     0.00049     0.00008
  Fock        0.00000     0.00000     0.00000     0.00000     0.00000     0.00000
  Total     -45.67937   -45.73427   -14.89988     0.00000     0.00000     0.00000
  in kB     -48.15469   -48.21257   -15.70729     0.00000     0.00000     0.00000

 VOLUME and BASIS-vectors are now :
  energy-cutoff  :      600.00
  volume of cell :     1519.82
      direct lattice vectors                 reciprocal lattice vectors
     8.440984654  0.000000000  0.000000000     0.118469591  0.000000000  0.000000000
     0.000000000  8.440984654  0.000000000     0.000000000  0.118469591  0.000000000
     0.000000000  0.000000000 21.330738491     0.000000000  0.000000000  0.046880702

  length of vectors
     8.440984654  8.440984654 21.330738491     0.118469591  0.118469591  0.046880702

 FORCES acting on ions:
    Electron-Ion                     Ewald-Force                    Non-Local-Force
   -.741E-04 0.801E-02 -.932E+03   -.191E-04 0.142E-02 0.932E+03   -.315E-21 0.168E-20 -.120E+00
   0.283E-04 -.430E+02 -.231E+03   -.216E-04 0.474E+02 0.234E+03   -.171E-21 -.463E+01 -.324E+01
   0.336E-04 0.430E+02 -.231E+03   -.245E-04 -.474E+02 0.234E+03   0.809E-22 0.463E+01 -.324E+01
   -.432E+02 -.867E-04 -.235E+03   0.477E+02 0.885E-03 0.232E+03   -.469E+01 0.857E-20 0.313E+01
   0.432E+02 -.903E-04 -.235E+03   -.477E+02 0.887E-03 0.232E+03   0.469E+01 0.490E-20 0.313E+01
   0.947E-06 -.144E+00 0.208E+04   -.251E-05 0.144E+00 -.207E+04   -.604E-21 -.460E-03 -.716E+01
   0.139E+00 0.927E-06 0.208E+04   -.139E+00 -.297E-05 -.207E+04   -.509E-04 -.788E-21 -.716E+01
   -.300E-06 0.607E-06 0.707E+03   -.610E-05 0.103E-05 -.707E+03   0.301E-21 -.406E-21 0.414E+00
   0.554E+00 -.602E+00 0.708E+03   -.553E+00 0.602E+00 -.709E+03   -.561E-03 -.156E-03 0.392E+00
   0.909E-06 -.232E+01 -.652E+03   -.193E-04 0.232E+01 0.653E+03   0.886E-21 -.755E-02 -.129E+00
   0.229E+01 0.124E-04 -.652E+03   -.229E+01 -.401E-04 0.653E+03   -.480E-02 0.371E-21 -.111E+00
   -.248E-04 0.261E-04 -.201E+04   0.194E-04 -.665E-04 0.201E+04   -.752E-23 -.927E-24 0.613E+01
   0.147E+02 -.148E+02 -.200E+04   -.146E+02 0.149E+02 0.199E+04   -.327E-01 -.481E-01 0.611E+01
   0.702E-06 0.144E+00 0.208E+04   -.234E-05 -.144E+00 -.207E+04   -.830E-21 0.460E-03 -.716E+01
   0.145E+00 -.853E-06 0.208E+04   -.144E+00 0.287E-05 -.207E+04   -.104E-02 -.475E-21 -.716E+01
   0.377E-05 0.112E-05 0.708E+03   -.154E-04 -.836E-06 -.709E+03   0.108E-21 -.488E-23 0.373E+00
   0.554E+00 0.602E+00 0.708E+03   -.553E+00 -.602E+00 -.709E+03   -.561E-03 0.156E-03 0.392E+00
   -.752E-05 0.232E+01 -.652E+03   -.348E-04 -.232E+01 0.653E+03   0.339E-21 0.755E-02 -.129E+00
   0.388E+01 0.861E-06 -.646E+03   -.386E+01 0.167E-04 0.646E+03   -.358E-01 0.705E-21 -.134E+00
   -.281E-04 0.115E-04 -.200E+04   0.334E-04 0.567E-04 0.199E+04   0.130E-21 0.202E-20 0.609E+01
   0.147E+02 0.148E+02 -.200E+04   -.146E+02 -.149E+02 0.199E+04   -.327E-01 0.481E-01 0.611E+01
   -.114E-05 -.149E+00 0.208E+04   0.274E-05 0.149E+00 -.207E+04   0.498E-21 0.542E-03 -.716E+01
   -.139E+00 0.122E-05 0.208E+04   0.139E+00 -.330E-05 -.207E+04   0.509E-04 -.176E-21 -.716E+01
   -.354E-05 0.115E-04 0.708E+03   0.536E-05 -.265E-04 -.709E+03   0.512E-22 0.174E-20 0.361E+00
   -.554E+00 -.602E+00 0.708E+03   0.553E+00 0.602E+00 -.709E+03   0.561E-03 -.156E-03 0.392E+00
   -.160E-04 -.395E+01 -.646E+03   0.685E-04 0.393E+01 0.646E+03   -.640E-22 0.322E-01 -.263E+00
   -.229E+01 0.534E-05 -.652E+03   0.229E+01 -.769E-04 0.653E+03   0.480E-02 0.319E-21 -.111E+00
   -.250E-04 0.891E-05 -.200E+04   0.492E-04 -.141E-03 0.200E+04   -.315E-21 -.120E-21 0.612E+01
   -.147E+02 -.148E+02 -.200E+04   0.146E+02 0.149E+02 0.199E+04   0.327E-01 -.481E-01 0.611E+01
   -.815E-06 0.149E+00 0.208E+04   0.235E-05 -.149E+00 -.207E+04   -.934E-21 -.542E-03 -.716E+01
   -.145E+00 -.115E-05 0.208E+04   0.144E+00 0.313E-05 -.207E+04   0.104E-02 0.714E-21 -.716E+01
   -.930E-05 -.922E-05 0.709E+03   0.163E-04 0.270E-04 -.710E+03   -.842E-21 -.280E-21 0.422E+00
   -.554E+00 0.602E+00 0.708E+03   0.553E+00 -.602E+00 -.709E+03   0.561E-03 0.156E-03 0.392E+00
   -.165E-04 0.395E+01 -.646E+03   0.282E-04 -.393E+01 0.646E+03   0.229E-21 -.322E-01 -.263E+00
   -.388E+01 0.150E-04 -.646E+03   0.386E+01 0.286E-04 0.646E+03   0.358E-01 -.653E-21 -.134E+00
   -.388E-04 0.270E-04 -.195E+04   0.463E-04 0.238E-03 0.194E+04   -.234E-21 -.339E-20 0.594E+01
   -.147E+02 0.148E+02 -.200E+04   0.146E+02 -.149E+02 0.199E+04   0.327E-01 0.481E-01 0.611E+01
   0.310E-05 -.437E+00 0.530E+03   -.831E-05 0.430E+00 -.530E+03   -.837E-22 0.912E-02 -.949E-01
   0.427E+00 0.249E-05 0.530E+03   -.419E+00 -.932E-05 -.530E+03   -.115E-01 0.101E-20 -.907E-01
   0.374E-06 0.345E-06 0.156E+04   -.130E-05 -.115E-05 -.156E+04   0.414E-21 -.518E-21 0.342E+01
   0.106E+00 -.110E+00 0.156E+04   -.105E+00 0.110E+00 -.156E+04   -.674E-03 0.178E-04 0.342E+01
   -.122E-03 -.613E+01 -.153E+04   0.279E-04 0.612E+01 0.153E+04   0.932E-21 0.722E-02 -.506E+01
   0.588E+01 -.642E-05 -.153E+04   -.587E+01 -.109E-03 0.153E+04   0.364E-03 -.207E-20 -.507E+01
   -.145E-03 0.189E-03 -.486E+03   -.150E-04 -.190E-05 0.485E+03   -.653E-22 0.202E-21 0.256E+00
   0.229E+01 -.230E+01 -.481E+03   -.227E+01 0.230E+01 0.481E+03   -.133E-01 0.402E-02 0.296E+00
   0.241E-05 0.437E+00 0.530E+03   -.942E-05 -.430E+00 -.530E+03   -.208E-21 -.912E-02 -.949E-01
   0.461E+00 -.161E-05 0.531E+03   -.470E+00 0.758E-05 -.531E+03   0.119E-01 -.422E-21 -.924E-01
   0.816E-06 -.288E-06 0.156E+04   -.224E-05 0.108E-05 -.156E+04   0.719E-21 -.851E-21 0.342E+01
   0.106E+00 0.110E+00 0.156E+04   -.105E+00 -.110E+00 -.156E+04   -.674E-03 -.178E-04 0.342E+01
   -.165E-03 0.613E+01 -.153E+04   -.101E-05 -.612E+01 0.153E+04   0.786E-21 -.722E-02 -.506E+01
   0.189E+02 0.184E-03 -.150E+04   -.188E+02 0.934E-04 0.151E+04   -.934E-01 0.321E-20 -.507E+01
   -.169E-03 -.202E-04 -.481E+03   -.963E-05 0.212E-05 0.481E+03   0.286E-21 0.304E-21 0.310E+00
   0.229E+01 0.230E+01 -.481E+03   -.227E+01 -.230E+01 0.481E+03   -.133E-01 -.402E-02 0.296E+00
   -.594E-05 -.474E+00 0.531E+03   0.130E-04 0.485E+00 -.531E+03   0.592E-21 -.146E-01 -.104E+00
   -.427E+00 0.512E-05 0.530E+03   0.419E+00 -.137E-04 -.530E+03   0.115E-01 0.143E-20 -.907E-01
   -.495E-06 0.133E-05 0.156E+04   0.137E-05 -.357E-05 -.156E+04   -.253E-21 0.292E-21 0.341E+01
   -.106E+00 -.110E+00 0.156E+04   0.105E+00 0.110E+00 -.156E+04   0.674E-03 0.178E-04 0.342E+01
   -.587E-04 -.187E+02 -.150E+04   0.541E-04 0.186E+02 0.151E+04   0.177E-20 0.925E-01 -.512E+01
   -.588E+01 -.133E-04 -.153E+04   0.587E+01 -.118E-03 0.153E+04   -.364E-03 -.241E-20 -.507E+01
   -.146E-03 0.134E-03 -.482E+03   0.246E-04 -.343E-04 0.481E+03   -.728E-21 0.774E-22 0.275E+00
   -.229E+01 -.230E+01 -.481E+03   0.227E+01 0.230E+01 0.481E+03   0.133E-01 0.402E-02 0.296E+00
   -.294E-05 0.474E+00 0.531E+03   0.802E-05 -.485E+00 -.531E+03   0.116E-20 0.146E-01 -.104E+00
   -.461E+00 -.441E-05 0.531E+03   0.470E+00 0.103E-04 -.531E+03   -.119E-01 0.356E-21 -.924E-01
   -.978E-06 -.126E-05 0.156E+04   0.236E-05 0.350E-05 -.156E+04   -.363E-21 -.867E-21 0.341E+01
   -.106E+00 0.110E+00 0.156E+04   0.105E+00 -.110E+00 -.156E+04   0.674E-03 -.178E-04 0.342E+01
   -.518E-04 0.187E+02 -.150E+04   0.290E-04 -.186E+02 0.151E+04   0.497E-21 -.925E-01 -.512E+01
   -.189E+02 0.136E-03 -.150E+04   0.188E+02 0.859E-04 0.151E+04   0.934E-01 -.258E-20 -.507E+01
   -.184E-03 0.821E-04 -.477E+03   0.316E-04 0.362E-04 0.477E+03   0.195E-21 -.423E-21 0.131E+00
   -.229E+01 0.230E+01 -.481E+03   0.227E+01 -.230E+01 0.481E+03   0.133E-01 -.402E-02 0.296E+00
   -.234E-02 0.913E-02 0.193E+02   0.586E-12 -.348E-12 0.165E-11   -.694E-17 0.434E-17 -.189E+02

 POSITION                                       TOTAL-FORCE (eV/Angst)
      4.22049      4.22047     16.97427        -0.000000      0.000000      0.020596
      4.22049      5.11862     17.60413        -0.000000     -0.194431     -0.149652
      4.22049      3.32239     17.60412        -0.000000      0.194431     -0.149652
      5.12442      4.22049     16.34900        -0.158351     -0.000000      0.100182
      3.31656      4.22049     16.34900         0.158351     -0.000000      0.100182
      0.00000      6.33074      7.50000        -0.000000     -0.000061      0.535972
      2.11025      0.00000      7.50000        -0.000079     -0.000000      0.535703
      0.00000      0.00000      9.61025        -0.000000     -0.000000     -0.041186
      2.11025      6.33074      9.61025         0.000453     -0.000127     -0.041198
      0.00000      6.33101     11.73493        -0.000000     -0.005700      0.051896
      2.11019      8.44098     11.73480         0.003511     -0.000000      0.051891
      0.00000      8.44098     13.84039        -0.000000     -0.000000     -0.068031
      2.11123      6.33156     13.83748        -0.005712      0.003491     -0.087636
      0.00000      2.11025      7.50000        -0.000000      0.000061      0.535972
      2.11025      4.22049      7.50000        -0.000067     -0.000000      0.536275
      0.00000      4.22049      9.61025        -0.000000     -0.000000     -0.039377
      2.11025      2.11025      9.61025         0.000453      0.000127     -0.041198
      0.00000      2.10997     11.73493        -0.000000      0.005700      0.051896
      2.11116      4.22049     11.73519        -0.012751     -0.000000      0.056884
      0.00000      4.22049     13.83673        -0.000000     -0.000000     -0.093639
      2.11123      2.10942     13.83748        -0.005712     -0.003491     -0.087636
      4.22049      6.33074      7.50000        -0.000000     -0.000036      0.535805
      6.33074      0.00000      7.50000         0.000079     -0.000000      0.535703
      4.22049      0.00000      9.61025        -0.000000     -0.000000     -0.037560
      6.33074      6.33074      9.61025        -0.000453     -0.000127     -0.041198
      4.22049      6.32990     11.73580        -0.000000      0.012802      0.050811
      6.33080      0.00000     11.73480        -0.003511     -0.000000      0.051891
      4.22049      8.44098     13.83827        -0.000000     -0.000000     -0.085180
      6.32976      6.33156     13.83748         0.005712      0.003491     -0.087636
      4.22049      2.11025      7.50000        -0.000000      0.000036      0.535805
      6.33074      4.22049      7.50000         0.000067     -0.000000      0.536275
      4.22049      4.22049      9.61025        -0.000000     -0.000000     -0.036022
      6.33074      2.11025      9.61025        -0.000453      0.000127     -0.041198
      4.22049      2.11108     11.73580        -0.000000     -0.012802      0.050811
      6.32982      4.22049     11.73519         0.012751     -0.000000      0.056884
      4.22049      4.22049     13.84960        -0.000000     -0.000000     -0.010472
      6.32976      2.10942     13.83748         0.005712     -0.003491     -0.087636
      0.00000      6.33074      9.61025        -0.000000      0.002570      0.069431
      2.11025      0.00000      9.61025        -0.003425     -0.000000      0.070198
      0.00000      0.00000      7.50000        -0.000000     -0.000000     -0.355529
      2.11025      6.33074      7.50000        -0.000201      0.000042     -0.355688
      0.00000      6.33109     13.88591        -0.000000     -0.003554     -0.186875
      2.10974      0.00000     13.88667         0.004437     -0.000000     -0.192722
      0.00000      8.44098     11.73027        -0.000000     -0.000000      0.000941
      2.10961      6.33085     11.72905         0.000818     -0.000597      0.007599
      0.00000      2.11025      9.61025        -0.000000     -0.002570      0.069431
      2.11025      4.22049      9.61025         0.003132     -0.000000      0.071729
      0.00000      4.22049      7.50000        -0.000000     -0.000000     -0.355315
      2.11025      2.11025      7.50000        -0.000201     -0.000042     -0.355688
      0.00000      2.10989     13.88591        -0.000000      0.003554     -0.186875
      2.10813      4.22049     13.88636        -0.008825     -0.000000     -0.182644
      0.00000      4.22049     11.72825        -0.000000     -0.000000      0.013444
      2.10961      2.11014     11.72905         0.000818      0.000597      0.007599
      4.22049      6.33074      9.61025        -0.000000     -0.003958      0.071237
      6.33074      0.00000      9.61025         0.003425     -0.000000      0.070198
      4.22049      0.00000      7.50000        -0.000000     -0.000000     -0.355854
      6.33074      6.33074      7.50000         0.000201      0.000042     -0.355688
      4.22049      6.33193     13.88124        -0.000000      0.008152     -0.177742
      6.33125      0.00000     13.88667        -0.004437     -0.000000     -0.192722
      4.22049      8.44098     11.72805        -0.000000     -0.000000      0.011317
      6.33138      6.33085     11.72905        -0.000818     -0.000597      0.007599
      4.22049      2.11025      9.61025        -0.000000      0.003958      0.071237
      6.33074      4.22049      9.61025        -0.003132     -0.000000      0.071729
      4.22049      4.22049      7.50000        -0.000000     -0.000000     -0.355894
      6.33074      2.11025      7.50000         0.000201     -0.000042     -0.355688
      4.22049      2.10905     13.88124        -0.000000     -0.008152     -0.177742
      6.33285      4.22049     13.88636         0.008825     -0.000000     -0.182644
      4.22049      4.22049     11.73184        -0.000000     -0.000000     -0.001309
      6.33138      2.11014     11.72905        -0.000818      0.000597      0.007599
    total drift:                               -0.002341      0.009127      0.313731

  FREE ENERGIE OF THE ION-ELECTRON SYSTEM (eV)
  free  energy   TOTEN  =      -516.06597515 eV

  energy  without entropy=     -516.06597515  energy(sigma->0) =     -516.06597515