 vasp.6.3.0 20Jan22 (build Apr  1 2022 16:44:48) complex
 executed on        HPECrayEX_GCC date 2022.11.09  20:08:52

 INCAR:
   SYSTEM = MgO-rocksalt
   ISMEAR = 0
   SIGMA = 0.05
   EDIFF = 1E-7
   ALGO = ALL
   ISTART = 0
   IBRION = 2
   NSW = 1000
   ISYM = 0
   ISIF = 2
   EDIFFG = -0.015
   DIPOL = 0.5 0.5 0.5
   IDIPOL = 3
   LDIPOL = .TRUE.
   LHFCALC = .TRUE.
   GGA = PE
   IVDW = 13
   VDW_S8 = 1.2007
   VDW_A1 = 0.4009
   VDW_A2 = 5.0293
   ENCUT = 600
   PREC = Accurate
   LASPH = .TRUE.
   LREAL = .FALSE.
   ISPIN = 2
   MAGMOM = 1.0 0.0 0.0 0.0 0.0 0.0 0.0 0.0 0.0 0.0 0.0 0.0 0.0 0.0 0.0 0.0 0.0 0.0 0.0 0.0 0.0 0.0 0.0 0.0 0.0 0.0 0.0 0.0 0.0 0.0 0.0 0.0 0.0 0.0 0.0 0.0 0.0 0.0 0.0 0.0 0.0 0.0 0.0 0.0 0.0 0.0 0.0 0.0 0.0 0.0 0.0 0.0 0.0 0.0 0.0 0.0 0.0 0.0 0.0 0.0 0.0 0.0 0.0 0.0 0.0 0.0
   NELM = 200
   NELMIN = 8
   NCORE = 8
   KPAR = 1
   LWAVE = .FALSE.
   LCHARG = .FALSE.

 POTCAR:    PAW_PBE N 08Apr2002
 POTCAR:    PAW_PBE O 08Apr2002
 POTCAR:    PAW_PBE Mg_pv 13Apr2007
 POTCAR:    PAW_PBE O 08Apr2002
 POTCAR:    PAW_PBE N 08Apr2002
   VRHFIN =N: s2p3

   TITEL  = PAW_PBE N 08Apr2002
   POMASS =   14.001; ZVAL   =    5.000    mass and valenz
   ENMAX  =  400.000; ENMIN  =  300.000 eV

[...]

   TITEL  = PAW_PBE Mg_pv 13Apr2007
   POMASS =   24.305; ZVAL   =    8.000    mass and valenz
   ENMAX  =  403.929; ENMIN  =  302.947 eV

   TITEL  = PAW_PBE O 08Apr2002
   POMASS =   16.000; ZVAL   =    6.000    mass and valenz
   ENMAX  =  400.000; ENMIN  =  300.000 eV

  PAW_PBE N 08Apr2002                   :
  PAW_PBE O 08Apr2002                   :
  PAW_PBE Mg_pv 13Apr2007               :
  PAW_PBE O 08Apr2002                   :

 POSCAR:  N  O Mg  O
  positions in direct lattice
  velocities in cartesian coordinates
|           W    W    AA    RRRRR   N    N  II  N    N   GGGG   !!!           |
|           W    W   A  A   R    R  NN   N  II  NN   N  G    G  !!!           |
|           W    W  A    A  R    R  N N  N  II  N N  N  G       !!!           |
|           W WW W  AAAAAA  RRRRR   N  N N  II  N  N N  G  GGG   !            |
|           WW  WW  A    A  R   R   N   NN  II  N   NN  G    G                |
|           W    W  A    A  R    R  N    N  II  N    N   GGGG   !!!           |
|     Specifying the vdW parameters                                           |
|     VDW_S8 = 1.201                                                          |
|     VDW_A1 = 0.401                                                          |
|     VDW_A2 = 5.029                                                          |
|     in the INCAR file will overwrite the defaults for pbe0. Please make     |
|     sure that is what you intended.                                         |

 ion  position               nearest neighbor table
   1  0.625  0.625  0.770-   2 1.16
   2  0.625  0.625  0.824-   1 1.16
   3  0.250  0.000  0.353-  37 2.09  38 2.09  45 2.09  54 2.09  35 2.09
   4  0.500  0.250  0.353-  37 2.09  38 2.09  46 2.09  53 2.09  36 2.09
   5  0.250  0.250  0.451-  35 2.09  36 2.09  43 2.09  52 2.09  37 2.09  41 2.09
   6  0.500  0.000  0.451-  42 2.09  36 2.09  35 2.09  44 2.09  51 2.09  38 2.09
   7  0.250  1.000  0.549-  42 2.09  49 2.09  41 2.09  58 2.09  35 2.09  39 2.12
   8  0.500  0.250  0.549-  50 2.09  41 2.09  57 2.09  42 2.09  36 2.09  40 2.12
   9  0.250  0.250  0.647-  41 2.08  56 2.09  39 2.09  40 2.09  47 2.09
  10  0.500  0.000  0.647-  42 2.07  48 2.08  40 2.09  39 2.09  55 2.09
  11  0.250  0.500  0.353-  37 2.09  45 2.09  46 2.09  62 2.09  43 2.09
  12  0.500  0.750  0.353-  38 2.09  45 2.09  46 2.09  61 2.09  44 2.09
  13  0.250  0.750  0.451-  49 2.09  43 2.09  44 2.09  35 2.09  60 2.09  45 2.09
  14  0.500  0.500  0.451-  36 2.09  43 2.09  44 2.09  59 2.09  46 2.09  50 2.09
  15  0.250  0.500  0.549-  50 2.09  41 2.09  49 2.09  66 2.09  43 2.09  47 2.12
  16  0.500  0.750  0.549-  50 2.09  65 2.09  42 2.09  49 2.09  44 2.10  48 2.11
  17  0.250  0.750  0.647-  49 2.07  48 2.08  64 2.09  39 2.09  47 2.09
  18  0.500  0.500  0.648-  40 2.09  47 2.09  50 2.09  63 2.09  48 2.09
  19  0.750  0.000  0.353-  38 2.09  53 2.09  54 2.09  61 2.09  51 2.09
  20  0.000  0.250  0.353-  37 2.09  53 2.09  54 2.09  62 2.09  52 2.09
  21  0.750  0.250  0.451-  57 2.09  51 2.09  52 2.09  36 2.09  59 2.09  53 2.09
  22  0.000  0.000  0.451-  35 2.09  51 2.09  52 2.09  60 2.09  54 2.09  58 2.09
  23  0.750  1.000  0.549-  65 2.09  58 2.09  42 2.09  57 2.09  51 2.09  55 2.12
  24  1.000  0.250  0.549-  66 2.09  57 2.09  41 2.09  58 2.09  52 2.09  56 2.12
  25  0.750  0.250  0.647-  57 2.07  63 2.08  55 2.09  56 2.09  40 2.09
  26  1.000  1.000  0.647-  58 2.08  39 2.09  56 2.09  64 2.09  55 2.09
  27  0.750  0.500  0.353-  46 2.09  53 2.09  61 2.09  62 2.09  59 2.09
  28  0.000  0.750  0.353-  45 2.09  54 2.09  61 2.09  62 2.09  60 2.09
  29  0.750  0.750  0.451-  44 2.09  51 2.09  59 2.09  60 2.09  61 2.09  65 2.09
  30  0.000  0.500  0.451-  66 2.09  52 2.09  59 2.09  60 2.09  43 2.09  62 2.09
  31  0.750  0.500  0.549-  50 2.09  65 2.09  57 2.09  66 2.09  59 2.10  63 2.11
  32  1.000  0.750  0.549-  65 2.09  58 2.09  66 2.09  49 2.09  60 2.09  64 2.12
  33  0.750  0.750  0.648-  65 2.09  55 2.09  64 2.09  48 2.09  63 2.09
  34  0.000  0.500  0.647-  66 2.07  63 2.08  47 2.09  56 2.09  64 2.09
  35  0.250  0.000  0.451-   5 2.09   6 2.09  13 2.09  22 2.09   3 2.09   7 2.09
  36  0.500  0.250  0.451-   5 2.09   6 2.09  14 2.09  21 2.09   4 2.09   8 2.09
  37  0.250  0.250  0.353-   3 2.09   4 2.09  11 2.09  20 2.09   5 2.09
  38  0.500  0.000  0.353-   3 2.09   4 2.09  12 2.09  19 2.09   6 2.09
  39  0.250  0.000  0.649-   9 2.09  26 2.09  10 2.09  17 2.09   7 2.12
  40  0.500  0.250  0.649-  10 2.09   9 2.09  25 2.09  18 2.09   8 2.12
  41  0.250  0.250  0.549-   9 2.08  15 2.09   8 2.09   7 2.09  24 2.09   5 2.09
  42  0.500  0.000  0.549-  10 2.07   6 2.09  23 2.09   7 2.09   8 2.09  16 2.09
  43  0.250  0.500  0.451-   5 2.09  13 2.09  14 2.09  30 2.09  11 2.09  15 2.09
  44  0.500  0.750  0.451-   6 2.09  13 2.09  14 2.09  29 2.09  12 2.09  16 2.10
  45  0.250  0.750  0.353-   3 2.09  11 2.09  12 2.09  28 2.09  13 2.09
  46  0.500  0.500  0.353-   4 2.09  11 2.09  12 2.09  27 2.09  14 2.09
  47  0.250  0.500  0.649-  34 2.09   9 2.09  17 2.09  18 2.09  15 2.12
  48  0.499  0.751  0.649-  10 2.08  17 2.08  33 2.09  18 2.09  16 2.11
  49  0.250  0.750  0.549-  17 2.07  13 2.09  15 2.09   7 2.09  32 2.09  16 2.09
  50  0.500  0.500  0.549-  15 2.09   8 2.09  16 2.09  31 2.09  18 2.09  14 2.09
  51  0.750  0.000  0.451-   6 2.09  21 2.09  22 2.09  29 2.09  19 2.09  23 2.09
  52  0.000  0.250  0.451-   5 2.09  21 2.09  22 2.09  30 2.09  20 2.09  24 2.09
  53  0.750  0.250  0.353-   4 2.09  19 2.09  20 2.09  27 2.09  21 2.09
  54  0.000  0.000  0.353-   3 2.09  19 2.09  20 2.09  28 2.09  22 2.09
  55  0.750  0.000  0.649-  25 2.09  26 2.09  10 2.09  33 2.09  23 2.12
  56  0.000  0.250  0.649-   9 2.09  26 2.09  34 2.09  25 2.09  24 2.12
  57  0.750  0.250  0.549-  25 2.07  21 2.09   8 2.09  24 2.09  23 2.09  31 2.09
  58  1.000  1.000  0.549-  26 2.08  32 2.09  23 2.09  24 2.09   7 2.09  22 2.09
  59  0.750  0.500  0.451-  14 2.09  21 2.09  29 2.09  30 2.09  27 2.09  31 2.10
  60  0.000  0.750  0.451-  13 2.09  22 2.09  29 2.09  30 2.09  28 2.09  32 2.09
  61  0.750  0.750  0.353-  12 2.09  19 2.09  27 2.09  28 2.09  29 2.09
  62  0.000  0.500  0.353-  11 2.09  20 2.09  27 2.09  28 2.09  30 2.09
  63  0.751  0.499  0.649-  34 2.08  25 2.08  33 2.09  18 2.09  31 2.11
  64  0.000  0.750  0.649-  17 2.09  26 2.09  34 2.09  33 2.09  32 2.12
  65  0.750  0.750  0.549-  32 2.09  23 2.09  16 2.09  31 2.09  33 2.09  29 2.09
  66  0.000  0.500  0.549-  34 2.07  30 2.09  32 2.09  24 2.09  15 2.09  31 2.09

IMPORTANT INFORMATION: All symmetrisations will be switched off!
NOSYMM: (Re-)initialisation of all symmetry stuff for point group C_1.

                                     Primitive cell

  volume of cell :    1482.1129

  direct lattice vectors                    reciprocal lattice vectors
     8.349111827  0.000000000  0.000000000     0.119773219  0.000000000  0.000000000
     0.000000000  8.349111827  0.000000000     0.000000000  0.119773219  0.000000000
     0.000000000  0.000000000 21.261833870     0.000000000  0.000000000  0.047032632

  length of vectors
     8.349111827  8.349111827 21.261833870     0.119773219  0.119773219  0.047032632

  position of ions in fractional coordinates (direct lattice)
     0.624951092  0.624951362  0.770045187
     0.624897171  0.624897127  0.824421561
     0.250000000  0.000000000  0.352744737
     0.500000000  0.250000000  0.352744737
     0.250000000  0.250000000  0.450914912
     0.500000000  0.000000000  0.450914912
     0.250014534  0.999987106  0.549366943
     0.499960039  0.250210637  0.549444684
     0.250002593  0.250002636  0.646779721
     0.499909115  0.000214658  0.646646367
     0.250000000  0.500000000  0.352744737
     0.500000000  0.750000000  0.352744737
     0.250000000  0.750000000  0.450914912
     0.500000000  0.500000000  0.450914912
     0.250210704  0.499960166  0.549444704
     0.500099793  0.749901794  0.549457430
     0.249787466  0.750091467  0.646644178
     0.500107158  0.500107200  0.647599924
     0.750000000  0.000000000  0.352744737
     0.000000000  0.250000000  0.352744737
     0.750000000  0.250000000  0.450914912
     0.000000000  0.000000000  0.450914912
     0.750039990  0.999792125  0.549444060
     0.999986958  0.250014389  0.549366937
     0.750091438  0.249787487  0.646644143
     0.999997746  0.999997670  0.646779688
     0.750000000  0.500000000  0.352744737
     0.000000000  0.750000000  0.352744737
     0.750000000  0.750000000  0.450914912
     0.000000000  0.500000000  0.450914912
     0.749901737  0.500099744  0.549457412
     0.999792056  0.750039903  0.549444075
     0.749895277  0.749895236  0.647596378
     0.000214711  0.499909069  0.646646406
     0.250000000  0.000000000  0.450914912
     0.500000000  0.250000000  0.450914912
     0.250000000  0.250000000  0.352744737
     0.500000000  0.000000000  0.352744737
     0.249825684  0.000174946  0.648956791
     0.500014868  0.249904398  0.649171329
     0.250087950  0.250088086  0.549135090
     0.500039619  0.000133284  0.549080133
     0.250000000  0.500000000  0.450914912
     0.500000000  0.750000000  0.450914912
     0.250000000  0.750000000  0.352744737
     0.500000000  0.500000000  0.352744737
     0.249904284  0.500014936  0.649171333
     0.499193345  0.750809806  0.648673141
     0.249868085  0.749960785  0.549079761
     0.500040261  0.500040331  0.549336549
     0.750000000  0.000000000  0.450914912
     0.000000000  0.250000000  0.450914912
     0.750000000  0.250000000  0.352744737
     0.000000000  0.000000000  0.352744737
     0.749986542  0.000097683  0.649169688
     0.000174983  0.249825706  0.648956797
     0.749960756  0.249868124  0.549079753
     0.999913336  0.999913225  0.549134966
     0.750000000  0.500000000  0.450914912
     0.000000000  0.750000000  0.450914912
     0.750000000  0.750000000  0.352744737
     0.000000000  0.500000000  0.352744737
     0.750809644  0.499193160  0.648673143
[...]
   2.08727796  4.17455591  7.50000000
   4.17455591  6.26183387  7.50000000
   2.08727796  6.26183387  9.58727796
   4.17455591  4.17455591  9.58727796
   2.08903715  4.17422333 11.68220201
   4.17538909  6.26101393 11.68247260
   2.08550349  6.26259754 13.74884108
   4.17545059  4.17545094 13.76916199
   6.26183387  0.00000000  7.50000000
   0.00000000  2.08727796  7.50000000
   6.26183387  2.08727796  9.58727796
   0.00000000  0.00000000  9.58727796
   6.26216775  8.34737626 11.68218832
   8.34900294  2.08739809 11.68054854
   6.26259729  2.08550366 13.74884034
   8.34909301  8.34909237 13.75172228
   6.26183387  4.17455591  7.50000000
   0.00000000  6.26183387  7.50000000
   6.26183387  6.26183387  9.58727796
   0.00000000  4.17455591  9.58727796
   6.26101346  4.17538868 11.68247222
   8.34737568  6.26216703 11.68218865
   6.26095953  6.26095918 13.76908661
   0.00179264  4.17379672 13.74888846
   2.08727796  0.00000000  9.58727796
   4.17455591  2.08727796  9.58727796
   2.08727796  2.08727796  7.50000000
   4.17455591  0.00000000  7.50000000
   2.08582258  0.00146064 13.79801147
   4.17468005  2.08647976 13.80257294
   2.08801226  2.08801339 11.67561905
   4.17488670  0.00111280 11.67445057
   2.08727796  4.17455591  9.58727796
   4.17455591  6.26183387  9.58727796
   2.08727796  6.26183387  7.50000000
   4.17455591  4.17455591  7.50000000
   2.08647882  4.17468061 13.80257303
   4.16782106  6.26859503 13.79198055
   2.08617659  6.26150646 11.67444266
   4.17489206  4.17489264 11.67990244
   6.26183387  0.00000000  9.58727796
   0.00000000  2.08727796  9.58727796
   6.26183387  2.08727796  7.50000000
   0.00000000  0.00000000  7.50000000
   6.26172151  0.00081557 13.80253807
   0.00146095  2.08582275 13.79801160
   6.26150622  2.08617691 11.67444248
   8.34838826  8.34838733 11.67561642
   6.26183387  4.17455591  9.58727796
   0.00000000  6.26183387  9.58727796
   6.26183387  6.26183387  7.50000000
   0.00000000  4.17455591  7.50000000
   6.26859368  4.16781952 13.79198060
   0.00081621  6.26172116 13.80253813
   6.26151048  6.26151012 11.67988542
   0.00111361  4.17488626 11.67445044

--------------------------------------- Iteration      FINAL  ---------------------------------------

--------------------OUTCAR has been truncated-------------------------

[...]

--------------------OUTCAR has been truncated-------------------------

  FORCE on cell =-STRESS in cart. coord.  units (eV):
  Direction    XX          YY          ZZ          XY          YZ          ZX
  Alpha Z   933.41042   933.41042   933.41042
  Ewald  162080.37967162080.37972************     2.97147    -0.12836    -0.12805
  Hartree172562.21679172562.21687************     6.29375    -0.04816    -0.04805
  E(xc)   -1896.36482 -1896.36482 -1898.73465    -0.00062    -0.00024    -0.00024
  Local  ************************344386.28025   -20.50940     0.15906     0.15866
  n-local  -738.69357  -738.69358  -771.22618    -3.26742     0.00186     0.00185
  augment   833.80620   833.80620   822.02564     1.13907     0.00074     0.00074
  Kinetic  7571.37551  7571.37555  7582.39027    13.89840     0.01379     0.01378
  Fock    -2521.75189 -2521.75190 -2520.27431    -0.74173     0.00060     0.00060
  vdW        -9.16847    -9.16849    -6.37256     0.00116     0.00001     0.00001
  Total     -30.20359   -30.20360    -2.23114    -0.21533    -0.00069    -0.00069
  in kB     -32.65036   -32.65037    -2.41188    -0.23277    -0.00075    -0.00074

 VOLUME and BASIS-vectors are now :
  energy-cutoff  :      600.00
  volume of cell :     1482.11
      direct lattice vectors                 reciprocal lattice vectors
     8.349111827  0.000000000  0.000000000     0.119773219  0.000000000  0.000000000
     0.000000000  8.349111827  0.000000000     0.000000000  0.119773219  0.000000000
     0.000000000  0.000000000 21.261833870     0.000000000  0.000000000  0.047032632

  length of vectors
     8.349111827  8.349111827 21.261833870     0.119773219  0.119773219  0.047032632

 FORCES acting on ions:
    Electron-Ion                     Ewald-Force                    Non-Local-Force
   -.101E+00 -.101E+00 -.105E+04   0.118E+00 0.119E+00 0.101E+04   -.154E-01 -.155E-01 0.408E+02
   0.939E-01 0.941E-01 -.149E+04   -.117E+00 -.117E+00 0.155E+04   0.195E-01 0.196E-01 -.537E+02
   0.156E+00 -.156E+00 0.214E+04   -.157E+00 0.156E+00 -.213E+04   0.176E-03 -.177E-03 -.683E+01
   0.157E+00 0.153E+00 0.214E+04   -.157E+00 -.152E+00 -.213E+04   -.281E-05 -.612E-03 -.683E+01
   0.535E+00 0.535E+00 0.736E+03   -.527E+00 -.527E+00 -.736E+03   -.440E-02 -.440E-02 0.457E+00
   0.531E+00 -.664E+00 0.737E+03   -.529E+00 0.681E+00 -.738E+03   -.129E-02 -.107E-01 0.420E+00
   0.272E+01 -.272E+01 -.658E+03   -.273E+01 0.273E+01 0.658E+03   0.175E-02 -.164E-02 -.140E+00
   0.281E+01 0.328E+01 -.654E+03   -.281E+01 -.325E+01 0.654E+03   0.319E-02 -.197E-01 -.163E+00
   0.851E+01 0.851E+01 -.205E+04   -.854E+01 -.854E+01 0.204E+04   0.188E-01 0.188E-01 0.579E+01
   0.960E+01 -.179E+02 -.204E+04   -.962E+01 0.179E+02 0.203E+04   0.129E-01 0.512E-01 0.582E+01
   0.153E+00 0.157E+00 0.214E+04   -.152E+00 -.157E+00 -.213E+04   -.612E-03 -.230E-05 -.683E+01
   0.152E+00 -.152E+00 0.214E+04   -.151E+00 0.152E+00 -.213E+04   -.823E-04 0.845E-04 -.683E+01
   0.665E+00 -.532E+00 0.737E+03   -.683E+00 0.530E+00 -.738E+03   0.107E-01 0.127E-02 0.421E+00
   0.683E+00 0.683E+00 0.738E+03   -.685E+00 -.685E+00 -.739E+03   0.209E-02 0.210E-02 0.443E+00
   0.328E+01 0.281E+01 -.654E+03   -.325E+01 -.281E+01 0.654E+03   -.197E-01 0.319E-02 -.163E+00
   0.347E+01 -.347E+01 -.644E+03   -.344E+01 0.344E+01 0.644E+03   -.217E-01 0.218E-01 -.345E+00
   0.180E+02 -.961E+01 -.204E+04   -.179E+02 0.963E+01 0.203E+04   -.510E-01 -.130E-01 0.582E+01
   0.254E+02 0.254E+02 -.199E+04   -.255E+02 -.255E+02 0.199E+04   0.113E+00 0.113E+00 0.575E+01
   -.157E+00 -.153E+00 0.214E+04   0.157E+00 0.152E+00 -.213E+04   0.627E-06 0.607E-03 -.683E+01
   -.156E+00 0.156E+00 0.214E+04   0.156E+00 -.157E+00 -.213E+04   -.177E-03 0.176E-03 -.683E+01
   -.532E+00 0.665E+00 0.737E+03   0.530E+00 -.682E+00 -.738E+03   0.127E-02 0.107E-01 0.421E+00
   -.533E+00 -.533E+00 0.736E+03   0.526E+00 0.526E+00 -.736E+03   0.438E-02 0.438E-02 0.457E+00
   -.281E+01 -.327E+01 -.654E+03   0.282E+01 0.325E+01 0.654E+03   -.320E-02 0.196E-01 -.163E+00
   -.272E+01 0.272E+01 -.658E+03   0.273E+01 -.273E+01 0.658E+03   -.164E-02 0.175E-02 -.140E+00
   -.961E+01 0.180E+02 -.204E+04   0.963E+01 -.179E+02 0.203E+04   -.130E-01 -.510E-01 0.582E+01
   -.850E+01 -.850E+01 -.205E+04   0.852E+01 0.852E+01 0.204E+04   -.190E-01 -.190E-01 0.579E+01
   -.152E+00 0.152E+00 0.214E+04   0.152E+00 -.151E+00 -.213E+04   0.845E-04 -.824E-04 -.683E+01
   -.153E+00 -.157E+00 0.214E+04   0.152E+00 0.157E+00 -.213E+04   0.608E-03 0.260E-06 -.683E+01
   -.684E+00 -.684E+00 0.738E+03   0.686E+00 0.686E+00 -.739E+03   -.209E-02 -.209E-02 0.443E+00
   -.664E+00 0.531E+00 0.737E+03   0.681E+00 -.529E+00 -.738E+03   -.107E-01 -.129E-02 0.420E+00
   -.347E+01 0.347E+01 -.644E+03   0.344E+01 -.344E+01 0.644E+03   0.218E-01 -.217E-01 -.345E+00
   -.327E+01 -.281E+01 -.654E+03   0.325E+01 0.282E+01 0.654E+03   0.196E-01 -.320E-02 -.163E+00
   -.254E+02 -.254E+02 -.199E+04   0.255E+02 0.255E+02 0.199E+04   -.113E+00 -.113E+00 0.575E+01
   -.179E+02 0.960E+01 -.204E+04   0.179E+02 -.962E+01 0.203E+04   0.512E-01 0.130E-01 0.582E+01
   0.488E+00 -.487E+00 0.552E+03   -.480E+00 0.479E+00 -.551E+03   -.949E-02 0.945E-02 -.942E-01
   0.502E+00 0.476E+00 0.552E+03   -.501E+00 -.491E+00 -.552E+03   -.220E-02 0.172E-01 -.107E+00
   0.108E+00 0.108E+00 0.160E+04   -.108E+00 -.108E+00 -.161E+04   -.807E-03 -.807E-03 0.300E+01
   0.109E+00 -.122E+00 0.160E+04   -.108E+00 0.123E+00 -.161E+04   -.996E-03 -.398E-03 0.300E+01
   0.680E+01 -.680E+01 -.156E+04   -.680E+01 0.680E+01 0.157E+04   0.196E-02 -.229E-02 -.452E+01
   0.768E+01 0.132E+02 -.155E+04   -.767E+01 -.131E+02 0.156E+04   -.724E-02 -.472E-01 -.450E+01
   0.172E+01 0.172E+01 -.488E+03   -.171E+01 -.171E+01 0.488E+03   -.813E-02 -.811E-02 0.279E+00
   0.179E+01 -.280E+01 -.483E+03   -.178E+01 0.278E+01 0.483E+03   -.161E-02 0.115E-01 0.303E+00
   0.476E+00 0.502E+00 0.552E+03   -.491E+00 -.501E+00 -.552E+03   0.172E-01 -.221E-02 -.107E+00
   0.458E+00 -.458E+00 0.553E+03   -.454E+00 0.455E+00 -.553E+03   -.400E-02 0.402E-02 -.961E-01
   0.123E+00 -.109E+00 0.160E+04   -.123E+00 0.108E+00 -.161E+04   0.395E-03 0.100E-02 0.300E+01
   0.121E+00 0.121E+00 0.160E+04   -.122E+00 -.122E+00 -.161E+04   0.119E-02 0.119E-02 0.300E+01
   0.132E+02 0.768E+01 -.155E+04   -.131E+02 -.767E+01 0.156E+04   -.472E-01 -.723E-02 -.450E+01
   0.192E+02 -.192E+02 -.151E+04   -.191E+02 0.191E+02 0.152E+04   -.857E-01 0.860E-01 -.450E+01
   0.280E+01 -.179E+01 -.483E+03   -.278E+01 0.178E+01 0.483E+03   -.117E-01 0.179E-02 0.303E+00
   0.287E+01 0.287E+01 -.479E+03   -.283E+01 -.283E+01 0.479E+03   -.317E-01 -.317E-01 0.157E+00
   -.503E+00 -.475E+00 0.552E+03   0.501E+00 0.490E+00 -.552E+03   0.235E-02 -.172E-01 -.107E+00
   -.487E+00 0.488E+00 0.552E+03   0.479E+00 -.480E+00 -.551E+03   0.945E-02 -.948E-02 -.942E-01
   -.109E+00 0.123E+00 0.160E+04   0.108E+00 -.123E+00 -.161E+04   0.100E-02 0.395E-03 0.300E+01
   -.108E+00 -.108E+00 0.160E+04   0.108E+00 0.108E+00 -.161E+04   0.805E-03 0.805E-03 0.300E+01
   -.768E+01 -.132E+02 -.155E+04   0.767E+01 0.131E+02 0.156E+04   0.721E-02 0.472E-01 -.450E+01
   -.680E+01 0.680E+01 -.156E+04   0.680E+01 -.680E+01 0.157E+04   -.230E-02 0.195E-02 -.452E+01
   -.179E+01 0.280E+01 -.483E+03   0.178E+01 -.278E+01 0.483E+03   0.179E-02 -.117E-01 0.303E+00
   -.171E+01 -.171E+01 -.488E+03   0.170E+01 0.170E+01 0.488E+03   0.804E-02 0.803E-02 0.279E+00
   -.458E+00 0.458E+00 0.553E+03   0.455E+00 -.454E+00 -.553E+03   0.402E-02 -.400E-02 -.961E-01
   -.475E+00 -.503E+00 0.552E+03   0.490E+00 0.501E+00 -.552E+03   -.172E-01 0.235E-02 -.107E+00
   -.122E+00 -.122E+00 0.160E+04   0.122E+00 0.122E+00 -.161E+04   -.118E-02 -.118E-02 0.300E+01
   -.122E+00 0.109E+00 0.160E+04   0.123E+00 -.108E+00 -.161E+04   -.398E-03 -.996E-03 0.300E+01
   -.192E+02 0.192E+02 -.151E+04   0.191E+02 -.191E+02 0.152E+04   0.860E-01 -.857E-01 -.450E+01
   -.132E+02 -.768E+01 -.155E+04   0.131E+02 0.767E+01 0.156E+04   0.472E-01 0.720E-02 -.450E+01
   -.287E+01 -.287E+01 -.479E+03   0.284E+01 0.284E+01 0.479E+03   0.319E-01 0.318E-01 0.157E+00
   -.280E+01 0.179E+01 -.483E+03   0.278E+01 -.178E+01 0.483E+03   0.115E-01 -.162E-02 0.303E+00
   -.605E-02 -.607E-02 0.376E+02   -.124E-13 -.105E-12 -.432E-11   0.442E-02 0.443E-02 -.300E+02

 POSITION                                       TOTAL-FORCE (eV/Angst)
      5.21774      5.21774     16.37727        -0.000057     -0.000058      0.011209
      5.21732      5.21732     17.53095        -0.000030     -0.000031     -0.000711
      2.08728      0.00000      7.50000        -0.000024      0.000025      0.426894
      4.17456      2.08728      7.50000         0.000012      0.000208      0.427866
      2.08728      2.08728      9.58728         0.002293      0.002291      0.060725
      4.17456      0.00000      9.58728         0.000474      0.005050      0.060456
      2.08685      0.00043     11.68690        -0.001264      0.001380      0.008074
      4.17509      2.08910     11.68759        -0.002947     -0.000179      0.006054
      2.08806      2.08806     13.76417        -0.002149     -0.002151     -0.000149
      4.17349      0.00198     13.75976        -0.000110      0.001656     -0.002913
      2.08728      4.17456      7.50000         0.000207      0.000012      0.427866
      4.17456      6.26183      7.50000         0.000049     -0.000050      0.426802
      2.08728      6.26183      9.58728        -0.005033     -0.000466      0.060366
      4.17456      4.17456      9.58728         0.000615      0.000614      0.063104
      2.08910      4.17509     11.68759        -0.000176     -0.002948      0.006051
      4.17424      6.26216     11.68741         0.003173     -0.003167      0.001129
      2.08530      6.26292     13.75979        -0.001640      0.000060     -0.003161
      4.17652      4.17652     13.77328        -0.004743     -0.004746      0.008750
      6.26183      0.00000      7.50000        -0.000012     -0.000206      0.427863
      0.00000      2.08728      7.50000         0.000024     -0.000024      0.426894
      6.26183      2.08728      9.58728        -0.000465     -0.005032      0.060369
      0.00000      0.00000      9.58728        -0.002279     -0.002277      0.060772
      6.26131      8.34730     11.68759         0.002864      0.000206      0.006022
      0.00043      2.08685     11.68690         0.001373     -0.001273      0.008070
      6.26292      2.08530     13.75979         0.000053     -0.001646     -0.003158
      8.34835      8.34835     13.76418         0.002155      0.002153     -0.000233
      6.26183      4.17456      7.50000        -0.000050      0.000048      0.426802
      0.00000      6.26183      7.50000        -0.000206     -0.000012      0.427863
      6.26183      6.26183      9.58728        -0.000610     -0.000610      0.063027
      0.00000      4.17456      9.58728         0.005050      0.000475      0.060454
      6.26216      4.17424     11.68741        -0.003172      0.003168      0.001128
      8.34730      6.26131     11.68759         0.000203      0.002867      0.006022
      6.25989      6.25989     13.77329         0.004718      0.004717      0.008639
      0.00198      4.17349     13.75976         0.001647     -0.000112     -0.002912
      2.08728      0.00000      9.58728        -0.003301      0.003289      0.066483
      4.17456      2.08728      9.58728        -0.001092      0.005294      0.065590
      2.08728      2.08728      7.50000        -0.000265     -0.000265     -0.564412
      4.17456      0.00000      7.50000        -0.000335     -0.000130     -0.564451
      2.08635      0.00094     13.81304         0.001398     -0.001418     -0.005085
      4.17559      2.08803     13.81230        -0.000602     -0.001574      0.004229
      2.08738      2.08738     11.68239         0.000537      0.000542     -0.002162
      4.17377      0.00206     11.68034         0.002297     -0.002938     -0.001187
      2.08728      4.17456      9.58728         0.005294     -0.001093      0.065593
      4.17456      6.26183      9.58728        -0.001237      0.001242      0.069156
      2.08728      6.26183      7.50000         0.000129      0.000337     -0.564437
      4.17456      4.17456      7.50000         0.000430      0.000430     -0.564596
      2.08803      4.17559     13.81230        -0.001587     -0.000592      0.004232
      4.16810      6.26831     13.80008        -0.000096      0.000136      0.001896
      2.08523      6.26263     11.68036         0.002861     -0.002269     -0.001275
      4.17467      4.17467     11.68253         0.000021      0.000029      0.007448
      6.26183      0.00000      9.58728         0.001137     -0.005272      0.065619
      0.00000      2.08728      9.58728         0.003290     -0.003300      0.066484
      6.26183      2.08728      7.50000         0.000337      0.000129     -0.564437
      0.00000      0.00000      7.50000         0.000264      0.000264     -0.564424
      6.26081     -0.00074     13.81231         0.000620      0.001515      0.004143
      0.00094      2.08635     13.81304        -0.001413      0.001402     -0.005083
      6.26263      2.08523     11.68036        -0.002268      0.002864     -0.001279
     -0.00010     -0.00010     11.68239        -0.000587     -0.000589     -0.002123
      6.26183      4.17456      9.58728         0.001242     -0.001236      0.069157
      0.00000      6.26183      9.58728        -0.005273      0.001137      0.065619
      6.26183      6.26183      7.50000        -0.000429     -0.000428     -0.564581
      0.00000      4.17456      7.50000        -0.000130     -0.000335     -0.564450
      6.26831      4.16810     13.80008         0.000141     -0.000093      0.001893
     -0.00074      6.26081     13.81231         0.001525      0.000610      0.004147
      6.26172      6.26172     11.68254         0.000082      0.000075      0.007444
      0.00206      4.17377     11.68034        -0.002934      0.002296     -0.001185
    total drift:                                0.000002      0.000000     -0.001395

  FREE ENERGIE OF THE ION-ELECTRON SYSTEM (eV)
  free  energy   TOTEN  =      -489.85562064 eV

  energy  without entropy=     -489.85562064  energy(sigma->0) =     -489.85562064

 d Force = 0.9268112E-04[ 0.526E-04, 0.133E-03]  d Energy = 0.8883429E-04 0.385E-05
 d Force = 0.1596399E+02[ 0.160E+02, 0.160E+02]  d Ewald  = 0.1596398E+02 0.833E-05

 reached required accuracy - stopping structural energy minimisation