 vasp.6.3.0 20Jan22 (build Apr  1 2022 16:44:48) complex
 executed on        HPECrayEX_GCC date 2023.01.26  19:13:55

 INCAR:
   SYSTEM = MgO-rocksalt
   ISMEAR = 0
   SIGMA = 0.05
   EDIFF = 1E-6
   ALGO = ALL
   ISTART = 0
   IBRION = -1
   NSW = 0
   ISYM = 0
   DIPOL = 0.5 0.5 0.5
   IDIPOL = 3
   LDIPOL = .TRUE.
   LHFCALC = .TRUE.
   GGA = B5
   AEXX = 0.2
   AGGAX = 0.72
   AGGAC = 0.81
   ALDAC = 0.19
   IVDW = 1
   VDW_S6 = 1.05
   VDW_C6 = 0.63 0.70
   VDW_R0 = 1.243 1.342
   ENCUT = 600
   PREC = Accurate
   LASPH = .TRUE.
   LREAL = .FALSE.
   ISPIN = 1
   NELM = 200
   NELMIN = 8
   NCORE = 8
   KPAR = 1
   LWAVE = .FALSE.
   LCHARG = .FALSE.

 POTCAR:    PAW_PBE Mg_pv 13Apr2007
 POTCAR:    PAW_PBE O 08Apr2002
 POTCAR:    PAW_PBE Mg_pv 13Apr2007
   VRHFIN =Mg: p6s2

   TITEL  = PAW_PBE Mg_pv 13Apr2007
   POMASS =   24.305; ZVAL   =    8.000    mass and valenz
   ENMAX  =  403.929; ENMIN  =  302.947 eV

   TITEL  = PAW_PBE O 08Apr2002
   POMASS =   16.000; ZVAL   =    6.000    mass and valenz
   ENMAX  =  400.000; ENMIN  =  300.000 eV

  PAW_PBE Mg_pv 13Apr2007               :
  PAW_PBE O 08Apr2002                   :

 POSCAR: Mg  O
  positions in direct lattice
 exchange correlation table for  LEXCH =       12
   RHO(1)=    0.500       N(1)  =     2000
   RHO(2)=  100.500       N(2)  =     4000

 ion  position               nearest neighbor table
   1  0.000  0.750  0.352-  33 2.11  35 2.11  36 2.11  43 2.11  52 2.11
   2  0.250  0.000  0.352-  34 2.11  35 2.11  36 2.11  44 2.11  51 2.11
   3  0.000  0.000  0.451-  35 2.11  34 2.11  33 2.11  41 2.11  50 2.11  39 2.12
   4  0.250  0.750  0.451-  36 2.11  34 2.11  33 2.11  42 2.11  49 2.11  40 2.12
   5  1.000  0.750  0.550-  39 2.11  56 2.11  47 2.11  40 2.12  33 2.13  37 2.14
   6  0.250  0.000  0.550-  48 2.11  39 2.11  55 2.11  40 2.11  34 2.12  38 2.15
   7  0.000  0.000  0.649-  45 2.11  38 2.11  54 2.11  37 2.11  39 2.11
   8  0.249  0.750  0.649-  37 2.09  53 2.11  40 2.11  38 2.11  46 2.11
   9  0.000  0.250  0.352-  41 2.11  35 2.11  43 2.11  44 2.11  60 2.11
  10  0.250  0.500  0.352-  42 2.11  36 2.11  43 2.11  44 2.11  59 2.11
  11  0.000  0.500  0.451-  43 2.11  41 2.11  42 2.11  33 2.11  58 2.11  47 2.12
  12  0.250  0.250  0.451-  44 2.11  41 2.11  42 2.11  34 2.11  57 2.11  48 2.12
  13  0.000  0.250  0.550-  48 2.11  39 2.11  47 2.11  64 2.11  41 2.12  45 2.15
  14  0.250  0.500  0.550-  48 2.11  63 2.11  40 2.11  47 2.12  42 2.13  46 2.14
  15  0.001  0.500  0.649-  46 2.09  62 2.11  47 2.11  45 2.11  37 2.11
  16  0.250  0.250  0.649-  45 2.11  38 2.11  46 2.11  61 2.11  48 2.11
  17  0.500  0.750  0.352-  49 2.11  36 2.11  51 2.11  52 2.11  59 2.11
  18  0.750  0.000  0.352-  50 2.11  35 2.11  51 2.11  52 2.11  60 2.11
  19  0.500  0.000  0.451-  51 2.11  49 2.11  50 2.11  34 2.11  57 2.11  55 2.12
  20  0.750  0.750  0.451-  52 2.11  49 2.11  50 2.11  33 2.11  58 2.11  56 2.13
  21  0.501  0.750  0.550-  63 2.10  56 2.10  40 2.11  55 2.11  49 2.12  53 2.16
  22  0.750  1.000  0.550-  39 2.11  56 2.11  55 2.11  64 2.12  50 2.13  54 2.14
  23  0.500  0.001  0.649-  61 2.09  53 2.11  55 2.11  38 2.11  54 2.11
  24  0.752  0.752  0.651-  37 2.10  54 2.10  56 2.14  62 2.14  53 2.14
  25  0.500  0.250  0.352-  57 2.11  51 2.11  44 2.11  59 2.11  60 2.11
  26  0.750  0.500  0.352-  58 2.11  52 2.11  43 2.11  59 2.11  60 2.11
  27  0.500  0.500  0.451-  59 2.11  49 2.11  57 2.11  58 2.11  42 2.11  63 2.13
  28  0.750  0.250  0.451-  60 2.11  50 2.11  57 2.11  58 2.11  41 2.11  64 2.12
  29  0.500  0.250  0.550-  48 2.11  63 2.11  64 2.11  55 2.12  57 2.13  61 2.14
  30  0.750  0.501  0.550-  63 2.10  56 2.10  64 2.11  47 2.11  58 2.12  62 2.16
  31  0.498  0.498  0.651-  61 2.10  46 2.10  63 2.14  62 2.14  53 2.14
  32  0.750  0.249  0.649-  54 2.09  62 2.11  64 2.11  45 2.11  61 2.11
  33  0.000  0.750  0.451-   1 2.11   3 2.11   4 2.11  11 2.11  20 2.11   5 2.13
  34  0.250  0.000  0.451-   2 2.11   3 2.11   4 2.11  12 2.11  19 2.11   6 2.12
  35  0.000  0.000  0.352-   3 2.11   2 2.11   1 2.11   9 2.11  18 2.11
  36  0.250  0.750  0.352-   4 2.11   2 2.11   1 2.11  10 2.11  17 2.11
  37  0.001  0.750  0.650-   8 2.09  24 2.10   7 2.11  15 2.11   5 2.14
  38  0.250  0.000  0.651-   7 2.11  16 2.11   8 2.11  23 2.11   6 2.15
  39  0.000  0.000  0.550-   6 2.11  13 2.11  22 2.11   5 2.11   7 2.11   3 2.12
  40  0.251  0.750  0.550-   8 2.11  21 2.11   6 2.11  14 2.11   5 2.12   4 2.12
  41  0.000  0.250  0.451-   9 2.11   3 2.11  11 2.11  12 2.11  28 2.11  13 2.12
  42  0.250  0.500  0.451-  10 2.11   4 2.11  11 2.11  12 2.11  27 2.11  14 2.13
  43  0.000  0.500  0.352-  11 2.11   9 2.11  10 2.11   1 2.11  26 2.11
  44  0.250  0.250  0.352-  12 2.11   9 2.11  10 2.11   2 2.11  25 2.11
  45  0.000  0.250  0.651-   7 2.11  16 2.11  32 2.11  15 2.11  13 2.15
  46  0.249  0.500  0.650-  15 2.09  31 2.10  16 2.11   8 2.11  14 2.14
  47  1.000  0.500  0.550-  15 2.11  13 2.11  30 2.11   5 2.11  14 2.12  11 2.12
  48  0.250  0.250  0.550-  13 2.11   6 2.11  29 2.11  14 2.11  16 2.11  12 2.12
  49  0.500  0.750  0.451-  17 2.11   4 2.11  19 2.11  20 2.11  27 2.11  21 2.12
  50  0.750  0.000  0.451-  18 2.11   3 2.11  19 2.11  20 2.11  28 2.11  22 2.13
  51  0.500  0.000  0.352-  19 2.11  17 2.11  18 2.11   2 2.11  25 2.11
  52  0.750  0.750  0.352-  20 2.11  17 2.11  18 2.11   1 2.11  26 2.11
  53  0.498  0.752  0.651-  23 2.11   8 2.11  31 2.14  24 2.14  21 2.16
  54  0.750  0.001  0.650-  32 2.09  24 2.10   7 2.11  23 2.11  22 2.14
  55  0.500  1.000  0.550-  23 2.11   6 2.11  21 2.11  22 2.11  29 2.12  19 2.12
  56  0.750  0.750  0.550-  21 2.10  30 2.10   5 2.11  22 2.11  20 2.13  24 2.14
  57  0.500  0.250  0.451-  25 2.11  19 2.11  12 2.11  27 2.11  28 2.11  29 2.13
  58  0.750  0.500  0.451-  26 2.11  20 2.11  11 2.11  27 2.11  28 2.11  30 2.12
  59  0.500  0.500  0.352-  27 2.11  17 2.11  25 2.11  26 2.11  10 2.11
  60  0.750  0.250  0.352-  28 2.11  18 2.11  25 2.11  26 2.11   9 2.11
  61  0.500  0.249  0.650-  23 2.09  31 2.10  16 2.11  32 2.11  29 2.14
  62  0.752  0.498  0.651-  15 2.11  32 2.11  31 2.14  24 2.14  30 2.16
  63  0.500  0.500  0.550-  30 2.10  21 2.10  14 2.11  29 2.11  27 2.13  31 2.14
  64  0.750  0.251  0.550-  32 2.11  30 2.11  13 2.11  29 2.11  22 2.12  28 2.12

IMPORTANT INFORMATION: All symmetrisations will be switched off!
NOSYMM: (Re-)initialisation of all symmetry stuff for point group C_1.

                                     Primitive cell

  volume of cell :    1519.8199

  direct lattice vectors                    reciprocal lattice vectors
     8.440984654  0.000000000  0.000000000     0.118469591  0.000000000  0.000000000
     0.000000000  8.440984654  0.000000000     0.000000000  0.118469591  0.000000000
     0.000000000  0.000000000 21.330738491     0.000000000  0.000000000  0.046880702

  length of vectors
     8.440984654  8.440984654 21.330738491     0.118469591  0.118469591  0.046880702

  position of ions in fractional coordinates (direct lattice)
     0.000000000  0.750000000  0.351605267
     0.250000000  0.000000000  0.351605267
     0.000000000  0.000000000  0.450535089
     0.250000000  0.750000000  0.450535089
     0.999798239  0.750144775  0.550245717
     0.250027098  0.000053474  0.550129252
     0.000371466  0.000371472  0.648882746
     0.248696284  0.750225333  0.648718344
     0.000000000  0.250000000  0.351605267
     0.250000000  0.500000000  0.351605267
     0.000000000  0.500000000  0.450535089
     0.250000000  0.250000000  0.450535089
     0.000053477  0.250027114  0.550129253
     0.250298833  0.499926265  0.550268463
     0.001389620  0.499880676  0.648721670
     0.249712485  0.249712492  0.648907263
     0.500000000  0.750000000  0.351605267
     0.750000000  0.000000000  0.351605267
     0.500000000  0.000000000  0.450535089
     0.750000000  0.750000000  0.450535089
     0.500518719  0.749529162  0.550035840
     0.750144785  0.999798249  0.550245716
     0.499880675  0.001389626  0.648721670
     0.752263329  0.752263326  0.650736108
     0.500000000  0.250000000  0.351605267
     0.750000000  0.500000000  0.351605267
     0.500000000  0.500000000  0.450535089
     0.750000000  0.250000000  0.450535089
     0.499926254  0.250298819  0.550268463
     0.749529159  0.500518710  0.550035844
     0.497885295  0.497885281  0.650846849
     0.750225336  0.248696295  0.648718342
     0.000000000  0.750000000  0.450535089
     0.250000000  0.000000000  0.450535089
     0.000000000  0.000000000  0.351605267
     0.250000000  0.750000000  0.351605267
     0.001311888  0.750248159  0.650411303
     0.249885529  0.000191560  0.650896300
     0.000086314  0.000086309  0.549757436
     0.250507912  0.750014892  0.549832485
     0.000000000  0.250000000  0.450535089
     0.250000000  0.500000000  0.450535089
     0.000000000  0.500000000  0.351605267
     0.250000000  0.250000000  0.351605267
     0.000191566  0.249885533  0.650896301
     0.248805130  0.499862101  0.650472785
     0.999573666  0.500041977  0.549829729
     0.249988858  0.249988862  0.549775761
     0.500000000  0.750000000  0.450535089
     0.750000000  0.000000000  0.450535089
     0.500000000  0.000000000  0.351605267
     0.750000000  0.750000000  0.351605267
     0.498266584  0.751869440  0.651164077
     0.750248154  0.001311885  0.650411303
     0.500041974  0.999573651  0.549829728
     0.749750316  0.749750318  0.550374590
     0.500000000  0.250000000  0.450535089
     0.750000000  0.500000000  0.450535089
     0.500000000  0.500000000  0.351605267
     0.750000000  0.250000000  0.351605267
     0.499862110  0.248805133  0.650472788
     0.751869449  0.498266590  0.651164068
     0.500318883  0.500318880  0.550401686
     0.750014891  0.250507906  0.549832487

  ion indices of the primitive-cell ions
   primitive index   ion index
                 1           1
                 2           2
                 3           3
                 4           4
                 5           5
                 6           6
                 7           7
                 8           8
                 9           9
                10          10
                11          11
                12          12
                13          13
                14          14
                15          15
                16          16
                17          17
                18          18
                19          19
                20          20
                21          21
                22          22
                23          23
                24          24
                25          25
                26          26
                27          27
                28          28
                29          29
                30          30
                31          31
                32          32
                33          33
                34          34
                35          35
                36          36
                37          37
                38          38
                39          39
                40          40
                41          41
                42          42
                43          43
                44          44
[...]
   0.25000000  0.50000000  0.45053509
   0.00000000  0.50000000  0.35160527
   0.25000000  0.25000000  0.35160527
   0.00019157  0.24988553  0.65089630
   0.24880513  0.49986210  0.65047279
   0.99957367  0.50004198  0.54982973
   0.24998886  0.24998886  0.54977576
   0.50000000  0.75000000  0.45053509
   0.75000000  0.00000000  0.45053509
   0.50000000  0.00000000  0.35160527
   0.75000000  0.75000000  0.35160527
   0.49826658  0.75186944  0.65116408
   0.75024815  0.00131188  0.65041130
   0.50004197  0.99957365  0.54982973
   0.74975032  0.74975032  0.55037459
   0.50000000  0.25000000  0.45053509
   0.75000000  0.50000000  0.45053509
   0.50000000  0.50000000  0.35160527
   0.75000000  0.25000000  0.35160527
   0.49986211  0.24880513  0.65047279
   0.75186945  0.49826659  0.65116407
   0.50031888  0.50031888  0.55040169
   0.75001489  0.25050791  0.54983249

 position of ions in cartesian coordinates  (Angst):
   0.00000000  6.33073849  7.50000000
   2.11024616  0.00000000  7.50000000
   0.00000000  0.00000000  9.61024616
   2.11024616  6.33073849  9.61024616
   8.43928159  6.33196054 11.73714749
   2.11047489  0.00045137 11.73466322
   0.00313554  0.00313559 13.84114816
   2.09924152  6.33264052 13.83764135
   0.00000000  2.11024616  7.50000000
   2.11024616  4.22049233  7.50000000
   0.00000000  4.22049233  9.61024616
   2.11024616  2.11024616  9.61024616
   0.00045140  2.11047503 11.73466324
   2.11276861  4.21986993 11.73763269
   0.01172976  4.21948511 13.83771230
   2.10781926  2.10781932 13.84167114
   4.22049233  6.33073849  7.50000000
   6.33073849  0.00000000  7.50000000
   4.22049233  0.00000000  9.61024616
   6.33073849  6.33073849  9.61024616
   4.22487083  6.32676416 11.73267066
   6.33196062  8.43928168 11.73714747
   4.21948511  0.01172981 13.83771230
   6.34984322  6.34984319 13.88068175
   4.22049233  2.11024616  7.50000000
   6.33073849  4.22049233  7.50000000
   4.22049233  4.22049233  9.61024616
   6.33073849  2.11024616  9.61024616
   4.21986984  2.11276849 11.73763268
   6.32676413  4.22487075 11.73267075
   4.20264213  4.20264201 13.88304393
   6.33264055  2.09924161 13.83764130
   0.00000000  6.33073849  9.61024616
   2.11024616  0.00000000  9.61024616
   0.00000000  0.00000000  7.50000000
   2.11024616  6.33073849  7.50000000
   0.01107362  6.33283319 13.87375341
   2.10927992  0.00161695 13.88409875
   0.00072857  0.00072853 11.72673211
   2.11453344  6.33086420 11.72833296
   0.00000000  2.11024616  9.61024616
   2.11024616  4.22049233  9.61024616
   0.00000000  4.22049233  7.50000000
   2.11024616  2.11024616  7.50000000
   0.00161701  2.10927995 13.88409878
   2.10016028  4.21932832 13.87506488
   8.43738597  4.22084666 11.72827416
   2.11015211  2.11015215 11.72712299
   4.22049233  6.33073849  9.61024616
   6.33073849  0.00000000  9.61024616
   4.22049233  0.00000000  7.50000000
   6.33073849  6.33073849  7.50000000
   4.20586059  6.34651841 13.88981065
   6.33283316  0.01107360 13.87375342
   4.22084663  8.43738585 11.72827415
   6.32863091  6.32863093 11.73989645
   4.22049233  2.11024616  9.61024616
   6.33073849  4.22049233  9.61024616
   4.22049233  4.22049233  7.50000000
   6.33073849  2.11024616  7.50000000
   4.21932840  2.10016031 13.87506493
   6.34651848  4.20586064 13.88981045
   4.22318401  4.22318399 11.74047442
   6.33086419  2.11453339 11.72833299

--------------------------------------- Iteration      FINAL  ---------------------------------------

--------------------OUTCAR has been truncated-------------------------

[...]

--------------------OUTCAR has been truncated-------------------------

  DFT-D2 method for vdW energy calculation

  Parameters of vdW forcefield:
         C6(Jnm^6/mol)     R0(A)
   Mg       0.630          1.243
   O        0.700          1.342

  vdW correction parametrized for the method 7Áþ      

  IVDW =   1
  VDW_RADIUS =    50.000 A
  VDW_S6 =     1.050
  VDW_SR =     1.000
  VDW_D =    20.000
  LVDW_EWALD = F

  Number of pair interactions contributing to vdW energy:  723288
  Edisp (eV):   -5.06492

 VOLUME and BASIS-vectors are now :
  energy-cutoff  :      600.00
  volume of cell :     1519.82
      direct lattice vectors                 reciprocal lattice vectors
     8.440984654  0.000000000  0.000000000     0.118469591  0.000000000  0.000000000
     0.000000000  8.440984654  0.000000000     0.000000000  0.118469591  0.000000000
     0.000000000  0.000000000 21.330738491     0.000000000  0.000000000  0.046880702

  length of vectors
     8.440984654  8.440984654 21.330738491     0.118469591  0.118469591  0.046880702

 FORCES acting on ions:
    Electron-Ion                     Ewald-Force                    Non-Local-Force
   0.108E+00 0.928E-01 0.207E+04   -.108E+00 -.907E-01 -.206E+04   -.509E-04 -.139E-02 -.639E+01
   -.918E-01 0.808E-01 0.207E+04   0.900E-01 -.787E-01 -.206E+04   0.116E-02 -.140E-02 -.640E+01
   0.539E+00 0.539E+00 0.684E+03   -.534E+00 -.534E+00 -.684E+03   -.325E-02 -.325E-02 0.440E+00
   -.156E+00 0.596E+00 0.683E+03   0.158E+00 -.597E+00 -.683E+03   -.142E-02 0.184E-03 0.411E+00
   0.215E+01 0.118E+01 -.688E+03   -.227E+01 -.126E+01 0.688E+03   0.981E-01 0.443E-01 -.172E+00
   -.100E+01 0.938E+00 -.688E+03   0.108E+01 -.102E+01 0.688E+03   -.475E-01 0.449E-01 -.705E-01
   0.119E+01 0.119E+01 -.205E+04   -.829E+00 -.829E+00 0.204E+04   -.267E+00 -.267E+00 0.549E+01
   -.618E+01 0.150E+01 -.205E+04   0.642E+01 -.116E+01 0.204E+04   -.482E-01 -.246E+00 0.545E+01
   0.808E-01 -.918E-01 0.207E+04   -.787E-01 0.900E-01 -.206E+04   -.139E-02 0.117E-02 -.640E+01
   -.119E+00 -.812E-01 0.207E+04   0.119E+00 0.791E-01 -.206E+04   -.236E-03 0.142E-02 -.639E+01
   0.116E+00 -.545E+00 0.683E+03   -.113E+00 0.547E+00 -.683E+03   -.181E-02 -.499E-03 0.409E+00
   -.582E+00 -.582E+00 0.684E+03   0.583E+00 0.583E+00 -.684E+03   0.121E-03 0.117E-03 0.446E+00
   0.938E+00 -.100E+01 -.688E+03   -.102E+01 0.108E+01 0.688E+03   0.449E-01 -.475E-01 -.705E-01
   -.221E+01 -.107E+01 -.688E+03   0.233E+01 0.115E+01 0.689E+03   -.104E+00 -.433E-01 -.165E+00
   0.608E+01 -.146E+01 -.205E+04   -.633E+01 0.112E+01 0.204E+04   0.594E-01 0.244E+00 0.545E+01
   -.122E+01 -.122E+01 -.205E+04   0.859E+00 0.859E+00 0.204E+04   0.268E+00 0.268E+00 0.549E+01
   -.106E+00 0.117E+00 0.207E+04   0.107E+00 -.118E+00 -.206E+04   -.443E-03 0.509E-03 -.639E+01
   0.928E-01 0.108E+00 0.207E+04   -.907E-01 -.108E+00 -.206E+04   -.139E-02 -.506E-04 -.639E+01
   -.545E+00 0.116E+00 0.683E+03   0.547E+00 -.113E+00 -.683E+03   -.490E-03 -.180E-02 0.409E+00
   0.164E+00 0.164E+00 0.681E+03   -.151E+00 -.151E+00 -.681E+03   -.669E-02 -.670E-02 0.578E+00
   -.260E+01 0.264E+01 -.694E+03   0.268E+01 -.273E+01 0.694E+03   -.796E-01 0.878E-01 -.200E+00
   0.118E+01 0.215E+01 -.688E+03   -.126E+01 -.227E+01 0.688E+03   0.443E-01 0.981E-01 -.172E+00
   -.146E+01 0.608E+01 -.205E+04   0.112E+01 -.633E+01 0.204E+04   0.244E+00 0.594E-01 0.545E+01
   0.102E+02 0.102E+02 -.207E+04   -.102E+02 -.102E+02 0.206E+04   -.262E+00 -.262E+00 0.585E+01
   -.812E-01 -.119E+00 0.207E+04   0.791E-01 0.119E+00 -.206E+04   0.142E-02 -.234E-03 -.639E+01
   0.117E+00 -.106E+00 0.207E+04   -.118E+00 0.107E+00 -.206E+04   0.506E-03 -.444E-03 -.639E+01
   -.108E+00 -.108E+00 0.680E+03   0.956E-01 0.956E-01 -.681E+03   0.617E-02 0.617E-02 0.585E+00
   0.596E+00 -.156E+00 0.683E+03   -.597E+00 0.158E+00 -.683E+03   0.174E-03 -.143E-02 0.411E+00
   -.107E+01 -.221E+01 -.688E+03   0.115E+01 0.233E+01 0.689E+03   -.433E-01 -.104E+00 -.165E+00
   0.264E+01 -.260E+01 -.694E+03   -.273E+01 0.268E+01 0.694E+03   0.878E-01 -.796E-01 -.200E+00
   -.102E+02 -.102E+02 -.207E+04   0.101E+02 0.101E+02 0.206E+04   0.260E+00 0.260E+00 0.586E+01
   0.150E+01 -.618E+01 -.205E+04   -.116E+01 0.642E+01 0.204E+04   -.246E+00 -.482E-01 0.545E+01
   0.443E+00 0.318E+00 0.511E+03   -.417E+00 -.330E+00 -.511E+03   -.324E-01 0.137E-01 -.110E+00
   -.291E+00 0.262E+00 0.512E+03   0.295E+00 -.270E+00 -.512E+03   -.420E-02 0.868E-02 -.108E+00
   0.849E-01 0.849E-01 0.155E+04   -.840E-01 -.840E-01 -.156E+04   -.109E-02 -.109E-02 0.312E+01
   -.580E-01 0.937E-01 0.155E+04   0.567E-01 -.930E-01 -.156E+04   0.162E-02 -.916E-03 0.313E+01
   0.366E+01 0.149E+01 -.155E+04   -.361E+01 -.168E+01 0.156E+04   -.137E+00 0.203E+00 -.402E+01
   -.132E+01 0.127E+01 -.156E+04   0.153E+01 -.148E+01 0.156E+04   -.230E+00 0.229E+00 -.445E+01
   0.607E+00 0.607E+00 -.510E+03   -.593E+00 -.593E+00 0.509E+03   -.168E-01 -.168E-01 0.337E+00
   -.138E+01 0.794E+00 -.510E+03   0.151E+01 -.786E+00 0.510E+03   -.174E+00 -.119E-01 0.298E+00
   0.262E+00 -.291E+00 0.512E+03   -.270E+00 0.295E+00 -.512E+03   0.868E-02 -.421E-02 -.108E+00
   -.470E+00 -.273E+00 0.511E+03   0.438E+00 0.282E+00 -.511E+03   0.385E-01 -.967E-02 -.114E+00
   0.496E-01 -.856E-01 0.155E+04   -.482E-01 0.845E-01 -.156E+04   -.180E-02 0.135E-02 0.313E+01
   -.934E-01 -.934E-01 0.155E+04   0.926E-01 0.926E-01 -.156E+04   0.890E-03 0.893E-03 0.312E+01
   0.127E+01 -.132E+01 -.156E+04   -.148E+01 0.153E+01 0.156E+04   0.229E+00 -.230E+00 -.445E+01
   -.364E+01 -.145E+01 -.155E+04   0.360E+01 0.163E+01 0.156E+04   0.130E+00 -.200E+00 -.403E+01
   0.132E+01 -.760E+00 -.510E+03   -.145E+01 0.758E+00 0.510E+03   0.174E+00 0.625E-02 0.299E+00
   -.685E+00 -.685E+00 -.510E+03   0.673E+00 0.673E+00 0.510E+03   0.156E-01 0.156E-01 0.339E+00
   -.410E+00 0.447E+00 0.511E+03   0.366E+00 -.405E+00 -.511E+03   0.534E-01 -.505E-01 -.957E-01
   0.318E+00 0.443E+00 0.511E+03   -.330E+00 -.417E+00 -.511E+03   0.137E-01 -.324E-01 -.110E+00
   -.856E-01 0.496E-01 0.155E+04   0.845E-01 -.482E-01 -.156E+04   0.135E-02 -.180E-02 0.313E+01
   0.567E-01 0.567E-01 0.155E+04   -.559E-01 -.559E-01 -.156E+04   -.929E-03 -.930E-03 0.313E+01
   -.693E+01 0.694E+01 -.156E+04   0.709E+01 -.710E+01 0.156E+04   -.191E-03 -.234E-02 -.385E+01
   0.149E+01 0.366E+01 -.155E+04   -.168E+01 -.361E+01 0.156E+04   0.203E+00 -.137E+00 -.402E+01
   -.760E+00 0.132E+01 -.510E+03   0.758E+00 -.145E+01 0.510E+03   0.625E-02 0.174E+00 0.299E+00
   0.162E+01 0.162E+01 -.522E+03   -.168E+01 -.168E+01 0.522E+03   0.108E+00 0.108E+00 -.151E+00
   -.273E+00 -.470E+00 0.511E+03   0.282E+00 0.438E+00 -.511E+03   -.967E-02 0.385E-01 -.114E+00
   0.447E+00 -.410E+00 0.511E+03   -.405E+00 0.366E+00 -.511E+03   -.505E-01 0.534E-01 -.957E-01
   -.485E-01 -.485E-01 0.155E+04   0.474E-01 0.474E-01 -.156E+04   0.137E-02 0.137E-02 0.313E+01
   0.937E-01 -.580E-01 0.155E+04   -.930E-01 0.567E-01 -.156E+04   -.910E-03 0.162E-02 0.313E+01
   -.145E+01 -.364E+01 -.155E+04   0.163E+01 0.360E+01 0.156E+04   -.200E+00 0.130E+00 -.403E+01
   0.694E+01 -.693E+01 -.156E+04   -.710E+01 0.709E+01 0.156E+04   -.234E-02 -.197E-03 -.385E+01
   -.155E+01 -.155E+01 -.522E+03   0.162E+01 0.162E+01 0.523E+03   -.111E+00 -.111E+00 -.173E+00
   0.794E+00 -.138E+01 -.510E+03   -.786E+00 0.151E+01 0.510E+03   -.119E-01 -.174E+00 0.298E+00
   -.225E-02 -.223E-02 0.127E+02   0.558E-12 -.421E-12 0.682E-12   0.301E-02 0.299E-02 -.112E+02

 POSITION                                       TOTAL-FORCE (eV/Angst)
      0.00000      6.33074      7.50000         0.000178      0.000476      0.466066
      2.11025      0.00000      7.50000        -0.000445      0.000503      0.467315
      0.00000      0.00000      9.61025         0.001185      0.001189      0.034208
      2.11025      6.33074      9.61025         0.000150     -0.000632      0.057068
      8.43928      6.33196     11.73715        -0.009624     -0.030136     -0.047840
      2.11047      0.00045     11.73466         0.026152     -0.026765     -0.004395
      0.00314      0.00314     13.84115         0.062883      0.062880     -0.178855
      2.09924      6.33264     13.83764         0.175088      0.066427     -0.145818
      0.00000      2.11025      7.50000         0.000504     -0.000443      0.467327
      2.11025      4.22049      7.50000        -0.000108     -0.000529      0.466284
      0.00000      4.22049      9.61025         0.001387      0.000954      0.057459
      2.11025      2.11025      9.61025         0.000333      0.000330      0.034868
      0.00045      2.11048     11.73466        -0.026776      0.026145     -0.004389
      2.11277      4.21987     11.73763         0.009637      0.028817     -0.048230
      0.01173      4.21949     13.83771        -0.174397     -0.066764     -0.145941
      2.10782      2.10782     13.84167        -0.062182     -0.062187     -0.178673
      4.22049      6.33074      7.50000        -0.000057     -0.000003      0.465251
      6.33074      0.00000      7.50000         0.000475      0.000186      0.466058
      4.22049      0.00000      9.61025         0.000961      0.001397      0.057464
      6.33074      6.33074      9.61025         0.005257      0.005252      0.053988
      4.22487      6.32676     11.73267        -0.006958      0.006996      0.162487
      6.33196      8.43928     11.73715        -0.030143     -0.009624     -0.047831
      4.21949      0.01173     13.83771        -0.066765     -0.174398     -0.145956
      6.34984      6.34984     13.88068        -0.226434     -0.226430     -0.440266
      4.22049      2.11025      7.50000        -0.000528     -0.000112      0.466274
      6.33074      4.22049      7.50000        -0.000004     -0.000057      0.465261
      4.22049      4.22049      9.61025        -0.004843     -0.004845      0.054857
      6.33074      2.11025      9.61025        -0.000639      0.000144      0.057066
      4.21987      2.11277     11.73763         0.028827      0.009639     -0.048228
      6.32676      4.22487     11.73267         0.006993     -0.006961      0.162491
      4.20264      4.20264     13.88304         0.224154      0.224154     -0.451100
      6.33264      2.09924     13.83764         0.066425      0.175089     -0.145867
      0.00000      6.33074      9.61025        -0.010783      0.003680      0.069844
      2.11025      0.00000      9.61025        -0.001048      0.002351      0.056693
      0.00000      0.00000      7.50000        -0.000361     -0.000363     -0.435813
      2.11025      6.33074      7.50000         0.000531     -0.000313     -0.434689
      0.01107      6.33283     13.87375        -0.112136      0.046699      0.075644
      2.10928      0.00162     13.88410        -0.050225      0.051088     -0.070241
      0.00073      0.00073     11.72673        -0.005375     -0.005366      0.075583
      2.11453      6.33086     11.72833        -0.074469     -0.005584      0.034064
      0.00000      2.11025      9.61025         0.002349     -0.001046      0.056695
      2.11025      4.22049      9.61025         0.012589     -0.002609      0.070708
      0.00000      4.22049      7.50000        -0.000617      0.000443     -0.434695
      2.11025      2.11025      7.50000         0.000282      0.000270     -0.435924
      0.00162      2.10928     13.88410         0.051106     -0.050223     -0.070276
      2.10016      4.21933     13.87506         0.109765     -0.046987      0.071549
      8.43739      4.22085     11.72827         0.074144      0.005053      0.035124
      2.11015      2.11015     11.72712         0.005276      0.005276      0.075207
      4.22049      6.33074      9.61025         0.016744     -0.015931      0.053172
      6.33074      0.00000      9.61025         0.003683     -0.010786      0.069846
      4.22049      0.00000      7.50000         0.000434     -0.000606     -0.434721
      6.33074      6.33074      7.50000        -0.000304     -0.000306     -0.434107
      4.20586      6.34652     13.88981         0.165160     -0.167230      0.049335
      6.33283      0.01107     13.87375         0.046692     -0.112165      0.075580
      4.22085      8.43739     11.72827         0.005058      0.074149      0.035122
      6.32863      6.32863     11.73990         0.056473      0.056475      0.004814
      4.22049      2.11025      9.61025        -0.002608      0.012588      0.070710
      6.33074      4.22049      9.61025        -0.015928      0.016740      0.053173
      4.22049      4.22049      7.50000         0.000431      0.000427     -0.434225
      6.33074      2.11025      7.50000        -0.000320      0.000532     -0.434687
      4.21933      2.10016     13.87506        -0.047007      0.109763      0.071528
      6.34652      4.20586     13.88981        -0.167235      0.165173      0.049299
      4.22318      4.22318     11.74047        -0.057409     -0.057414      0.003224
      6.33086      2.11453     11.72833        -0.005580     -0.074468      0.034060
    total drift:                                0.000916      0.000916     -0.005090

  FREE ENERGIE OF THE ION-ELECTRON SYSTEM (eV)
  free  energy   TOTEN  =      -438.39475829 eV

  energy  without entropy=     -438.39475829  energy(sigma->0) =     -438.39475829