 vasp.6.3.0 20Jan22 (build Apr  1 2022 16:44:48) complex
 executed on        HPECrayEX_GCC date 2022.11.13  11:11:26

 INCAR:
   SYSTEM = MgO-rocksalt
   ISMEAR = 0
   SIGMA = 0.05
   EDIFF = 1E-6
   ALGO = ALL
   ISTART = 0
   IBRION = -1
   NSW = 0
   ISYM = 0
   DIPOL = 0.5 0.5 0.5
   IDIPOL = 3
   LDIPOL = .TRUE.
   LHFCALC = .TRUE.
   GGA = B5
   AEXX = 0.2
   AGGAX = 0.72
   AGGAC = 0.81
   ALDAC = 0.19
   IVDW = 1
   VDW_S6 = 1.05
   VDW_C6 = 1.75 0.70 0.14 0.63 0.70
   VDW_R0 = 1.452 1.342 1.001 1.243 1.342
   ENCUT = 600
   PREC = Accurate
   LASPH = .TRUE.
   LREAL = .FALSE.
   ISPIN = 1
   NELM = 200
   NELMIN = 8
   NCORE = 8
   KPAR = 1
   LWAVE = .FALSE.
   LCHARG = .FALSE.

 POTCAR:    PAW_PBE C 08Apr2002
 POTCAR:    PAW_PBE O 08Apr2002
 POTCAR:    PAW_PBE H 15Jun2001
 POTCAR:    PAW_PBE Mg_pv 13Apr2007
 POTCAR:    PAW_PBE O 08Apr2002
 POTCAR:    PAW_PBE C 08Apr2002
   VRHFIN =C: s2p2

   TITEL  = PAW_PBE C 08Apr2002
   POMASS =   12.011; ZVAL   =    4.000    mass and valenz
   ENMAX  =  400.000; ENMIN  =  300.000 eV

[...]

   TITEL  = PAW_PBE H 15Jun2001
   POMASS =    1.000; ZVAL   =    1.000    mass and valenz
   ENMAX  =  250.000; ENMIN  =  200.000 eV

   TITEL  = PAW_PBE Mg_pv 13Apr2007
   POMASS =   24.305; ZVAL   =    8.000    mass and valenz
   ENMAX  =  403.929; ENMIN  =  302.947 eV

   TITEL  = PAW_PBE O 08Apr2002
   POMASS =   16.000; ZVAL   =    6.000    mass and valenz
   ENMAX  =  400.000; ENMIN  =  300.000 eV

  PAW_PBE C 08Apr2002                   :
  PAW_PBE O 08Apr2002                   :
  PAW_PBE H 15Jun2001                   :
  PAW_PBE Mg_pv 13Apr2007               :
  PAW_PBE O 08Apr2002                   :

 POSCAR:  C  O  H Mg  O
  positions in direct lattice
 exchange correlation table for  LEXCH =       12
   RHO(1)=    0.500       N(1)  =     2000
   RHO(2)=  100.500       N(2)  =     4000

 ion  position               nearest neighbor table
   1  0.500  0.894  0.812-   3 1.09   6 1.10   5 1.10   2 1.44
   2  0.500  0.739  0.785-   4 0.99   1 1.44
   3  0.500  0.880  0.862-   1 1.09
   4  0.500  0.750  0.739-   2 0.99
   5  0.605  0.961  0.798-   1 1.10
   6  0.395  0.961  0.798-   1 1.10
   7  0.000  0.750  0.350-  39 2.14  41 2.14  42 2.14  49 2.14  58 2.14
   8  0.250  0.000  0.350-  40 2.14  41 2.14  42 2.14  50 2.14  57 2.14
   9  0.000  0.000  0.450-  41 2.14  40 2.14  39 2.14  47 2.14  56 2.14  45 2.14
  10  0.250  0.750  0.450-  42 2.14  40 2.14  39 2.14  48 2.14  55 2.14  46 2.14
  11  0.000  0.750  0.550-  53 2.14  45 2.14  46 2.14  62 2.14  39 2.15  43 2.16
  12  0.250  1.000  0.550-  45 2.13  46 2.14  54 2.14  61 2.14  40 2.15  44 2.16
  13  0.000  0.000  0.650-  45 2.13  51 2.13  44 2.14  60 2.14  43 2.14
  14  0.248  0.750  0.650-  43 2.12  46 2.13  52 2.13  44 2.14  59 2.16
  15  0.000  0.250  0.350-  47 2.14  41 2.14  49 2.14  50 2.14  66 2.14
  16  0.250  0.500  0.350-  48 2.14  42 2.14  49 2.14  50 2.14  65 2.14
  17  0.000  0.500  0.450-  49 2.14  47 2.14  48 2.14  39 2.14  64 2.14  53 2.14
  18  0.250  0.250  0.450-  50 2.14  47 2.14  48 2.14  40 2.14  63 2.14  54 2.14
  19  0.000  0.250  0.550-  53 2.14  54 2.14  70 2.14  45 2.14  47 2.15  51 2.16
  20  0.250  0.500  0.550-  53 2.14  69 2.14  46 2.14  54 2.14  48 2.15  52 2.15
  21  0.000  0.500  0.650-  51 2.13  53 2.14  68 2.14  52 2.14  43 2.14
  22  0.250  0.250  0.650-  51 2.13  54 2.13  52 2.14  44 2.14  67 2.14
  23  0.500  0.750  0.350-  55 2.14  42 2.14  57 2.14  58 2.14  65 2.14
  24  0.750  0.000  0.350-  56 2.14  41 2.14  57 2.14  58 2.14  66 2.14
  25  0.500  0.000  0.450-  57 2.14  55 2.14  56 2.14  40 2.14  63 2.14  61 2.14
  26  0.750  0.750  0.450-  58 2.14  55 2.14  56 2.14  39 2.14  64 2.14  62 2.14
  27  0.500  0.750  0.550-  69 2.13  46 2.13  62 2.13  61 2.13  55 2.15  59 2.19
  28  0.750  1.000  0.550-  45 2.13  62 2.14  70 2.14  61 2.14  56 2.15  60 2.16
  29  0.500  0.003  0.649-  67 2.11  61 2.12  44 2.14  60 2.14  59 2.16
  30  0.752  0.750  0.650-  43 2.12  62 2.13  68 2.13  60 2.14  59 2.16
  31  0.500  0.250  0.350-  63 2.14  57 2.14  50 2.14  65 2.14  66 2.14
  32  0.750  0.500  0.350-  64 2.14  58 2.14  49 2.14  65 2.14  66 2.14
  33  0.500  0.500  0.450-  65 2.14  55 2.14  63 2.14  64 2.14  48 2.14  69 2.14
  34  0.750  0.250  0.450-  66 2.14  56 2.14  63 2.14  64 2.14  47 2.14  70 2.14
  35  0.500  0.250  0.550-  54 2.14  70 2.14  69 2.14  61 2.14  63 2.14  67 2.16
  36  0.750  0.500  0.550-  53 2.14  69 2.14  62 2.14  70 2.14  64 2.15  68 2.15
  37  0.500  0.498  0.650-  67 2.12  69 2.13  52 2.14  68 2.14  59 2.16
  38  0.750  0.250  0.650-  51 2.13  70 2.13  68 2.14  60 2.14  67 2.14
  39  0.000  0.750  0.450-   7 2.14   9 2.14  10 2.14  17 2.14  26 2.14  11 2.15
  40  0.250  0.000  0.450-   8 2.14   9 2.14  10 2.14  18 2.14  25 2.14  12 2.15
  41  0.000  0.000  0.350-   9 2.14   8 2.14   7 2.14  15 2.14  24 2.14
  42  0.250  0.750  0.350-  10 2.14   8 2.14   7 2.14  16 2.14  23 2.14
  43  0.000  0.750  0.651-  30 2.12  14 2.12  13 2.14  21 2.14  11 2.16
  44  0.250  1.000  0.651-  29 2.14  13 2.14  14 2.14  22 2.14  12 2.16
  45  0.000  1.000  0.550-  13 2.13  28 2.13  12 2.13  11 2.14  19 2.14   9 2.14
  46  0.250  0.750  0.550-  14 2.13  27 2.13  12 2.14  20 2.14  11 2.14  10 2.14
  47  0.000  0.250  0.450-  15 2.14   9 2.14  17 2.14  18 2.14  34 2.14  19 2.15
  48  0.250  0.500  0.450-  16 2.14  10 2.14  17 2.14  18 2.14  33 2.14  20 2.15
  49  0.000  0.500  0.350-  17 2.14  15 2.14  16 2.14   7 2.14  32 2.14
  50  0.250  0.250  0.350-  18 2.14  15 2.14  16 2.14   8 2.14  31 2.14
  51  0.000  0.250  0.651-  38 2.13  22 2.13  21 2.13  13 2.13  19 2.16
  52  0.250  0.500  0.651-  14 2.13  22 2.14  37 2.14  21 2.14  20 2.15
  53  0.000  0.500  0.550-  11 2.14  21 2.14  19 2.14  36 2.14  20 2.14  17 2.14
  54  0.250  0.250  0.550-  22 2.13  12 2.14  35 2.14  19 2.14  20 2.14  18 2.14
  55  0.500  0.750  0.450-  23 2.14  10 2.14  25 2.14  26 2.14  33 2.14  27 2.15
  56  0.750  0.000  0.450-  24 2.14   9 2.14  25 2.14  26 2.14  34 2.14  28 2.15
  57  0.500  0.000  0.350-  25 2.14  23 2.14  24 2.14   8 2.14  31 2.14
  58  0.750  0.750  0.350-  26 2.14  23 2.14  24 2.14   7 2.14  32 2.14
  59  0.500  0.751  0.653-  29 2.16  30 2.16  14 2.16  37 2.16  27 2.19
  60  0.750  1.000  0.651-  29 2.14  13 2.14  30 2.14  38 2.14  28 2.16
  61  0.500  1.000  0.550-  29 2.12  27 2.13  28 2.14  12 2.14  25 2.14  35 2.14
  62  0.750  0.750  0.550-  30 2.13  27 2.13  28 2.14  36 2.14  11 2.14  26 2.14
  63  0.500  0.250  0.450-  31 2.14  25 2.14  18 2.14  33 2.14  34 2.14  35 2.14
  64  0.750  0.500  0.450-  32 2.14  26 2.14  17 2.14  33 2.14  34 2.14  36 2.15
  65  0.500  0.500  0.350-  33 2.14  23 2.14  31 2.14  32 2.14  16 2.14
  66  0.750  0.250  0.350-  34 2.14  24 2.14  31 2.14  32 2.14  15 2.14
  67  0.500  0.250  0.651-  29 2.11  37 2.12  38 2.14  22 2.14  35 2.16
  68  0.750  0.500  0.651-  30 2.13  38 2.14  37 2.14  21 2.14  36 2.15
  69  0.500  0.500  0.550-  27 2.13  37 2.13  36 2.14  20 2.14  35 2.14  33 2.14
  70  0.750  0.250  0.550-  38 2.13  28 2.14  35 2.14  19 2.14  36 2.14  34 2.14

IMPORTANT INFORMATION: All symmetrisations will be switched off!
NOSYMM: (Re-)initialisation of all symmetry stuff for point group C_1.

                                     Primitive cell

  volume of cell :    1563.6717

  direct lattice vectors                    reciprocal lattice vectors
     8.546113626  0.000000000  0.000000000     0.117012252  0.000000000  0.000000000
     0.000000000  8.546113626  0.000000000     0.000000000  0.117012252  0.000000000
     0.000000000  0.000000000 21.409585219     0.000000000  0.000000000  0.046708051

  length of vectors
     8.546113626  8.546113626 21.409585219     0.117012252  0.117012252  0.046708051

  position of ions in fractional coordinates (direct lattice)
     0.499989942  0.894052976  0.811679464
     0.499997310  0.739228201  0.784741577
     0.499999916  0.880007229  0.862469816
     0.499998661  0.749794588  0.738652675
     0.605092039  0.961094170  0.798241094
     0.394918799  0.961093062  0.798241744
     0.000000000  0.750000000  0.350310383
     0.250000000  0.000000000  0.350310383
     0.000000000  0.000000000  0.450103461
     0.250000000  0.750000000  0.450103461
     0.000000096  0.749859378  0.550346459
     0.249781026  0.999919635  0.550389822
     0.000000153  0.000277636  0.649646860
     0.247883566  0.749604077  0.649781973
     0.000000000  0.250000000  0.350310383
     0.250000000  0.500000000  0.350310383
     0.000000000  0.500000000  0.450103461
     0.250000000  0.250000000  0.450103461
     0.000000133  0.250061453  0.550306886
     0.249949208  0.499944005  0.550459814
     0.000000068  0.499561362  0.649765794
     0.249550060  0.250135440  0.649652008
     0.500000000  0.750000000  0.350310383
     0.750000000  0.000000000  0.350310383
     0.500000000  0.000000000  0.450103461
     0.750000000  0.750000000  0.450103461
     0.499999979  0.749811169  0.550346285
     0.750219085  0.999919627  0.550389788
     0.499999980  0.002666948  0.648890348
     0.752116574  0.749603982  0.649781860
     0.500000000  0.250000000  0.350310383
     0.750000000  0.500000000  0.350310383
     0.500000000  0.500000000  0.450103461
     0.750000000  0.250000000  0.450103461
     0.499999997  0.250245766  0.550223914
     0.750050906  0.499943992  0.550459821
     0.500000071  0.497670550  0.649884902
     0.750450132  0.250135502  0.649651949
     0.000000000  0.750000000  0.450103461
     0.250000000  0.000000000  0.450103461
     0.000000000  0.000000000  0.350310383
     0.250000000  0.750000000  0.350310383
     0.000000038  0.749968265  0.651144797
     0.250218921  0.999822933  0.651310697
     0.000000013  0.999900651  0.550075621
     0.250436298  0.750046697  0.550226596
     0.000000000  0.250000000  0.450103461
     0.250000000  0.500000000  0.450103461
     0.000000000  0.500000000  0.350310383
     0.250000000  0.250000000  0.350310383
     0.000000076  0.249920671  0.651210707
     0.250136036  0.499948856  0.650958957
     0.000000027  0.500010241  0.550022968
     0.250018062  0.249835329  0.550011410
     0.500000000  0.750000000  0.450103461
     0.750000000  0.000000000  0.450103461
     0.500000000  0.000000000  0.350310383
     0.750000000  0.750000000  0.350310383
     0.500000153  0.750639251  0.652709606
     0.749781230  0.999822901  0.651310722
     0.500000100  0.999593868  0.550108019
     0.749563785  0.750046699  0.550226614
     0.500000000  0.250000000  0.450103461
     0.750000000  0.500000000  0.450103461
     0.500000000  0.500000000  0.350310383
     0.750000000  0.250000000  0.350310383
     0.500000135  0.249834923  0.651020306
     0.749864129  0.499948870  0.650958978
     0.500000093  0.500452677  0.550232196
     0.749982079  0.249835315  0.550011453

  ion indices of the primitive-cell ions
   primitive index   ion index
                 1           1
                 2           2
                 3           3
                 4           4
                 5           5
                 6           6
                 7           7
                 8           8
                 9           9
                10          10
[...]
   2.11844112  6.40620161 13.91156252
   0.00000000  2.13652841  7.50000000
   2.13652841  4.27305681  7.50000000
   0.00000000  4.27305681  9.63652841
   2.13652841  2.13652841  9.63652841
   0.00000114  2.13705359 11.78184217
   2.13609433  4.27257827 11.78511630
   0.00000058  4.26930816 13.91121614
   2.13268317  2.13768589 13.90878003
   4.27305681  6.40958522  7.50000000
   6.40958522  0.00000000  7.50000000
   4.27305681  0.00000000  9.63652841
   6.40958522  6.40958522  9.63652841
   4.27305663  6.40797145 11.78268570
   6.41145755  8.54542675 11.78361707
   4.27305664  0.02279204 13.89247320
   6.42767370  6.40620080 13.91156010
   4.27305681  2.13652841  7.50000000
   6.40958522  4.27305681  7.50000000
   4.27305681  4.27305681  9.63652841
   6.40958522  2.13652841  9.63652841
   4.27305678  2.13862875 11.78006577
   6.41002027  4.27257817 11.78511644
   4.27305742  4.25314907 13.91376620
   6.41343210  2.13768643 13.90877876
   0.00000000  6.40958522  9.63652841
   2.13652841  0.00000000  9.63652841
   0.00000000  0.00000000  7.50000000
   2.13652841  6.40958522  7.50000000
   0.00000032  6.40931401 13.94074001
   2.13839933  8.54460039 13.94429188
   0.00000011  8.54526458 11.77689089
   2.14025706  6.40998430 11.78012319
   0.00000000  2.13652841  9.63652841
   2.13652841  4.27305681  9.63652841
   0.00000000  4.27305681  7.50000000
   2.13652841  2.13652841  7.50000000
   0.00000065  2.13585045 13.94215112
   2.13769099  4.27261973 13.93676126
   0.00000023  4.27314434 11.77576361
   2.13668277  2.13512111 11.77551616
   4.27305681  6.40958522  9.63652841
   6.40958522  0.00000000  9.63652841
   4.27305681  0.00000000  7.50000000
   6.40958522  6.40958522  7.50000000
   4.27305812  6.41504833 13.97424193
   6.40771559  8.54460012 13.94429241
   4.27305767  8.54264278 11.77758452
   6.40585728  6.40998432 11.78012358
   4.27305681  2.13652841  9.63652841
   6.40958522  4.27305681  9.63652841
   4.27305681  4.27305681  7.50000000
   6.40958522  2.13652841  7.50000000
   4.27305797  2.13511764 13.93807473
   6.40842405  4.27261985 13.93676172
   4.27305761  4.27692544 11.78024309
   6.40943206  2.13512099 11.77551706

--------------------------------------- Iteration      FINAL  ---------------------------------------

--------------------OUTCAR has been truncated-------------------------

[...]

--------------------OUTCAR has been truncated-------------------------

  DFT-D2 method for vdW energy calculation

  Parameters of vdW forcefield:
         C6(Jnm^6/mol)     R0(A)
   C        1.750          1.452
   O        0.700          1.342
   H        0.140          1.001
   Mg       0.630          1.243
   O        0.700          1.342

  vdW correction parametrized for the method        ìË

  IVDW =   1
  VDW_RADIUS =    50.000 A
  VDW_S6 =     1.050
  VDW_SR =     1.000
  VDW_D =    20.000
  LVDW_EWALD = F

  Number of pair interactions contributing to vdW energy:  840608
  Edisp (eV):   -5.02680

 VOLUME and BASIS-vectors are now :
  energy-cutoff  :      600.00
  volume of cell :     1563.67
      direct lattice vectors                 reciprocal lattice vectors
     8.546113626  0.000000000  0.000000000     0.117012252  0.000000000  0.000000000
     0.000000000  8.546113626  0.000000000     0.000000000  0.117012252  0.000000000
     0.000000000  0.000000000 21.409585219     0.000000000  0.000000000  0.046708051

  length of vectors
     8.546113626  8.546113626 21.409585219     0.117012252  0.117012252  0.046708051

 FORCES acting on ions:
    Electron-Ion                     Ewald-Force                    Non-Local-Force
   0.184E-02 -.109E+03 -.891E+03   0.897E-03 0.114E+03 0.893E+03   0.344E-02 -.447E+01 -.243E+01
   -.369E-02 0.162E+03 -.141E+04   0.547E-02 -.200E+03 0.143E+04   -.200E-02 0.340E+02 -.201E+02
   -.374E-02 -.389E+01 -.222E+03   0.394E-02 0.325E+01 0.228E+03   -.570E-03 0.641E+00 -.571E+01
   -.135E-02 0.483E+01 -.194E+03   0.145E-02 -.448E+01 0.187E+03   -.110E-03 -.409E+00 0.757E+01
   -.487E+02 -.409E+02 -.214E+03   0.532E+02 0.437E+02 0.212E+03   -.452E+01 -.287E+01 0.137E+01
   0.487E+02 -.409E+02 -.214E+03   -.532E+02 0.437E+02 0.212E+03   0.452E+01 -.287E+01 0.137E+01
   -.584E-06 0.101E+00 0.202E+04   -.105E-04 -.103E+00 -.201E+04   0.101E-04 0.101E-02 -.633E+01
   0.261E+00 -.152E+00 0.202E+04   -.264E+00 0.153E+00 -.201E+04   0.180E-02 -.326E-03 -.634E+01
   0.229E-04 -.523E+00 0.707E+03   -.143E-04 0.541E+00 -.707E+03   -.506E-05 -.115E-01 0.391E+00
   0.124E+01 0.456E+00 0.707E+03   -.122E+01 -.463E+00 -.708E+03   -.150E-01 0.400E-02 0.451E+00
   0.163E-03 0.109E+01 -.599E+03   -.168E-03 -.112E+01 0.600E+03   -.137E-05 0.286E-01 -.321E+00
   0.551E+01 -.382E+01 -.597E+03   -.558E+01 0.383E+01 0.598E+03   0.633E-01 -.412E-02 -.297E+00
   0.735E-03 -.111E+02 -.192E+04   -.826E-03 0.113E+02 0.191E+04   0.552E-04 -.104E+00 0.555E+01
   0.343E+02 0.742E+01 -.188E+04   -.352E+02 -.752E+01 0.187E+04   0.742E+00 0.849E-01 0.556E+01
   0.956E-05 -.101E+00 0.202E+04   -.134E-04 0.102E+00 -.201E+04   -.401E-05 -.890E-03 -.634E+01
   0.241E+00 0.151E+00 0.202E+04   -.243E+00 -.152E+00 -.201E+04   0.129E-02 0.545E-03 -.634E+01
   0.410E-04 0.504E+00 0.706E+03   -.492E-04 -.525E+00 -.706E+03   0.391E-05 0.135E-01 0.355E+00
   0.919E+00 -.452E+00 0.707E+03   -.950E+00 0.453E+00 -.707E+03   0.202E-01 -.152E-03 0.358E+00
   0.196E-03 -.102E+01 -.606E+03   -.207E-03 0.105E+01 0.606E+03   0.308E-05 -.302E-01 -.268E+00
   0.447E+01 0.377E+01 -.600E+03   -.449E+01 -.377E+01 0.600E+03   0.190E-01 0.452E-02 -.492E+00
   0.256E-03 0.108E+02 -.193E+04   -.269E-03 -.109E+02 0.192E+04   0.172E-04 0.117E+00 0.555E+01
   0.153E+02 -.658E+01 -.192E+04   -.155E+02 0.668E+01 0.192E+04   0.136E+00 -.854E-01 0.555E+01
   0.234E-05 0.123E+00 0.202E+04   0.107E-04 -.125E+00 -.202E+04   -.694E-05 0.133E-02 -.633E+01
   -.261E+00 -.152E+00 0.202E+04   0.264E+00 0.153E+00 -.201E+04   -.178E-02 -.330E-03 -.634E+01
   -.124E-04 -.833E+00 0.709E+03   0.110E-04 0.804E+00 -.709E+03   -.527E-05 0.199E-01 0.437E+00
   -.124E+01 0.456E+00 0.707E+03   0.122E+01 -.463E+00 -.708E+03   0.150E-01 0.400E-02 0.451E+00
   -.187E-03 0.229E+01 -.593E+03   0.198E-03 -.235E+01 0.592E+03   -.153E-05 0.570E-01 0.528E+00
   -.551E+01 -.382E+01 -.597E+03   0.558E+01 0.383E+01 0.598E+03   -.633E-01 -.412E-02 -.297E+00
   -.973E-03 -.299E+02 -.185E+04   0.109E-02 0.308E+02 0.185E+04   -.625E-04 -.815E+00 0.564E+01
   -.343E+02 0.742E+01 -.188E+04   0.352E+02 -.752E+01 0.187E+04   -.742E+00 0.848E-01 0.556E+01
   -.103E-04 -.121E+00 0.202E+04   0.134E-04 0.124E+00 -.201E+04   0.353E-05 -.146E-02 -.632E+01
   -.241E+00 0.151E+00 0.202E+04   0.243E+00 -.152E+00 -.201E+04   -.130E-02 0.543E-03 -.634E+01
   -.314E-04 0.821E+00 0.707E+03   0.440E-04 -.786E+00 -.708E+03   -.100E-04 -.229E-01 0.453E+00
   -.919E+00 -.452E+00 0.707E+03   0.950E+00 0.453E+00 -.707E+03   -.201E-01 -.156E-03 0.358E+00
   -.239E-03 -.220E+01 -.596E+03   0.237E-03 0.227E+01 0.596E+03   0.133E-04 -.606E-01 -.291E+00
   -.447E+01 0.377E+01 -.600E+03   0.449E+01 -.377E+01 0.600E+03   -.190E-01 0.451E-02 -.492E+00
   -.473E-03 0.282E+02 -.189E+04   0.465E-03 -.292E+02 0.188E+04   0.526E-05 0.858E+00 0.557E+01
   -.153E+02 -.658E+01 -.192E+04   0.155E+02 0.668E+01 0.192E+04   -.136E+00 -.854E-01 0.555E+01
   0.428E-04 0.218E+00 0.530E+03   -.504E-04 -.221E+00 -.530E+03   0.107E-04 0.403E-02 -.623E-01
   0.753E+00 -.433E+00 0.530E+03   -.757E+00 0.451E+00 -.530E+03   0.605E-02 -.223E-01 -.102E+00
   0.171E-04 -.103E+00 0.152E+04   -.650E-05 0.106E+00 -.152E+04   -.965E-05 -.399E-02 0.315E+01
   0.203E+00 0.854E-01 0.152E+04   -.203E+00 -.867E-01 -.152E+04   -.438E-03 0.167E-02 0.315E+01
   0.445E-03 0.333E+01 -.145E+04   -.473E-03 -.334E+01 0.146E+04   0.394E-04 0.932E-02 -.448E+01
   0.224E+02 -.157E+02 -.144E+04   -.224E+02 0.157E+02 0.144E+04   -.167E-01 0.531E-01 -.449E+01
   0.731E-04 -.235E+01 -.447E+03   -.903E-04 0.237E+01 0.447E+03   0.276E-04 -.247E-01 0.219E+00
   0.408E+01 0.127E+01 -.442E+03   -.412E+01 -.129E+01 0.442E+03   0.419E-01 0.219E-01 0.264E+00
   0.628E-04 -.218E+00 0.529E+03   -.739E-04 0.224E+00 -.529E+03   0.108E-04 -.850E-02 -.105E+00
   0.641E+00 0.414E+00 0.529E+03   -.657E+00 -.424E+00 -.529E+03   0.203E-01 0.127E-01 -.120E+00
   0.739E-05 0.102E+00 0.152E+04   -.961E-05 -.106E+00 -.152E+04   0.439E-05 0.392E-02 0.315E+01
   0.178E+00 -.845E-01 0.152E+04   -.183E+00 0.861E-01 -.152E+04   0.609E-02 -.200E-02 0.315E+01
   0.202E-03 -.311E+01 -.146E+04   -.235E-03 0.312E+01 0.147E+04   0.410E-04 -.100E-01 -.442E+01
   0.165E+02 0.151E+02 -.145E+04   -.165E+02 -.151E+02 0.145E+04   -.267E-01 -.295E-01 -.456E+01
   0.199E-04 0.229E+01 -.449E+03   -.268E-04 -.231E+01 0.448E+03   0.684E-05 0.218E-01 0.167E+00
   0.321E+01 -.118E+01 -.447E+03   -.322E+01 0.120E+01 0.447E+03   0.150E-01 -.112E-01 0.195E+00
   -.379E-04 0.346E+00 0.531E+03   0.437E-04 -.343E+00 -.531E+03   -.624E-05 -.328E-02 -.818E-01
   -.753E+00 -.433E+00 0.530E+03   0.757E+00 0.451E+00 -.530E+03   -.604E-02 -.223E-01 -.102E+00
   -.908E-05 -.128E+00 0.152E+04   0.665E-05 0.126E+00 -.152E+04   0.150E-05 0.266E-02 0.315E+01
   -.203E+00 0.853E-01 0.152E+04   0.203E+00 -.867E-01 -.152E+04   0.438E-03 0.168E-02 0.315E+01
   -.917E-03 0.998E+01 -.137E+04   0.959E-03 -.101E+02 0.138E+04   -.452E-04 0.693E-01 -.223E+01
   -.224E+02 -.157E+02 -.144E+04   0.224E+02 0.157E+02 0.144E+04   0.168E-01 0.531E-01 -.449E+01
   -.103E-03 -.304E+01 -.437E+03   0.123E-03 0.307E+01 0.436E+03   -.333E-04 -.309E-01 0.479E+00
   -.408E+01 0.127E+01 -.442E+03   0.412E+01 -.129E+01 0.442E+03   -.419E-01 0.219E-01 0.264E+00
   -.551E-04 -.333E+00 0.530E+03   0.589E-04 0.324E+00 -.530E+03   -.248E-05 0.101E-01 -.362E-01
   -.641E+00 0.414E+00 0.529E+03   0.657E+00 -.424E+00 -.529E+03   -.203E-01 0.127E-01 -.120E+00
   -.976E-05 0.127E+00 0.152E+04   0.973E-05 -.125E+00 -.152E+04   -.430E-05 -.242E-02 0.315E+01
   -.178E+00 -.845E-01 0.152E+04   0.183E+00 0.861E-01 -.152E+04   -.609E-02 -.201E-02 0.315E+01
   -.250E-03 -.868E+01 -.145E+04   0.279E-03 0.875E+01 0.145E+04   -.564E-04 -.596E-01 -.452E+01
   -.165E+02 0.151E+02 -.145E+04   0.165E+02 -.151E+02 0.145E+04   0.266E-01 -.295E-01 -.456E+01
   -.400E-04 0.299E+01 -.443E+03   0.482E-04 -.303E+01 0.443E+03   -.134E-04 0.386E-01 0.221E+00
   -.321E+01 -.118E+01 -.447E+03   0.322E+01 0.120E+01 0.447E+03   -.150E-01 -.112E-01 0.195E+00
   -.307E-02 -.281E+02 0.342E+02   -.103E-12 -.192E-12 -.722E-11   0.307E-02 0.242E+02 -.300E+02

 POSITION                                       TOTAL-FORCE (eV/Angst)
      4.27297      7.64068     17.37772         0.006330     -0.317384     -0.138916
      4.27303      6.31753     16.80099        -0.000488      0.610546     -0.258258
      4.27306      7.52064     18.46512        -0.000391      0.016796     -0.156001
      4.27305      6.40783     15.81425        -0.000018     -0.057933      0.292546
      5.17119      8.21362     17.09001        -0.168847     -0.135073      0.029586
      3.37502      8.21361     17.09002         0.163391     -0.132373      0.028018
      0.00000      6.40959      7.50000        -0.000001     -0.000431      0.627086
      2.13653      0.00000      7.50000        -0.000797      0.000204      0.629945
      0.00000      0.00000      9.63653         0.000004      0.004667      0.022064
      2.13653      6.40959      9.63653         0.004493     -0.002505      0.022424
      0.00000      6.40838     11.78269        -0.000006     -0.001383     -0.006335
      2.13466      8.54543     11.78362        -0.002114      0.003366     -0.003253
      0.00000      0.00237     13.90867        -0.000030      0.003085     -0.267676
      2.11844      6.40620     13.91156        -0.006837     -0.004608     -0.247723
      0.00000      2.13653      7.50000        -0.000009      0.000427      0.631745
      2.13653      4.27306      7.50000        -0.000636     -0.000276      0.630460
      0.00000      4.27306      9.63653        -0.000004     -0.005492      0.027733
      2.13653      2.13653      9.63653        -0.008345      0.000153      0.025167
      0.00000      2.13705     11.78184        -0.000007      0.000523      0.000330
      2.13609      4.27258     11.78512        -0.001304     -0.001036      0.002214
      0.00000      4.26931     13.91122         0.000005     -0.002206     -0.268325
      2.13268      2.13769     13.90878        -0.001929      0.005734     -0.268030
      4.27306      6.40959      7.50000         0.000004     -0.000532      0.628993
      6.40959      0.00000      7.50000         0.000806      0.000199      0.629929
      4.27306      0.00000      9.63653        -0.000008     -0.006564      0.018577
      6.40959      6.40959      9.63653        -0.004490     -0.002517      0.022420
      4.27306      6.40797     11.78269         0.000008     -0.000368     -0.028919
      6.41146      8.54543     11.78362         0.002112      0.003370     -0.003217
      4.27306      0.02279     13.89247         0.000041      0.004734     -0.232921
      6.42767      6.40620     13.91156         0.006830     -0.004579     -0.247667
      4.27306      2.13653      7.50000         0.000006      0.000626      0.625665
      6.40959      4.27306      7.50000         0.000635     -0.000272      0.630501
      4.27306      4.27306      9.63653         0.000002      0.008391      0.020536
      6.40959      2.13653      9.63653         0.008352      0.000161      0.025169
      4.27306      2.13863     11.78007         0.000011      0.003657     -0.005667
      6.41002      4.27258     11.78512         0.001304     -0.001039      0.002202
      4.27306      4.25315     13.91377        -0.000003     -0.006800     -0.241772
      6.41343      2.13769     13.90878         0.001931      0.005692     -0.268048
      0.00000      6.40959      9.63653         0.000005      0.001914      0.044290
      2.13653      0.00000      9.63653         0.003056     -0.007602      0.033583
      0.00000      0.00000      7.50000         0.000001     -0.001300     -0.273973
      2.13653      6.40959      7.50000        -0.000145      0.000554     -0.272889
      0.00000      6.40931     13.94074         0.000017      0.003325     -0.166335
      2.13840      8.54460     13.94429         0.000422      0.004411     -0.157723
      0.00000      8.54526     11.77689         0.000014     -0.006127      0.012385
      2.14026      6.40998     11.78012         0.001769      0.002847      0.020250
      0.00000      2.13653      9.63653         0.000001     -0.003235      0.024869
      2.13653      4.27306      9.63653         0.007359      0.004875      0.034588
      0.00000      4.27306      7.50000         0.000002      0.001290     -0.274503
      2.13653      2.13653      7.50000         0.002038     -0.000643     -0.273958
      0.00000      2.13585     13.94215         0.000013     -0.006363     -0.154647
      2.13769      4.27262     13.93676        -0.002444     -0.000305     -0.171286
      0.00000      4.27314     11.77576         0.000001      0.006309      0.011679
      2.13668      2.13512     11.77552         0.007016     -0.001203      0.014633
      4.27306      6.40959      9.63653        -0.000002     -0.000468      0.035585
      6.40959      0.00000      9.63653        -0.003055     -0.007595      0.033582
      4.27306      0.00000      7.50000        -0.000001      0.000940     -0.272137
      6.40959      6.40959      7.50000         0.000138      0.000555     -0.272890
      4.27306      6.41505     13.97424        -0.000010      0.005886     -0.010854
      6.40772      8.54460     13.94429        -0.000409      0.004406     -0.157764
      4.27306      8.54264     11.77758        -0.000018      0.000001      0.024403
      6.40586      6.40998     11.78012        -0.001766      0.002833      0.020243
      4.27306      2.13653      9.63653         0.000001      0.002517      0.041494
      6.40959      4.27306      9.63653        -0.007358      0.004877      0.034594
      4.27306      4.27306      7.50000        -0.000005     -0.000798     -0.272753
      6.40959      2.13653      7.50000        -0.002037     -0.000644     -0.273979
      4.27306      2.13512     13.93807        -0.000038     -0.001027     -0.169661
      6.40842      4.27262     13.93676         0.002455     -0.000294     -0.171282
      4.27306      4.27693     11.78024        -0.000007      0.002289      0.015264
      6.40943      2.13512     11.77552        -0.007016     -0.001189      0.014610
    total drift:                                0.000013     -0.001101      0.007704

  FREE ENERGIE OF THE ION-ELECTRON SYSTEM (eV)
  free  energy   TOTEN  =      -473.11356495 eV

  energy  without entropy=     -473.11356495  energy(sigma->0) =     -473.11356495