 vasp.6.4.2 20Jul23 (build Feb 22 2024 13:53:45) complex
 executed on              LinuxNV date 2024.08.27  20:13:05
 OpenACC runtime initialized ...    4 GPUs detected

 INCAR:
   SYSTEM = Oxide-Surface
   ISMEAR = 0
   SIGMA = 0.05
   EDIFF = 1E-5
   ALGO = Normal
   IBRION = -1
   NSW = 0
   ISYM = 0
   DIPOL = 0.5 0.5 0.5
   IDIPOL = 3
   LDIPOL = .TRUE.
   ISTART = 1
   METAGGA = R2SCAN
   ENCUT = 1000
   PREC = Normal
   PRECFOCK = Normal
   LASPH = .TRUE.
   LREAL = Auto
   ISPIN = 1
   NELM = 200
   NELMIN = 8
   NCORE = 1
   KPAR = 1
   LWAVE = .FALSE.
   LCHARG = .FALSE.

 POTCAR:    PAW_PBE C_h 06Feb2004
 POTCAR:    PAW_PBE H_h 06Feb2004
 POTCAR:    PAW_PBE Ti_sv 26Sep2005
 POTCAR:    PAW_PBE O_h 06Feb2004
 POTCAR:    PAW_PBE C_h 06Feb2004
   VRHFIN =C: s2p2

   TITEL  = PAW_PBE C_h 06Feb2004
   POMASS =   12.011; ZVAL   =    4.000    mass and valenz
   ENMAX  =  700.000; ENMIN  =  500.000 eV

[...]

   TITEL  = PAW_PBE Ti_sv 26Sep2005
   POMASS =   47.880; ZVAL   =   12.000    mass and valenz
   ENMAX  =  274.610; ENMIN  =  205.957 eV

   TITEL  = PAW_PBE O_h 06Feb2004
   POMASS =   16.000; ZVAL   =    6.000    mass and valenz
   ENMAX  =  700.000; ENMIN  =  500.000 eV

 Optimization of the real space projectors (new method)

 maximal supplied QI-value         = 34.20
 optimisation between [QCUT,QGAM] = [ 16.08, 32.15] = [ 72.37,289.48] Ry
 Optimized for a Real-space Cutoff    0.71 Angstroem

   l    n(q)    QCUT    max X(q) W(low)/X(q) W(high)/X(q)  e(spline)
   0      7    16.076   134.812    0.49E-03    0.92E-03    0.59E-07
   0      7    16.076    80.524    0.48E-03    0.91E-03    0.58E-07
   1      6    16.076    79.026    0.37E-03    0.58E-03    0.12E-06
   1      6    16.076    45.188    0.36E-03    0.56E-03    0.12E-06
 Optimization of the real space projectors (new method)

[...]

   l    n(q)    QCUT    max X(q) W(low)/X(q) W(high)/X(q)  e(spline)
   0     12    16.089    12.277    0.23E-04    0.54E-05    0.15E-06
   0     12    16.089    11.419    0.26E-04    0.82E-06    0.19E-06
   1     12    16.089     4.010    0.40E-04    0.12E-04    0.58E-06
   1     12    16.089     6.182    0.55E-05    0.28E-04    0.27E-06
   2     11    16.089    47.177    0.17E-03    0.26E-03    0.90E-06
   2     11    16.089    42.437    0.17E-03    0.25E-03    0.88E-06
 Optimization of the real space projectors (new method)

 maximal supplied QI-value         = 34.20
 optimisation between [QCUT,QGAM] = [ 16.08, 32.15] = [ 72.37,289.48] Ry
 Optimized for a Real-space Cutoff    0.71 Angstroem

   l    n(q)    QCUT    max X(q) W(low)/X(q) W(high)/X(q)  e(spline)
   0      7    16.076   280.207    0.42E-03    0.69E-03    0.60E-07
   0      7    16.076   228.978    0.42E-03    0.69E-03    0.61E-07
   1      6    16.076    86.127    0.11E-03    0.66E-03    0.10E-06
   1      6    16.076    65.368    0.11E-03    0.65E-03    0.10E-06
  PAW_PBE C_h 06Feb2004                 :
  PAW_PBE H_h 06Feb2004                 :
  PAW_PBE Ti_sv 26Sep2005               :
  PAW_PBE O_h 06Feb2004                 :

 POSCAR:  C  H Ti  O
  positions in direct lattice

 METAGGA = R2SCAN                                      LMAXTAU =  6    LMIXTAU =  F

 ion  position               nearest neighbor table
   1  0.500  0.500  0.834-   2 1.10   3 1.10   4 1.10   5 1.10
   2  0.496  0.576  0.859-   1 1.10
   3  0.504  0.424  0.859-   1 1.10
   4  0.571  0.504  0.810-   1 1.10
   5  0.430  0.496  0.810-   1 1.10
   6  0.750  0.625  0.192-  87 1.95 147 1.95 146 1.95  86 1.95  89 1.98 168 1.98
   7  0.000  0.750  0.192-  88 1.95 108 1.95  89 1.95 109 1.95  90 1.98
   8  0.000  0.625  0.322-  90 1.95 150 1.95  91 1.95 151 1.95  93 1.98  92 1.98
   9  0.750  0.750  0.322-  92 1.95 112 1.95 173 1.95 193 1.95  94 1.98  87 1.98
  10  0.750  0.625  0.452-  95 1.95 155 1.95 154 1.95  94 1.95  97 1.98 176 1.98
  11  0.000  0.750  0.452-  96 1.95 116 1.95  97 1.95 117 1.95  91 1.98  98 2.00
  12  1.000  0.625  0.579-  98 1.90 158 1.90 100 1.95 101 1.95  99 2.02 159 2.02
  13  0.750  0.750  0.587- 102 1.86 201 1.97 181 1.97 100 1.97 120 1.97  95 2.11
  14  0.750  0.625  0.721- 103 1.83 163 1.84 184 2.03 105 2.03 102 2.10 162 2.10
  15  0.000  0.750  0.706-  99 1.81 124 1.95 125 1.95 104 1.95 105 1.95
  16  0.750  0.875  0.192-  87 1.95 107 1.95 106 1.95  86 1.95 109 1.98 188 1.98
  17  0.000  0.000  0.192- 108 1.95 128 1.95 109 1.95 129 1.95 110 1.98
  18  0.000  0.875  0.322-  90 1.95 110 1.95  91 1.95 111 1.95 113 1.98 112 1.98
  19  0.750  0.000  0.322- 112 1.95 132 1.95 193 1.95 213 1.95 114 1.98 107 1.98
  20  0.750  0.875  0.452-  95 1.95 115 1.95 114 1.95  94 1.95 117 1.98 196 1.98
  21  0.000  0.000  0.452- 116 1.95 136 1.95 117 1.95 137 1.95 111 1.98 118 2.00
  22  1.000  0.875  0.579- 118 1.89  98 1.90 120 1.95 121 1.95 119 2.02  99 2.02
  23  0.750  0.000  0.587- 122 1.86 221 1.97 201 1.97 140 1.97 120 1.97 115 2.11
  24  0.750  0.875  0.721- 123 1.83 103 1.83 204 2.03 125 2.03 122 2.10 102 2.10
  25  1.000  1.000  0.706- 119 1.81 125 1.95 144 1.95 145 1.95 124 1.95
  26  0.750  0.125  0.192- 107 1.95 127 1.95 126 1.95 106 1.95 129 1.98 208 1.98
  27  0.000  0.250  0.192- 128 1.95 148 1.95 129 1.95 149 1.95 130 1.98
  28  0.000  0.125  0.322- 110 1.95 130 1.95 111 1.95 131 1.95 133 1.98 132 1.98
  29  0.750  0.250  0.322- 132 1.95 152 1.95 213 1.95 233 1.95 134 1.98 127 1.98
  30  0.750  0.125  0.452- 115 1.95 135 1.95 134 1.95 114 1.95 137 1.98 216 1.98
  31  0.000  0.250  0.452- 136 1.95 156 1.95 137 1.95 157 1.95 131 1.98 138 2.00
  32  0.000  0.125  0.579- 118 1.89 138 1.90 141 1.95 140 1.95 119 2.02 139 2.02
  33  0.750  0.250  0.587- 142 1.86 221 1.97 241 1.97 160 1.97 140 1.97 135 2.11
  34  0.750  0.125  0.721- 123 1.83 143 1.83 224 2.03 145 2.03 122 2.10 142 2.10
  35  1.000  0.250  0.706- 139 1.81 145 1.95 144 1.95 165 1.95 164 1.95
  36  0.750  0.375  0.192- 127 1.95 147 1.95 146 1.95 126 1.95 149 1.98 228 1.98
  37  0.000  0.500  0.192-  88 1.95 148 1.95  89 1.95 149 1.95 150 1.98
  38  0.000  0.375  0.322- 130 1.95 150 1.95 131 1.95 151 1.95 153 1.98 152 1.98
  39  0.750  0.500  0.322-  92 1.95 152 1.95 173 1.95 233 1.95 147 1.98 154 1.98
  40  0.750  0.375  0.452- 135 1.95 155 1.95 154 1.95 134 1.95 157 1.98 236 1.98
  41  0.000  0.500  0.452-  96 1.95 156 1.95  97 1.95 157 1.95 151 1.98 158 2.00
  42  0.000  0.375  0.579- 138 1.90 158 1.90 161 1.95 160 1.95 139 2.02 159 2.02
  43  0.750  0.500  0.587- 162 1.86 241 1.97 181 1.97 160 1.97 100 1.97 155 2.11
  44  0.750  0.375  0.721- 143 1.83 163 1.83 244 2.03 165 2.03 142 2.10 162 2.10
  45  0.000  0.500  0.706- 159 1.81 164 1.95 105 1.95 104 1.95 165 1.95
  46  0.250  0.625  0.192- 167 1.95 227 1.95 226 1.95 166 1.95  88 1.98 169 1.98
  47  0.500  0.750  0.192- 168 1.95 169 1.95 188 1.95 189 1.95 170 1.98
  48  0.500  0.625  0.322- 170 1.95 230 1.95 171 1.95 231 1.95 172 1.98 173 1.98
  49  0.250  0.750  0.322-  93 1.95 113 1.95 172 1.95 192 1.95 174 1.98 167 1.98
  50  0.250  0.625  0.452- 175 1.95 235 1.95 234 1.95 174 1.95  96 1.98 177 1.98
  51  0.500  0.750  0.452- 176 1.95 177 1.95 196 1.95 197 1.95 171 1.98 178 2.00
  52  0.500  0.625  0.580- 238 1.90 178 1.90 180 1.95 181 1.95 179 2.01 239 2.02
  53  0.250  0.750  0.587- 182 1.86 200 1.97 180 1.97 101 1.97 121 1.97 175 2.11
  54  0.250  0.625  0.721- 183 1.83 243 1.83 185 2.03 104 2.03 182 2.10 242 2.10
  55  0.500  0.750  0.706- 179 1.81 184 1.94 185 1.94 204 1.95 205 1.95
  56  0.250  0.875  0.192- 167 1.95 187 1.95 186 1.95 166 1.95 108 1.98 189 1.98
  57  0.500  0.000  0.192- 188 1.95 189 1.95 208 1.95 209 1.95 190 1.98
  58  0.500  0.875  0.322- 170 1.95 190 1.95 171 1.95 191 1.95 192 1.98 193 1.98
  59  0.250  0.000  0.322- 113 1.95 133 1.95 192 1.95 212 1.95 194 1.98 187 1.98
  60  0.250  0.875  0.452- 175 1.95 195 1.95 194 1.95 174 1.95 116 1.98 197 1.98
[...]
 231  0.500  0.500  0.373-  48 1.95  78 1.95  81 1.98
 232  0.348  0.375  0.322-  69 1.95  79 1.95  78 1.98
 233  0.652  0.375  0.322-  29 1.95  39 1.95  78 1.98
 234  0.250  0.500  0.401-  50 1.95  80 1.95  79 1.98
 235  0.250  0.500  0.503-  50 1.95  80 1.95  83 2.11
 236  0.598  0.375  0.452-  71 1.95  81 1.95  40 1.98
 237  0.402  0.375  0.452-  71 1.95  81 1.95  80 1.98
 238  0.500  0.500  0.532-  52 1.90  82 1.90  81 2.00
 239  0.500  0.500  0.635-  85 1.82  82 2.02  52 2.02
 240  0.350  0.375  0.583-  82 1.95  83 1.97  73 1.97
 241  0.650  0.375  0.583-  82 1.95  43 1.97  33 1.97
 242  0.249  0.500  0.662-  83 1.86  84 2.10  54 2.10
 243  0.251  0.500  0.765-  54 1.83  84 1.84
 244  0.594  0.374  0.719-  75 1.94  85 1.95  44 2.03
 245  0.406  0.374  0.719-  75 1.94  85 1.95  84 2.03

IMPORTANT INFORMATION: All symmetrisations will be switched off!
NOSYMM: (Re-)initialisation of all symmetry stuff for point group C_1.

                                     Primitive cell

  volume of cell :    3846.0501

  direct lattice vectors                    reciprocal lattice vectors
    13.003980404  0.000000000  0.000000000     0.076899531  0.000000000  0.000000000
     0.000000000 11.830378115  0.000000000     0.000000000  0.084528152  0.000000000
     0.000000000  0.000000000 25.000000000     0.000000000  0.000000000  0.040000000

  length of vectors
    13.003980404 11.830378115 25.000000000     0.076899531  0.084528152  0.040000000

  position of ions in fractional coordinates (direct lattice)
     0.500064753  0.500001971  0.833925908
     0.496116025  0.575765153  0.859097683
     0.504021055  0.424236392  0.859102374
     0.570575345  0.504286181  0.809848038
     0.429538220  0.495704177  0.809856132
     0.750000008  0.625000007  0.191872994
     0.000000008  0.750000007  0.191872994
     0.000000008  0.625000007  0.321912798
     0.750000008  0.750000007  0.321912798
     0.750000008  0.625000007  0.451952602
     0.000000008  0.750000007  0.451952602
     0.999998729  0.625016586  0.579214663
     0.750021378  0.750038300  0.587267412
     0.750117211  0.625133254  0.721168073
     0.000025095  0.750082334  0.706350679
     0.750000008  0.875000007  0.191872994
     0.000000008  0.000000007  0.191872994
     0.000000008  0.875000007  0.321912798
     0.750000008  0.000000007  0.321912798
     0.750000008  0.875000007  0.451952602
     0.000000008  0.000000007  0.451952602
     0.999995895  0.875019834  0.579234708
     0.749960162  0.000003641  0.587339263
     0.749868689  0.875032817  0.721416409
     0.999999847  0.999999993  0.706360792
     0.750000008  0.125000007  0.191872994
     0.000000008  0.250000007  0.191872994
     0.000000008  0.125000007  0.321912798
     0.750000008  0.250000007  0.321912798
     0.750000008  0.125000007  0.451952602
     0.000000008  0.250000007  0.451952602
     0.000004299  0.124980173  0.579234710
     0.750020916  0.249964339  0.587281564
     0.749849713  0.124984901  0.721421855
     0.999975965  0.249917711  0.706350689
     0.750000008  0.375000007  0.191872994
     0.000000008  0.500000007  0.191872994
     0.000000008  0.375000007  0.321912798
     0.750000008  0.500000007  0.321912798
     0.750000008  0.375000007  0.451952602
     0.000000008  0.500000007  0.451952602
     0.000001195  0.374983469  0.579214669
     0.750045966  0.499996875  0.587270533
[...]
   0.226E+01 -.436E+02 -.237E+03   -.252E+01 0.479E+02 0.240E+03   0.268E+00 -.462E+01 -.328E+01   -.214E-05 0.111E-03 -.710E-03
   -.226E+01 0.436E+02 -.237E+03   0.251E+01 -.479E+02 0.240E+03   -.268E+00 0.462E+01 -.327E+01   -.211E-08 -.110E-03 -.711E-03
   -.355E+02 -.245E+01 -.280E+03   0.402E+02 0.270E+01 0.278E+03   -.484E+01 -.262E+00 0.287E+01   0.166E-03 0.109E-04 -.999E-03
   0.355E+02 0.246E+01 -.280E+03   -.402E+02 -.271E+01 0.278E+03   0.484E+01 0.263E+00 0.287E+01   -.167E-03 -.104E-04 -.998E-03
   -.171E+01 -.690E+00 0.368E+04   0.171E+01 0.691E+00 -.368E+04   -.621E-03 -.759E-04 0.124E+01   -.472E-03 0.212E-04 0.498E-02
   -.804E-04 -.710E+00 0.390E+04   0.820E-04 0.711E+00 -.389E+04   0.492E-04 -.766E-04 -.596E+01   0.233E-04 -.173E-03 0.283E-02
   -.122E-02 -.163E+00 0.188E+04   0.129E-02 0.163E+00 -.188E+04   -.794E-04 -.107E-04 -.206E+00   -.303E-04 -.900E-04 0.114E-02
   -.458E+00 -.234E+00 0.187E+04   0.458E+00 0.235E+00 -.187E+04   -.445E-04 -.153E-03 0.352E+00   -.129E-03 -.858E-04 0.660E-03
   -.635E+00 -.324E+00 -.192E+02   0.630E+00 0.325E+00 0.202E+02   0.137E-02 -.303E-03 -.300E+00   0.216E-04 0.119E-04 0.199E-02
   -.161E-01 -.540E+00 -.215E+01   0.165E-01 0.544E+00 0.746E+00   -.177E-03 -.134E-02 0.626E+00   -.388E-04 -.294E-04 0.156E-02
   -.422E-01 -.158E+01 -.183E+04   0.421E-01 0.158E+01 0.183E+04   0.497E-03 -.306E-02 0.871E+00   0.161E-05 0.765E-04 0.305E-02
   -.518E+01 -.405E+01 -.188E+04   0.518E+01 0.406E+01 0.188E+04   0.363E-03 -.168E-02 -.122E+01   0.406E-03 0.288E-03 0.335E-02
   -.411E+02 -.167E+02 -.361E+04   0.411E+02 0.167E+02 0.361E+04   0.954E-02 -.194E-01 -.180E+01   0.210E-02 0.748E-03 -.163E-02
   -.680E-01 -.569E+01 -.371E+04   0.681E-01 0.571E+01 0.371E+04   -.359E-02 -.275E-01 0.306E+01   0.410E-05 0.429E-03 0.123E-02
   -.136E+01 -.674E+00 0.368E+04   0.136E+01 0.676E+00 -.368E+04   -.447E-03 -.115E-03 0.124E+01   -.403E-03 -.363E-03 0.523E-02
   -.506E-03 0.109E-03 0.390E+04   0.518E-03 -.303E-05 -.389E+04   0.532E-04 0.396E-04 -.596E+01   0.233E-04 -.640E-04 0.289E-02
   -.125E-02 -.163E+00 0.188E+04   0.129E-02 0.164E+00 -.188E+04   -.862E-04 -.747E-05 -.206E+00   0.991E-05 -.102E-03 0.116E-02
   -.461E+00 -.133E-02 0.187E+04   0.460E+00 0.139E-02 -.187E+04   0.639E-04 -.848E-05 0.352E+00   -.130E-03 -.254E-04 0.727E-03
   -.936E+00 -.378E+00 -.199E+02   0.934E+00 0.388E+00 0.209E+02   0.564E-03 -.201E-02 -.302E+00   -.293E-05 -.267E-04 0.211E-02
   -.738E-03 -.966E-05 -.268E+01   0.811E-03 -.169E-04 0.128E+01   -.850E-04 -.102E-04 0.626E+00   -.548E-05 0.305E-04 0.164E-02
   -.640E-01 -.150E+01 -.184E+04   0.633E-01 0.151E+01 0.183E+04   0.159E-02 -.484E-02 0.865E+00   -.164E-04 0.751E-04 0.320E-02
   -.395E+01 -.263E-02 -.189E+04   0.395E+01 0.347E-02 0.189E+04   0.737E-02 0.273E-02 -.122E+01   0.268E-03 -.515E-05 0.362E-02
   -.152E+02 -.120E+02 -.363E+04   0.152E+02 0.120E+02 0.363E+04   0.245E-01 -.106E-01 -.182E+01   0.101E-02 0.823E-03 -.779E-03
   -.412E-02 -.452E-03 -.371E+04   0.419E-02 0.446E-03 0.371E+04   -.139E-03 -.103E-03 0.306E+01   -.124E-04 -.137E-04 0.142E-02
   -.136E+01 0.675E+00 0.368E+04   0.136E+01 -.677E+00 -.368E+04   -.457E-03 0.170E-03 0.124E+01   -.401E-03 0.330E-03 0.522E-02
   -.112E-02 0.710E+00 0.390E+04   0.113E-02 -.711E+00 -.389E+04   0.540E-04 0.158E-03 -.596E+01   0.312E-04 0.174E-03 0.290E-02
   0.589E-03 0.163E+00 0.188E+04   -.607E-03 -.164E+00 -.188E+04   -.660E-04 0.557E-04 -.206E+00   0.973E-05 0.141E-03 0.119E-02
   -.458E+00 0.234E+00 0.187E+04   0.458E+00 -.235E+00 -.187E+04   -.420E-04 0.158E-03 0.352E+00   -.100E-03 0.102E-03 0.636E-03
   -.943E+00 0.356E+00 -.199E+02   0.941E+00 -.364E+00 0.210E+02   0.593E-03 0.159E-02 -.302E+00   -.336E-05 0.829E-05 0.216E-02
   0.139E-01 0.540E+00 -.215E+01   -.141E-01 -.544E+00 0.746E+00   0.156E-04 0.132E-02 0.626E+00   0.722E-06 -.564E-05 0.154E-02
   0.595E-01 0.150E+01 -.184E+04   -.585E-01 -.151E+01 0.183E+04   -.150E-02 0.480E-02 0.865E+00   0.120E-04 -.817E-04 0.320E-02
   -.522E+01 0.406E+01 -.188E+04   0.522E+01 -.406E+01 0.188E+04   -.153E-02 -.346E-03 -.122E+01   0.399E-03 -.282E-03 0.338E-02
   -.152E+02 0.119E+02 -.363E+04   0.152E+02 -.119E+02 0.363E+04   0.272E-01 0.735E-02 -.183E+01   0.984E-03 -.803E-03 -.801E-03
   0.521E-01 0.569E+01 -.371E+04   -.521E-01 -.571E+01 0.371E+04   0.314E-02 0.273E-01 0.306E+01   -.396E-05 -.401E-03 0.124E-02
   -.171E+01 0.689E+00 0.368E+04   0.171E+01 -.690E+00 -.368E+04   -.641E-03 0.128E-03 0.124E+01   -.465E-03 0.132E-04 0.496E-02
   -.696E-03 -.344E-05 0.390E+04   0.699E-03 0.311E-05 -.389E+04   0.583E-04 0.455E-04 -.596E+01   0.317E-04 0.597E-04 0.273E-02
   0.515E-03 0.163E+00 0.188E+04   -.497E-03 -.163E+00 -.188E+04   -.635E-04 0.758E-04 -.206E+00   -.248E-04 0.502E-04 0.116E-02
   -.455E+00 0.126E-02 0.187E+04   0.456E+00 -.130E-02 -.187E+04   -.193E-03 0.332E-05 0.352E+00   -.739E-04 0.907E-05 0.656E-03
   -.639E+00 0.346E+00 -.192E+02   0.634E+00 -.349E+00 0.202E+02   0.139E-02 0.750E-03 -.300E+00   0.901E-05 0.643E-05 0.204E-02
   -.140E-02 0.464E-05 -.162E+01   0.151E-02 -.126E-04 0.215E+00   -.790E-04 -.455E-05 0.625E+00   -.345E-04 0.541E-05 0.149E-02
   0.325E-01 0.158E+01 -.183E+04   -.323E-01 -.158E+01 0.183E+04   -.309E-03 0.302E-02 0.871E+00   0.642E-06 -.697E-04 0.306E-02
   -.669E+01 0.766E-02 -.188E+04   0.669E+01 -.903E-02 0.188E+04   0.243E-03 -.271E-02 -.123E+01   0.532E-03 -.125E-05 0.311E-02
   -.408E+02 0.169E+02 -.361E+04   0.408E+02 -.169E+02 0.361E+04   0.753E-02 0.843E-02 -.181E+01   0.214E-02 -.768E-03 -.167E-02
   -.109E-01 0.246E-03 -.371E+04   0.110E-01 -.295E-03 0.370E+04   -.285E-03 -.112E-03 0.306E+01   0.100E-04 -.127E-04 0.107E-02
   0.171E+01 -.689E+00 0.368E+04   -.171E+01 0.690E+00 -.368E+04   0.658E-03 -.725E-04 0.124E+01   0.475E-03 0.294E-04 0.488E-02
   -.207E-05 -.124E+01 0.389E+04   0.711E-04 0.124E+01 -.389E+04   0.343E-04 -.295E-03 -.596E+01   -.241E-04 -.319E-03 0.196E-02
   0.116E-02 -.154E+00 0.188E+04   -.117E-02 0.159E+00 -.188E+04   -.553E-04 -.118E-02 -.206E+00   -.146E-04 -.862E-04 0.970E-03
   0.458E+00 -.234E+00 0.187E+04   -.458E+00 0.235E+00 -.187E+04   -.177E-03 -.158E-03 0.352E+00   0.120E-03 -.108E-03 0.647E-03
   0.639E+00 -.345E+00 -.192E+02   -.635E+00 0.348E+00 0.202E+02   -.154E-02 -.735E-03 -.300E+00   -.105E-04 0.914E-05 0.204E-02
   0.114E-01 -.149E+00 -.970E+00   -.117E-01 0.132E+00 -.394E+00   -.272E-04 0.100E-01 0.615E+00   0.370E-04 -.180E-04 0.130E-02
   0.139E-01 -.384E+01 -.182E+04   -.139E-01 0.384E+01 0.182E+04   0.351E-03 0.226E-01 0.838E+00   -.354E-06 0.282E-03 0.202E-02
   0.522E+01 -.405E+01 -.188E+04   -.522E+01 0.405E+01 0.188E+04   0.136E-02 0.397E-03 -.122E+01   -.399E-03 0.274E-03 0.337E-02
   0.408E+02 -.169E+02 -.361E+04   -.408E+02 0.169E+02 0.361E+04   -.755E-02 -.841E-02 -.181E+01   -.213E-02 0.762E-03 -.167E-02
   0.247E+00 -.412E+02 -.367E+04   -.242E+00 0.411E+02 0.367E+04   -.444E-02 0.380E-01 0.307E+01   0.485E-05 0.202E-02 -.543E-03
   0.136E+01 -.675E+00 0.368E+04   -.136E+01 0.676E+00 -.368E+04   0.467E-03 -.112E-03 0.124E+01   0.404E-03 -.362E-03 0.513E-02
   0.582E-03 0.530E-04 0.390E+04   -.535E-03 -.383E-05 -.389E+04   0.487E-04 0.448E-04 -.596E+01   -.202E-04 0.102E-05 0.234E-02
   0.107E-02 -.156E+00 0.188E+04   -.114E-02 0.158E+00 -.188E+04   -.741E-04 -.714E-03 -.207E+00   0.482E-04 -.421E-04 0.106E-02
   0.461E+00 0.132E-02 0.187E+04   -.460E+00 -.137E-02 -.187E+04   -.289E-03 0.507E-05 0.352E+00   0.865E-04 0.201E-04 0.721E-03
   0.943E+00 -.355E+00 -.199E+02   -.941E+00 0.363E+00 0.210E+02   -.741E-03 -.157E-02 -.302E+00   -.821E-05 -.238E-04 0.216E-02
[...]
   -.631E+02 0.806E-01 0.935E+03   0.666E+02 -.812E-01 -.935E+03   -.306E+01 0.883E-03 0.205E+00   0.233E-03 0.402E-04 0.441E-03
   0.631E+02 0.813E-01 0.935E+03   -.666E+02 -.820E-01 -.935E+03   0.306E+01 0.954E-03 0.205E+00   -.237E-03 0.495E-04 0.445E-03
   0.205E+00 -.240E-02 0.424E+03   -.204E+00 0.261E-02 -.428E+03   -.275E-02 -.466E-03 0.384E+01   0.238E-04 0.240E-04 0.817E-03
   0.581E+00 -.759E-02 -.463E+03   -.578E+00 0.814E-02 0.469E+03   -.194E-02 -.881E-03 -.660E+01   -.678E-04 0.242E-04 0.690E-03
   -.660E+02 0.149E-01 -.187E+01   0.706E+02 -.193E-01 0.154E+01   -.514E+01 0.118E-01 0.422E+00   -.539E-03 -.140E-04 0.771E-03
   0.660E+02 0.949E-02 -.187E+01   -.706E+02 -.136E-01 0.153E+01   0.514E+01 0.114E-01 0.422E+00   0.555E-03 -.169E-04 0.773E-03
   0.130E-02 0.394E-03 -.485E+03   -.133E-02 -.556E-03 0.479E+03   -.111E-03 0.242E-03 0.583E+01   0.103E-05 -.770E-05 0.120E-02
   0.887E-02 -.263E-03 -.129E+04   -.924E-02 0.490E-03 0.129E+04   0.592E-03 -.199E-03 0.175E+01   -.110E-05 -.507E-05 0.164E-02
   -.305E+02 0.184E+01 -.919E+03   0.334E+02 -.187E+01 0.918E+03   -.294E+01 0.236E-01 0.894E+00   -.277E-03 -.138E-03 0.138E-02
   0.305E+02 0.188E+01 -.919E+03   -.334E+02 -.191E+01 0.918E+03   0.293E+01 0.255E-01 0.897E+00   0.275E-03 -.139E-03 0.139E-02
   0.115E+02 -.150E+00 -.147E+04   -.116E+02 0.156E+00 0.147E+04   0.638E-01 -.568E-02 -.141E+01   -.629E-03 -.616E-06 0.166E-02
   0.391E+02 0.152E-01 -.222E+04   -.392E+02 -.168E-01 0.224E+04   0.304E-01 0.207E-02 -.198E+02   -.177E-02 -.865E-05 -.490E-02
   -.493E+02 0.217E+02 -.188E+04   0.549E+02 -.217E+02 0.188E+04   -.567E+01 -.279E-01 -.342E+01   0.371E-03 -.632E-03 -.176E-02
   0.494E+02 0.215E+02 -.188E+04   -.550E+02 -.215E+02 0.188E+04   0.567E+01 -.332E-01 -.335E+01   -.380E-03 -.636E-03 -.174E-02
   0.453E-02 0.559E-02 0.980E+02   -.259E-11 -.249E-13 0.266E-10   -.650E-02 -.786E-02 -.985E+02   0.276E-04 -.107E-04 0.277E+00

 POSITION                                       TOTAL-FORCE (eV/Angst)
      6.50283      5.91521     20.84815        -0.007733     -0.002569      0.074686
      6.45148      6.81152     21.47744         0.015615     -0.238823     -0.169614
      6.55428      5.01888     21.47756        -0.015758      0.241051     -0.171036
      7.41975      5.96590     20.24620        -0.178397     -0.012891      0.130122
      5.58571      5.86437     20.24640         0.179848      0.013365      0.130890
      9.75299      7.39399      4.79682         0.001101      0.000812     -3.793148
      0.00000      8.87278      4.79682         0.000082      0.000589      2.959700
      0.00000      7.39399      8.04782        -0.000026      0.000270      0.506905
      9.75299      8.87278      8.04782        -0.000197      0.000562     -0.765486
      9.75299      7.39399     11.29882        -0.003423      0.000774      0.740836
      0.00000      8.87278     11.29882         0.000218      0.002131     -0.773532
     13.00396      7.39418     14.48037         0.000484     -0.001400      0.106410
      9.75326      8.87324     14.68169         0.002191     -0.000492     -0.045485
      9.75451      7.39556     18.02920         0.000329      0.008020      0.192126
      0.00033      8.87376     17.65877        -0.003420     -0.009069      0.120310
      9.75299     10.35158      4.79682         0.000814      0.000779     -3.793718
      0.00000      0.00000      4.79682         0.000096      0.000091      2.959401
      0.00000     10.35158      8.04782        -0.000033      0.000269      0.507047
      9.75299      0.00000      8.04782        -0.000406      0.000036     -0.764991
      9.75299     10.35158     11.29882        -0.001239      0.007888      0.746338
      0.00000      0.00000     11.29882        -0.000009      0.000003     -0.772808
     13.00393     10.35182     14.48087         0.000795     -0.001965      0.101843
      9.75247      0.00004     14.68348         0.004205      0.003577     -0.047377
      9.75128     10.35197     18.03541        -0.005448     -0.001446      0.191220
     13.00398     11.83038     17.65902        -0.000076     -0.000114      0.117171
      9.75299      1.47880      4.79682         0.000801     -0.000694     -3.793672
      0.00000      2.95759      4.79682         0.000108     -0.000387      2.959829
      0.00000      1.47880      8.04782        -0.000067     -0.000152      0.507055
      9.75299      2.95759      8.04782        -0.000190     -0.000534     -0.765247
      9.75299      1.47880     11.29882        -0.001238     -0.006297      0.747388
      0.00000      2.95759     11.29882        -0.000220     -0.002121     -0.773525
      0.00006      1.47856     14.48087        -0.000437      0.001872      0.101838
      9.75326      2.95717     14.68204         0.000686     -0.000716     -0.040418
      9.75103      1.47862     18.03555        -0.004666     -0.000516      0.188969
     13.00367      2.95662     17.65877         0.003099      0.008780      0.120316
      9.75299      4.43639      4.79682         0.001087     -0.000706     -3.793084
      0.00000      5.91519      4.79682         0.000102      0.000114      2.960070
      0.00000      4.43639      8.04782        -0.000062     -0.000140      0.506904
      9.75299      5.91519      8.04782         0.000013     -0.000016     -0.765702
      9.75299      4.43639     11.29882        -0.003428     -0.002298      0.741920
      0.00000      5.91519     11.29882         0.000006      0.000002     -0.774357
      0.00002      4.43620     14.48037        -0.000065      0.001269      0.106417
      9.75358      5.91515     14.68176        -0.000390     -0.004074     -0.044570
      9.75379      4.43532     18.03030        -0.000981     -0.016710      0.188038
      0.00001      5.91519     17.65823        -0.000169     -0.000163      0.126376
      3.25100      7.39399      4.79682        -0.001087      0.000804     -3.793093
      6.50199      8.87278      4.79682         0.000087      0.001200      2.962661
      6.50199      7.39399      8.04782        -0.000065      0.003074      0.507631
      3.25100      8.87278      8.04782         0.000087      0.000556     -0.765236
      3.25100      7.39399     11.29882         0.003246      0.002318      0.741980
      6.50199      8.87278     11.29882        -0.000259     -0.006673     -0.746638
      6.50198      7.39030     14.48965         0.000300      0.022162      0.090253
      3.25072      8.87320     14.68205        -0.000698      0.000771     -0.040505
      3.25022      7.39505     18.03033         0.001203      0.016761      0.187723
      6.50208      8.87248     17.65481         0.000678      0.017743      0.085140
      3.25100     10.35158      4.79682        -0.000815      0.000800     -3.793686
      6.50199      0.00000      4.79682         0.000083      0.000104      2.962017
      6.50199     10.35158      8.04782        -0.000087      0.001505      0.509555
      3.25100      0.00000      8.04782         0.000293     -0.000014     -0.764975
      3.25100     10.35158     11.29882         0.001055      0.006299      0.747405
[...]
      6.50199      5.91519      9.32220         0.000163     -0.000031     -0.160606
      4.52538      4.43639      8.04782         0.385231      0.000277      0.058270
      8.47860      4.43639      8.04782        -0.385154      0.000313      0.058277
      3.25100      5.91519     10.02443        -0.000812     -0.000236     -0.040610
      3.25100      5.91519     12.57320         0.001461     -0.000310     -0.038159
      7.77637      4.43639     11.29882        -0.576464      0.007485      0.092279
      5.22761      4.43639     11.29882         0.576241      0.007400      0.091795
      6.50199      5.91519     13.29981        -0.000136      0.000084      0.018197
      6.50199      5.91519     15.86380         0.000243      0.000045     -0.103572
      4.55308      4.43637     14.57527        -0.063773      0.000334     -0.002038
      8.45091      4.43645     14.57512         0.062369      0.000122     -0.004869
      3.24438      5.91546     16.54148         0.001471      0.000403      0.111273
      3.26188      5.91464     19.11442        -0.007320      0.000564     -0.291900
      7.72812      4.42967     17.96827        -0.124159     -0.010298     -0.023900
      5.27493      4.42915     17.96517         0.126154     -0.010355     -0.020271
    total drift:                               -0.001946     -0.002275     -0.294888

  FREE ENERGIE OF THE ION-ELECTRON SYSTEM (eV)
  free  energy   TOTEN  =     -2795.36310620 eV

  energy  without entropy=    -2795.36310620  energy(sigma->0) =    -2795.36310620

     |            E. Caldeweyher, S. Ehlert & S. Grimme          |
     |          Mulliken Center for Theoretical Chemistry        |
     |                    University of Bonn                     |

Rational (Becke-Johnson) damping: r2scan-D4-ATM
  s6         1.0000
  s8         0.6019
  s9         1.0000
  a1         0.5156
  a2         5.7734
 alp        16.0000

Dispersion energy:      -6.2153168603423E-01 Eh