 vasp.6.3.0 20Jan22 (build Apr  1 2022 16:44:48) complex
 executed on        HPECrayEX_GCC date 2022.11.01  20:44:50

 INCAR:
   SYSTEM = MgO-rocksalt
   ISMEAR = 0
   SIGMA = 0.05
   EDIFF = 1E-7
   ALGO = ALL
   ISTART = 0
   IBRION = 2
   NSW = 1000
   ISYM = 0
   ISIF = 2
   EDIFFG = -0.01
   DIPOL = 0.5 0.5 0.5
   IDIPOL = 3
   LDIPOL = .TRUE.
   GGA = MK
   LUSE_VDW = .TRUE.
   PARAM1 = 0.1234
   PARAM2 = 0.711357
   ZAB_VDW = -1.8867
   AGGAC = 0.0
   ENCUT = 600
   PREC = Accurate
   LASPH = .TRUE.
   LREAL = .FALSE.
   ISPIN = 1
   NELM = 200
   NELMIN = 8
   NCORE = 8
   KPAR = 1
   LWAVE = .FALSE.
   LCHARG = .FALSE.

 POTCAR:    PAW_PBE C 08Apr2002
 POTCAR:    PAW_PBE O 08Apr2002
 POTCAR:    PAW_PBE H 15Jun2001
 POTCAR:    PAW_PBE Mg_pv 13Apr2007
 POTCAR:    PAW_PBE O 08Apr2002
|               ----> ADVICE to this user running VASP <----                  |
|     You have switched on vdW-DFT.                                           |
|     This routine was written and supplied by Jiri Klimes. We recommend      |
|     that you carefully read and cite the following publications:            |
|       J. Klimes, D.R. Bowler, A. Michelides                                 |
|          J. Phys.: Cond Matt. 22 022201 (2010)                              |
|       J. Klimes, D.R. Bowler, A. Michelides                                 |
|          Phys. Rev. B. 83, 195131 (2011)                                    |
|     and references therein.                                                 |

   TITEL  = PAW_PBE C 08Apr2002
   POMASS =   12.011; ZVAL   =    4.000    mass and valenz
   ENMAX  =  400.000; ENMIN  =  300.000 eV

[...]

   TITEL  = PAW_PBE H 15Jun2001
   POMASS =    1.000; ZVAL   =    1.000    mass and valenz
   ENMAX  =  250.000; ENMIN  =  200.000 eV

   TITEL  = PAW_PBE Mg_pv 13Apr2007
   POMASS =   24.305; ZVAL   =    8.000    mass and valenz
   ENMAX  =  403.929; ENMIN  =  302.947 eV

   TITEL  = PAW_PBE O 08Apr2002
   POMASS =   16.000; ZVAL   =    6.000    mass and valenz
   ENMAX  =  400.000; ENMIN  =  300.000 eV

  PAW_PBE C 08Apr2002                   :
  PAW_PBE O 08Apr2002                   :
  PAW_PBE H 15Jun2001                   :
  PAW_PBE Mg_pv 13Apr2007               :
  PAW_PBE O 08Apr2002                   :

 POSCAR:  C  O  H Mg  O
  positions in direct lattice
 exchange correlation table for  LEXCH =       43
   RHO(1)=    0.500       N(1)  =     2000
   RHO(2)=  100.500       N(2)  =     4000

 ion  position               nearest neighbor table
   1  0.500  0.456  0.772-   3 1.10   5 1.10   6 1.10   2 1.43
   2  0.500  0.286  0.771-   4 0.97   1 1.43
   3  0.500  0.492  0.821-   1 1.10
   4  0.500  0.250  0.728-   2 0.97
   5  0.607  0.505  0.749-   1 1.10
   6  0.393  0.505  0.749-   1 1.10
   7  0.250  0.000  0.352-  39 2.11  41 2.11  42 2.11  49 2.11  58 2.11
   8  0.500  0.250  0.352-  40 2.11  41 2.11  42 2.11  50 2.11  57 2.11
   9  0.250  0.250  0.451-  41 2.11  40 2.11  39 2.11  47 2.11  56 2.11  45 2.12
  10  0.500  0.000  0.451-  42 2.11  40 2.11  39 2.11  48 2.11  55 2.11  46 2.12
  11  0.250  0.000  0.550-  45 2.11  46 2.11  53 2.11  62 2.11  39 2.12  43 2.14
  12  0.500  0.250  0.550-  45 2.11  46 2.11  54 2.11  61 2.11  40 2.12  44 2.14
  13  0.250  0.250  0.648-  45 2.10  44 2.11  43 2.11  51 2.11  60 2.11
  14  0.500  0.000  0.648-  46 2.10  44 2.11  43 2.11  52 2.11  59 2.11
  15  0.250  0.500  0.352-  47 2.11  41 2.11  49 2.11  50 2.11  66 2.11
  16  0.500  0.750  0.352-  48 2.11  42 2.11  49 2.11  50 2.11  65 2.11
  17  0.250  0.750  0.451-  49 2.11  47 2.11  48 2.11  39 2.11  64 2.11  53 2.12
  18  0.500  0.500  0.451-  50 2.11  47 2.11  48 2.11  40 2.11  63 2.11  54 2.12
  19  0.250  0.500  0.550-  45 2.11  53 2.11  54 2.11  70 2.11  47 2.12  51 2.14
  20  0.500  0.750  0.550-  46 2.11  53 2.11  54 2.11  69 2.11  48 2.12  52 2.14
  21  0.250  0.750  0.648-  53 2.10  51 2.11  52 2.11  43 2.11  68 2.11
  22  0.500  0.500  0.648-  54 2.10  51 2.11  52 2.11  44 2.11  67 2.11
  23  0.750  0.000  0.352-  55 2.11  42 2.11  57 2.11  58 2.11  65 2.11
  24  0.000  0.250  0.352-  56 2.11  41 2.11  57 2.11  58 2.11  66 2.11
  25  0.750  0.250  0.451-  57 2.11  55 2.11  56 2.11  40 2.11  63 2.11  61 2.12
  26  0.000  0.000  0.451-  58 2.11  55 2.11  56 2.11  39 2.11  64 2.11  62 2.12
  27  0.750  0.000  0.550-  46 2.11  61 2.11  62 2.11  69 2.11  55 2.12  59 2.14
  28  0.000  0.250  0.550-  45 2.11  61 2.11  62 2.11  70 2.11  56 2.12  60 2.14
  29  0.750  0.250  0.648-  61 2.10  59 2.11  60 2.11  44 2.11  67 2.11
  30  0.000  0.000  0.648-  62 2.10  59 2.11  60 2.11  43 2.11  68 2.11
  31  0.750  0.500  0.352-  63 2.11  57 2.11  50 2.11  65 2.11  66 2.11
  32  0.000  0.750  0.352-  64 2.11  58 2.11  49 2.11  65 2.11  66 2.11
  33  0.750  0.750  0.451-  65 2.11  55 2.11  63 2.11  64 2.11  48 2.11  69 2.12
  34  0.000  0.500  0.451-  66 2.11  56 2.11  63 2.11  64 2.11  47 2.11  70 2.12
  35  0.750  0.500  0.550-  54 2.11  61 2.11  69 2.11  70 2.11  63 2.12  67 2.14
  36  0.000  0.750  0.550-  53 2.11  62 2.11  69 2.11  70 2.11  64 2.12  68 2.14
  37  0.750  0.750  0.648-  69 2.10  59 2.11  67 2.11  68 2.11  52 2.11
  38  0.000  0.500  0.648-  70 2.10  60 2.11  67 2.11  68 2.11  51 2.11
  39  0.250  0.000  0.451-   7 2.11   9 2.11  10 2.11  17 2.11  26 2.11  11 2.12
  40  0.500  0.250  0.451-   8 2.11   9 2.11  10 2.11  18 2.11  25 2.11  12 2.12
  41  0.250  0.250  0.352-   9 2.11   8 2.11   7 2.11  15 2.11  24 2.11
  42  0.500  0.000  0.352-  10 2.11   8 2.11   7 2.11  16 2.11  23 2.11
  43  0.250  0.000  0.650-  13 2.11  14 2.11  21 2.11  30 2.11  11 2.14
  44  0.500  0.250  0.650-  13 2.11  14 2.11  22 2.11  29 2.11  12 2.14
  45  0.250  0.250  0.550-  13 2.10  12 2.11  11 2.11  19 2.11  28 2.11   9 2.12
  46  0.500  0.000  0.550-  14 2.10  12 2.11  11 2.11  20 2.11  27 2.11  10 2.12
  47  0.250  0.500  0.451-  15 2.11   9 2.11  17 2.11  18 2.11  34 2.11  19 2.12
  48  0.500  0.750  0.451-  16 2.11  10 2.11  17 2.11  18 2.11  33 2.11  20 2.12
  49  0.250  0.750  0.352-  17 2.11  15 2.11  16 2.11   7 2.11  32 2.11
  50  0.500  0.500  0.352-  18 2.11  15 2.11  16 2.11   8 2.11  31 2.11
  51  0.250  0.500  0.650-  13 2.11  21 2.11  22 2.11  38 2.11  19 2.14
  52  0.500  0.750  0.650-  14 2.11  21 2.11  22 2.11  37 2.11  20 2.14
  53  0.250  0.750  0.550-  21 2.10  19 2.11  20 2.11  11 2.11  36 2.11  17 2.12
  54  0.500  0.500  0.550-  22 2.10  19 2.11  20 2.11  12 2.11  35 2.11  18 2.12
  55  0.750  0.000  0.451-  23 2.11  10 2.11  25 2.11  26 2.11  33 2.11  27 2.12
  56  0.000  0.250  0.451-  24 2.11   9 2.11  25 2.11  26 2.11  34 2.11  28 2.12
  57  0.750  0.250  0.352-  25 2.11  23 2.11  24 2.11   8 2.11  31 2.11
  58  0.000  0.000  0.352-  26 2.11  23 2.11  24 2.11   7 2.11  32 2.11
  59  0.750  0.000  0.650-  14 2.11  29 2.11  30 2.11  37 2.11  27 2.14
  60  0.000  0.250  0.650-  13 2.11  29 2.11  30 2.11  38 2.11  28 2.14
  61  0.750  0.250  0.550-  29 2.10  27 2.11  28 2.11  12 2.11  35 2.11  25 2.12
  62  0.000  0.000  0.550-  30 2.10  27 2.11  28 2.11  11 2.11  36 2.11  26 2.12
  63  0.750  0.500  0.451-  31 2.11  25 2.11  18 2.11  33 2.11  34 2.11  35 2.12
  64  0.000  0.750  0.451-  32 2.11  26 2.11  17 2.11  33 2.11  34 2.11  36 2.12
  65  0.750  0.750  0.352-  33 2.11  23 2.11  31 2.11  32 2.11  16 2.11
  66  0.000  0.500  0.352-  34 2.11  24 2.11  31 2.11  32 2.11  15 2.11
  67  0.750  0.500  0.650-  22 2.11  29 2.11  37 2.11  38 2.11  35 2.14
  68  0.000  0.750  0.650-  21 2.11  30 2.11  37 2.11  38 2.11  36 2.14
  69  0.750  0.750  0.550-  37 2.10  27 2.11  35 2.11  36 2.11  20 2.11  33 2.12
  70  0.000  0.500  0.550-  38 2.10  28 2.11  35 2.11  36 2.11  19 2.11  34 2.12

IMPORTANT INFORMATION: All symmetrisations will be switched off!
NOSYMM: (Re-)initialisation of all symmetry stuff for point group C_1.

                                     Primitive cell

  volume of cell :    1519.6535

  direct lattice vectors                    reciprocal lattice vectors
     8.440582262  0.000000000  0.000000000     0.118475239  0.000000000  0.000000000
     0.000000000  8.440582262  0.000000000     0.000000000  0.118475239  0.000000000
     0.000000000  0.000000000 21.330436697     0.000000000  0.000000000  0.046881366

  length of vectors
     8.440582262  8.440582262 21.330436697     0.118475239  0.118475239  0.046881366

  position of ions in fractional coordinates (direct lattice)
     0.499999994  0.455738500  0.771650101
     0.499999989  0.286170679  0.771300841
     0.499999999  0.492111307  0.821030867
     0.500000000  0.250000000  0.728000573
     0.606533159  0.505203862  0.748884710
     0.393466836  0.505203875  0.748884708
     0.250000000  0.000000000  0.351610242
     0.500000000  0.250000000  0.351610242
     0.250000000  0.250000000  0.450536747
     0.500000000  0.000000000  0.450536747
     0.250000000  0.000000000  0.549966382
     0.500000000  0.250000000  0.549966382
     0.250000000  0.250000000  0.648348359
     0.500000000  0.000000000  0.648348359
     0.250000000  0.500000000  0.351610242
     0.500000000  0.750000000  0.351610242
     0.250000000  0.750000000  0.450536747
     0.500000000  0.500000000  0.450536747
     0.250000000  0.500000000  0.549966382
     0.500000000  0.750000000  0.549966382
     0.250000000  0.750000000  0.648348359
     0.500000000  0.500000000  0.648348359
     0.750000000  0.000000000  0.351610242
     0.000000000  0.250000000  0.351610242
     0.750000000  0.250000000  0.450536747
     0.000000000  0.000000000  0.450536747
     0.750000000  0.000000000  0.549966382
     0.000000000  0.250000000  0.549966382
     0.750000000  0.250000000  0.648348359
     0.000000000  0.000000000  0.648348359
     0.750000000  0.500000000  0.351610242
     0.000000000  0.750000000  0.351610242
     0.750000000  0.750000000  0.450536747
     0.000000000  0.500000000  0.450536747
     0.750000000  0.500000000  0.549966382
     0.000000000  0.750000000  0.549966382
     0.750000000  0.750000000  0.648348359
     0.000000000  0.500000000  0.648348359
     0.250000000  0.000000000  0.450536747
     0.500000000  0.250000000  0.450536747
     0.250000000  0.250000000  0.351610242
     0.500000000  0.000000000  0.351610242
     0.250000000  0.000000000  0.650177506
     0.500000000  0.250000000  0.650177506
     0.250000000  0.250000000  0.549707339
     0.500000000  0.000000000  0.549707339
     0.250000000  0.500000000  0.450536747
     0.500000000  0.750000000  0.450536747
     0.250000000  0.750000000  0.351610242
     0.500000000  0.500000000  0.351610242
     0.250000000  0.500000000  0.650177506
     0.500000000  0.750000000  0.650177506
     0.250000000  0.750000000  0.549707339
     0.500000000  0.500000000  0.549707339
     0.750000000  0.000000000  0.450536747
     0.000000000  0.250000000  0.450536747
     0.750000000  0.250000000  0.351610242
     0.000000000  0.000000000  0.351610242
     0.750000000  0.000000000  0.650177506
     0.000000000  0.250000000  0.650177506
     0.750000000  0.250000000  0.549707339
     0.000000000  0.000000000  0.549707339
     0.750000000  0.500000000  0.450536747
     0.000000000  0.750000000  0.450536747
     0.750000000  0.750000000  0.351610242
[...]
   2.11014557  0.00000000 13.86857013
   4.22029113  2.11014557 13.86857013
   2.11014557  2.11014557 11.72549760
   4.22029113  0.00000000 11.72549760
   2.11014557  4.22029113  9.61014557
   4.22029113  6.33043670  9.61014557
   2.11014557  6.33043670  7.50000000
   4.22029113  4.22029113  7.50000000
   2.11014557  4.22029113 13.86857013
   4.22029113  6.33043670 13.86857013
   2.11014557  6.33043670 11.72549760
   4.22029113  4.22029113 11.72549760
   6.33043670  0.00000000  9.61014557
   0.00000000  2.11014557  9.61014557
   6.33043670  2.11014557  7.50000000
   0.00000000  0.00000000  7.50000000
   6.33043670  0.00000000 13.86857013
   0.00000000  2.11014557 13.86857013
   6.33043670  2.11014557 11.72549760
   0.00000000  0.00000000 11.72549760
   6.33043670  4.22029113  9.61014557
   0.00000000  6.33043670  9.61014557
   6.33043670  6.33043670  7.50000000
   0.00000000  4.22029113  7.50000000
   6.33043670  4.22029113 13.86857013
   0.00000000  6.33043670 13.86857013
   6.33043670  6.33043670 11.72549760
   0.00000000  4.22029113 11.72549760

--------------------------------------- Iteration      FINAL  ---------------------------------------

--------------------OUTCAR has been truncated-------------------------

[...]

--------------------OUTCAR has been truncated-------------------------

  FORCE on cell =-STRESS in cart. coord.  units (eV):
  Direction    XX          YY          ZZ          XY          YZ          ZX
  Alpha Z   918.95675   918.95675   918.95675
  Ewald  157546.51286157816.41613************     0.01912    88.25534    -0.00277
  Hartree167889.45441168051.03454************     0.00609    47.83792     0.00166
  E(xc)   -2513.71640 -2513.69026 -2513.40886     0.00003     0.01132    -0.00003
  Local  ************************335134.75729    -0.02164  -129.47603    -0.00079
  n-local -2873.53822 -2870.43578 -2892.90341     0.00001     1.24667     0.00021
  augment  1059.69455  1058.00792  1048.83667    -0.00016    -0.53911     0.00001
  Kinetic  7552.66124  7532.18272  7567.82689    -0.00195    -7.51964     0.00051
  Fock        0.00000     0.00000     0.00000     0.00000     0.00000     0.00000
  Total     -29.67906   -29.58167    -2.62640     0.00151    -0.18353    -0.00120
  in kB     -31.29076   -31.18808    -2.76903     0.00159    -0.19350    -0.00127

 VOLUME and BASIS-vectors are now :
  energy-cutoff  :      600.00
  volume of cell :     1519.65
      direct lattice vectors                 reciprocal lattice vectors
     8.440582262  0.000000000  0.000000000     0.118475239  0.000000000  0.000000000
     0.000000000  8.440582262  0.000000000     0.000000000  0.118475239  0.000000000
     0.000000000  0.000000000 21.330436697     0.000000000  0.000000000  0.046881366

  length of vectors
     8.440582262  8.440582262 21.330436697     0.118475239  0.118475239  0.046881366

 FORCES acting on ions:
    Electron-Ion                     Ewald-Force                    Non-Local-Force
   -.660E-02 -.118E+03 -.963E+03   0.471E-02 0.123E+03 0.965E+03   -.287E-02 -.475E+01 -.194E+01
   0.903E-02 0.167E+03 -.151E+04   -.126E-01 -.202E+03 0.153E+04   0.403E-02 0.351E+02 -.251E+02
   0.292E-02 -.128E+02 -.240E+03   -.311E-02 0.130E+02 0.246E+03   0.485E-03 -.179E+00 -.573E+01
   -.117E-02 0.165E+02 -.213E+03   0.129E-02 -.170E+02 0.206E+03   -.125E-03 0.553E+00 0.727E+01
   -.483E+02 -.390E+02 -.234E+03   0.528E+02 0.417E+02 0.233E+03   -.448E+01 -.265E+01 0.167E+01
   0.483E+02 -.390E+02 -.234E+03   -.528E+02 0.417E+02 0.233E+03   0.448E+01 -.265E+01 0.167E+01
   0.291E+00 0.170E+00 0.209E+04   -.293E+00 -.171E+00 -.208E+04   0.189E-02 0.873E-03 -.680E+01
   0.170E-05 0.143E+00 0.209E+04   -.259E-05 -.143E+00 -.208E+04   0.630E-06 0.329E-05 -.679E+01
   0.148E+01 0.600E+00 0.732E+03   -.146E+01 -.590E+00 -.732E+03   -.127E-01 -.668E-02 0.488E+00
   -.337E-04 0.912E+00 0.732E+03   0.264E-04 -.881E+00 -.732E+03   0.538E-05 -.230E-01 0.475E+00
   0.524E+01 0.386E+01 -.617E+03   -.527E+01 -.388E+01 0.617E+03   0.243E-01 0.115E-01 -.501E+00
   -.841E-04 0.364E+01 -.607E+03   0.691E-04 -.367E+01 0.606E+03   0.146E-04 0.269E-01 0.592E+00
   0.381E+02 0.131E+02 -.194E+04   -.390E+02 -.132E+02 0.193E+04   0.908E+00 0.817E-01 0.600E+01
   -.104E-03 0.277E+02 -.195E+04   0.902E-04 -.286E+02 0.194E+04   0.905E-05 0.984E+00 0.605E+01
   0.306E+00 -.171E+00 0.209E+04   -.309E+00 0.173E+00 -.208E+04   0.224E-02 -.131E-02 -.680E+01
   0.108E-05 -.140E+00 0.209E+04   -.194E-05 0.141E+00 -.208E+04   0.617E-06 -.827E-03 -.678E+01
   0.124E+01 -.543E+00 0.731E+03   -.127E+01 0.543E+00 -.731E+03   0.271E-01 0.533E-03 0.403E+00
   0.561E-04 -.928E+00 0.733E+03   -.606E-04 0.915E+00 -.734E+03   0.305E-05 0.109E-01 0.489E+00
   0.665E+01 -.406E+01 -.612E+03   -.671E+01 0.406E+01 0.613E+03   0.617E-01 0.626E-03 -.375E+00
   0.132E-04 -.339E+01 -.611E+03   -.137E-04 0.344E+01 0.611E+03   0.191E-05 -.461E-01 -.326E+00
   0.185E+02 -.115E+02 -.198E+04   -.187E+02 0.116E+02 0.197E+04   0.143E+00 -.819E-01 0.600E+01
   -.395E-05 -.319E+02 -.190E+04   -.103E-03 0.330E+02 0.189E+04   0.758E-04 -.108E+01 0.608E+01
   -.291E+00 0.170E+00 0.209E+04   0.293E+00 -.171E+00 -.208E+04   -.189E-02 0.873E-03 -.680E+01
   -.157E-05 0.127E+00 0.209E+04   0.248E-05 -.127E+00 -.208E+04   -.659E-06 -.183E-03 -.678E+01
   -.148E+01 0.600E+00 0.732E+03   0.146E+01 -.590E+00 -.732E+03   0.127E-01 -.668E-02 0.488E+00
   0.394E-04 0.688E+00 0.730E+03   -.327E-04 -.712E+00 -.731E+03   -.501E-05 0.179E-01 0.396E+00
   -.524E+01 0.386E+01 -.617E+03   0.527E+01 -.388E+01 0.617E+03   -.243E-01 0.115E-01 -.501E+00
   0.648E-04 0.214E+01 -.615E+03   -.533E-04 -.215E+01 0.616E+03   -.117E-04 0.238E-02 -.347E+00
   -.381E+02 0.131E+02 -.194E+04   0.390E+02 -.132E+02 0.193E+04   -.908E+00 0.817E-01 0.600E+01
   -.274E-04 0.108E+02 -.199E+04   0.389E-04 -.109E+02 0.198E+04   -.500E-05 0.117E+00 0.600E+01
   -.306E+00 -.171E+00 0.209E+04   0.309E+00 0.173E+00 -.208E+04   -.224E-02 -.131E-02 -.680E+01
   -.105E-05 -.125E+00 0.209E+04   0.177E-05 0.125E+00 -.208E+04   -.518E-06 -.325E-03 -.681E+01
   -.124E+01 -.543E+00 0.731E+03   0.127E+01 0.543E+00 -.731E+03   -.271E-01 0.535E-03 0.403E+00
   -.568E-04 -.688E+00 0.731E+03   0.607E-04 0.723E+00 -.731E+03   -.270E-05 -.251E-01 0.426E+00
   -.665E+01 -.406E+01 -.612E+03   0.671E+01 0.406E+01 0.613E+03   -.617E-01 0.615E-03 -.375E+00
   0.484E-04 -.200E+01 -.623E+03   -.401E-04 0.201E+01 0.624E+03   -.894E-05 -.787E-02 -.285E+00
   -.185E+02 -.115E+02 -.198E+04   0.187E+02 0.116E+02 0.197E+04   -.143E+00 -.820E-01 0.600E+01
   0.115E-03 -.112E+02 -.198E+04   -.567E-04 0.113E+02 0.197E+04   -.497E-04 -.104E+00 0.599E+01
   0.855E+00 0.520E+00 0.548E+03   -.868E+00 -.540E+00 -.548E+03   0.196E-01 0.279E-01 -.106E+00
   -.728E-05 0.475E+00 0.550E+03   0.585E-05 -.486E+00 -.550E+03   0.217E-05 0.140E-01 -.504E-01
   0.235E+00 0.101E+00 0.157E+04   -.235E+00 -.101E+00 -.157E+04   0.439E-03 0.221E-03 0.361E+01
   -.233E-05 0.137E+00 0.157E+04   0.120E-05 -.136E+00 -.157E+04   0.157E-05 -.702E-03 0.361E+01
   0.172E+02 0.150E+02 -.149E+04   -.172E+02 -.150E+02 0.150E+04   -.115E-01 -.196E-01 -.502E+01
   -.294E-03 0.183E+02 -.141E+04   0.265E-03 -.184E+02 0.141E+04   0.419E-04 0.678E-01 -.189E+01
   0.467E+01 0.213E+01 -.454E+03   -.471E+01 -.214E+01 0.454E+03   0.454E-01 0.769E-02 0.240E+00
   -.978E-04 0.289E+01 -.455E+03   0.931E-04 -.292E+01 0.455E+03   0.104E-04 0.366E-01 0.251E+00
   0.939E+00 -.520E+00 0.549E+03   -.947E+00 0.528E+00 -.548E+03   0.126E-01 -.121E-01 -.110E+00
   -.924E-05 -.403E+00 0.549E+03   0.829E-05 0.390E+00 -.549E+03   0.161E-05 0.168E-01 -.209E-01
   0.218E+00 -.100E+00 0.157E+04   -.223E+00 0.100E+00 -.157E+04   0.802E-02 0.265E-03 0.360E+01
   0.511E-05 -.139E+00 0.157E+04   -.592E-05 0.138E+00 -.157E+04   0.112E-05 0.180E-02 0.361E+01
   0.279E+02 -.162E+02 -.148E+04   -.278E+02 0.162E+02 0.148E+04   -.146E-01 0.323E-01 -.500E+01
   0.740E-04 -.148E+02 -.149E+04   -.109E-03 0.148E+02 0.149E+04   0.436E-04 -.651E-01 -.499E+01
   0.401E+01 -.198E+01 -.459E+03   -.402E+01 0.199E+01 0.459E+03   0.729E-02 -.134E-01 0.178E+00
   0.827E-04 -.308E+01 -.448E+03   -.868E-04 0.312E+01 0.448E+03   0.406E-05 -.405E-01 0.429E+00
   -.855E+00 0.520E+00 0.548E+03   0.868E+00 -.540E+00 -.548E+03   -.196E-01 0.279E-01 -.106E+00
   0.793E-05 0.374E+00 0.548E+03   -.713E-05 -.385E+00 -.548E+03   -.134E-05 0.147E-01 -.411E-01
   -.235E+00 0.101E+00 0.157E+04   0.235E+00 -.101E+00 -.157E+04   -.439E-03 0.221E-03 0.361E+01
   0.255E-05 0.120E+00 0.157E+04   -.140E-05 -.125E+00 -.157E+04   -.160E-05 0.661E-02 0.360E+01
   -.172E+02 0.150E+02 -.149E+04   0.172E+02 -.150E+02 0.150E+04   0.115E-01 -.196E-01 -.502E+01
   0.942E-04 0.546E+01 -.150E+04   -.729E-04 -.545E+01 0.150E+04   -.271E-04 -.151E-01 -.494E+01
   -.467E+01 0.213E+01 -.454E+03   0.471E+01 -.214E+01 0.454E+03   -.454E-01 0.768E-02 0.240E+00
   0.130E-03 0.244E+01 -.462E+03   -.129E-03 -.245E+01 0.462E+03   -.787E-05 0.134E-01 0.168E+00
   -.939E+00 -.520E+00 0.549E+03   0.947E+00 0.528E+00 -.548E+03   -.126E-01 -.121E-01 -.110E+00
   0.106E-04 -.332E+00 0.547E+03   -.696E-05 0.328E+00 -.547E+03   -.528E-05 0.410E-02 -.113E+00
   -.218E+00 -.100E+00 0.157E+04   0.223E+00 0.100E+00 -.157E+04   -.802E-02 0.266E-03 0.360E+01
   -.503E-05 -.121E+00 0.157E+04   0.586E-05 0.126E+00 -.157E+04   -.115E-05 -.597E-02 0.360E+01
   -.279E+02 -.162E+02 -.148E+04   0.278E+02 0.162E+02 0.148E+04   0.145E-01 0.323E-01 -.500E+01
   -.678E-04 -.525E+01 -.151E+04   0.808E-04 0.525E+01 0.151E+04   -.149E-04 -.844E-02 -.493E+01
   -.401E+01 -.198E+01 -.459E+03   0.402E+01 0.199E+01 0.459E+03   -.728E-02 -.134E-01 0.178E+00
   -.692E-04 -.258E+01 -.460E+03   0.721E-04 0.260E+01 0.459E+03   -.309E-05 -.234E-01 0.187E+00
   0.217E-03 -.254E+02 0.337E+02   -.711E-13 0.568E-13 -.637E-11   -.263E-03 0.254E+02 -.337E+02

 POSITION                                       TOTAL-FORCE (eV/Angst)
      4.22036      3.57492     17.00689        -0.004731     -0.002948     -0.007780
      4.22027      2.20571     16.61106         0.000436     -0.009395     -0.002818
      4.22028      3.61014     18.10510         0.000293      0.000604     -0.008930
      4.22029      2.16926     15.61087         0.000000      0.001646      0.002294
      5.12230      4.11367     16.64971        -0.003947     -0.001172      0.003942
      3.31823      4.11370     16.64970         0.007924     -0.002864      0.005299
      2.11015      0.00000      7.50000        -0.000755     -0.000373      0.318594
      4.22029      2.11015      7.50000         0.000000      0.000014      0.317003
      2.11015      2.11015      9.61015         0.002930      0.002560      0.033292
      4.22029      0.00000      9.61015        -0.000001      0.008331      0.029477
      2.10970      0.00119     11.73248        -0.003396     -0.003399      0.002132
      4.22029      2.11112     11.72904         0.000000     -0.001882      0.005702
      2.09032      2.10919     13.83607        -0.001676     -0.001704      0.004918
      4.22029     -0.01860     13.83309        -0.000004     -0.003971      0.002712
      2.11015      4.22029      7.50000        -0.000835      0.000558      0.319143
      4.22029      6.33044      7.50000         0.000000      0.000267      0.314837
      2.11015      6.33044      9.61015        -0.010289      0.000289      0.036261
      4.22029      4.22029      9.61015        -0.000001     -0.001794      0.030219
      2.10861      4.22118     11.73296        -0.001934      0.002992     -0.001047
      4.22029      6.33335     11.72780         0.000002      0.000439      0.001796
      2.10635      6.33400     13.83377        -0.000060      0.000667     -0.005297
      4.22029      4.24869     13.82212        -0.000030     -0.000366      0.004084
      6.33044      0.00000      7.50000         0.000757     -0.000373      0.318593
      0.00000      2.11015      7.50000         0.000001      0.000069      0.315557
      6.33044      2.11015      9.61015        -0.002929      0.002561      0.033291
      0.00000      0.00000      9.61015         0.000002     -0.006126      0.036815
      6.33088      0.00119     11.73248         0.003398     -0.003400      0.002130
      0.00000      2.11141     11.72981         0.000001     -0.004113      0.004009
      6.35026      2.10919     13.83606         0.001681     -0.001713      0.004893
     -0.00000     -0.00098     13.83455         0.000007     -0.003370      0.002980
      6.33044      4.22029      7.50000         0.000836      0.000558      0.319143
      0.00000      6.33044      7.50000         0.000001      0.000162      0.321294
      6.33044      6.33044      9.61015         0.010290      0.000288      0.036261
      0.00000      4.22029      9.61015         0.000002      0.010076      0.034648
      6.33197      4.22118     11.73296         0.001935      0.002993     -0.001050
      0.00000      6.33168     11.73129         0.000000      0.001127     -0.001068
      6.33423      6.33400     13.83377         0.000068      0.000675     -0.005326
      0.00000      4.22493     13.83463         0.000009     -0.001703     -0.005981
      2.11015      0.00000      9.61015         0.006019      0.007961      0.052572
      4.22029      2.11015      9.61015         0.000001      0.003939      0.051233
      2.11015      2.11015      7.50000         0.000102      0.000114     -0.402102
      4.22029      0.00000      7.50000         0.000001     -0.000153     -0.401806
      2.11197      0.00240     13.85947        -0.002773      0.000011      0.001419
      4.22029      2.11416     13.89198         0.000013      0.002349     -0.003476
      2.11373      2.11223     11.72837         0.000506     -0.004037      0.002214
      4.22029      0.00484     11.72721         0.000006      0.004912      0.000667
      2.11015      4.22029      9.61015         0.004579     -0.003897      0.053508
      4.22029      6.33044      9.61015         0.000001      0.003494      0.055847
      2.11015      6.33044      7.50000         0.002271      0.000142     -0.403682
      4.22029      4.22029      7.50000         0.000001      0.000599     -0.401844
      2.11179      4.22059     13.86645         0.002850      0.000611     -0.002667
      4.22029      6.33295     13.85991         0.000009     -0.000365     -0.002010
      2.11048      6.33074     11.72479         0.002229     -0.000679     -0.003754
      4.22029      4.21852     11.72706         0.000001     -0.000141     -0.001271
      6.33044      0.00000      9.61015        -0.006017      0.007961      0.052574
      0.00000      2.11015      9.61015         0.000000      0.003925      0.059744
      6.33044      2.11015      7.50000        -0.000101      0.000114     -0.402101
      0.00000      0.00000      7.50000         0.000000      0.001932     -0.403835
      6.32861      0.00240     13.85947         0.002774      0.000014      0.001424
     -0.00000      2.11235     13.86222        -0.000005     -0.004199      0.000218
      6.32685      2.11223     11.72837        -0.000506     -0.004042      0.002214
      0.00000      0.00146     11.72450        -0.000006      0.004081     -0.002047
      6.33044      4.22029      9.61015        -0.004578     -0.003896      0.053506
      0.00000      6.33044      9.61015        -0.000001      0.000691      0.044693
      6.33044      6.33044      7.50000        -0.002269      0.000142     -0.403682
      0.00000      4.22029      7.50000         0.000000     -0.001624     -0.403984
      6.32879      4.22059     13.86645        -0.002870      0.000607     -0.002608
     -0.00000      6.33203     13.86688        -0.000001     -0.002808     -0.003984
      6.33010      6.33074     11.72479        -0.002225     -0.000673     -0.003762
     -0.00000      4.22103     11.72571         0.000001     -0.003294     -0.005239
    total drift:                               -0.000047     -0.003589     -0.010173

  FREE ENERGIE OF THE ION-ELECTRON SYSTEM (eV)
  free  energy   TOTEN  =      -292.60706116 eV

  energy  without entropy=     -292.60706116  energy(sigma->0) =     -292.60706116

 d Force = 0.3125786E-04[ 0.204E-04, 0.421E-04]  d Energy = 0.3170552E-04-0.448E-06
 d Force = 0.2906313E+00[ 0.290E+00, 0.291E+00]  d Ewald  = 0.2906319E+00-0.549E-06

 Conjugate gradient step on ions:
 trial-energy change:   -0.000032  1 .order   -0.000031   -0.000042   -0.000020
  (g-gl).g = 0.139E-03      g.g   = 0.124E-03  gl.gl    = 0.930E-04
 g(Force)  = 0.124E-03   g(Stress)= 0.000E+00 ortho     = 0.997E-05
 gamma     =   1.49106
 trial     =   0.30345
 opt step  =   0.53677  (harmonic =   0.58772) maximal distance =0.00049145
 next E    =  -292.607069   (d E  =  -0.00004)

 reached required accuracy - stopping structural energy minimisation