 vasp.6.3.0 20Jan22 (build Dec 25 2023 18:06:01) complex
 executed on        HPECrayEX_GCC date 2024.11.20  20:40:28

 INCAR:
   SYSTEM = TiO2
   ISMEAR = 0
   SIGMA = 0.05
   EDIFF = 1E-7
   ALGO = Normal
   ISTART = 0
   IBRION = 2
   NSW = 1000
   ISYM = 0
   ISIF = 2
   EDIFFG = -0.01
   DIPOL = 0.5 0.5 0.5
   IDIPOL = 3
   LDIPOL = .TRUE.
   GGA = RE
   IVDW = 13
   VDW_S8 = 1.7468
   VDW_A1 = 0.5363
   VDW_A2 = 3.0726
   ENCUT = 600
   PREC = Accurate
   LASPH = .TRUE.
   LREAL = .FALSE.
   ISPIN = 1
   NELM = 200
   NELMIN = 8
   NCORE = 8
   KPAR = 1
   LWAVE = .FALSE.
   LCHARG = .FALSE.

 POTCAR:    PAW_PBE C 08Apr2002
 POTCAR:    PAW_PBE O 08Apr2002
 POTCAR:    PAW_PBE Ti_pv 07Sep2000
 POTCAR:    PAW_PBE O 08Apr2002
 POTCAR:    PAW_PBE C 08Apr2002
   VRHFIN =C: s2p2

   TITEL  = PAW_PBE C 08Apr2002
   POMASS =   12.011; ZVAL   =    4.000    mass and valenz
   ENMAX  =  400.000; ENMIN  =  300.000 eV

[...]

   TITEL  = PAW_PBE Ti_pv 07Sep2000
   POMASS =   47.880; ZVAL   =   10.000    mass and valenz
   ENMAX  =  222.335; ENMIN  =  166.751 eV

   TITEL  = PAW_PBE O 08Apr2002
   POMASS =   16.000; ZVAL   =    6.000    mass and valenz
   ENMAX  =  400.000; ENMIN  =  300.000 eV

  PAW_PBE C 08Apr2002                   :
  PAW_PBE O 08Apr2002                   :
  PAW_PBE Ti_pv 07Sep2000               :
  PAW_PBE O 08Apr2002                   :

 POSCAR:  C  O Ti  O
  positions in direct lattice
|           W    W    AA    RRRRR   N    N  II  N    N   GGGG   !!!           |
|           W    W   A  A   R    R  NN   N  II  NN   N  G    G  !!!           |
|           W    W  A    A  R    R  N N  N  II  N N  N  G       !!!           |
|           W WW W  AAAAAA  RRRRR   N  N N  II  N  N N  G  GGG   !            |
|           WW  WW  A    A  R   R   N   NN  II  N   NN  G    G                |
|           W    W  A    A  R    R  N    N  II  N    N   GGGG   !!!           |
|     Specifying the vdW parameters                                           |
|     VDW_S8 = 1.747                                                          |
|     VDW_A1 = 0.536                                                          |
|     VDW_A2 = 3.073                                                          |
|     in the INCAR file will overwrite the defaults for revpbe. Please        |
|     make sure that is what you intended.                                    |

 ion  position               nearest neighbor table
   1  0.500  0.611  0.802-   2 1.18   3 1.18
   2  0.500  0.710  0.807-   1 1.18
   3  0.500  0.513  0.796-   1 1.18
   4  0.750  0.625  0.287-  84 1.95 144 1.95  85 1.95 145 1.95 166 1.98  87 1.98  14 2.96  34 2.96

   5  0.000  0.750  0.287-  87 1.95 107 1.95 106 1.95  86 1.95  88 1.98  35 2.96  15 2.96
   6  0.000  0.625  0.394-  88 1.95 148 1.95  89 1.95 149 1.95  90 1.98  91 1.98  16 2.96  36 2.96

[...]

  83  0.500  0.500  0.708- 237 1.81 242 1.95 243 1.95 182 1.95 183 1.95  73 2.96  53 2.96
  84  0.750  0.750  0.245-   4 1.95  14 1.95
  85  0.750  0.750  0.329-   4 1.95  14 1.95   7 1.98
  86  0.098  0.625  0.287-   5 1.95  35 1.95  44 1.98
  87  0.902  0.625  0.287-   5 1.95  35 1.95   4 1.98
  88  0.000  0.750  0.352-   6 1.95  16 1.95   5 1.98
  89  0.000  0.750  0.435-   6 1.95  16 1.95   9 1.98
  90  0.848  0.625  0.394-   7 1.95  37 1.95   6 1.98
  91  0.152  0.625  0.394-  47 1.95  77 1.95   6 1.98
  92  0.750  0.750  0.458-   8 1.95  18 1.95   7 1.98
  93  0.750  0.750  0.542-   8 1.95  18 1.95  11 2.11
  94  0.098  0.625  0.500-   9 1.95  39 1.95  48 1.98
  95  0.902  0.625  0.500-   9 1.95  39 1.95   8 1.98
  96  1.000  0.750  0.565-  10 1.89  20 1.89   9 2.00
  97  1.000  0.750  0.649-  13 1.81  20 2.02  10 2.02
  98  0.850  0.625  0.607-  10 1.95  11 1.97  41 1.97
  99  0.150  0.625  0.607-  10 1.95  81 1.97  51 1.97
 100  0.750  0.750  0.672-  11 1.86  12 2.10  22 2.10
 101  0.750  0.750  0.756-  22 1.83  12 1.83
 102  0.094  0.625  0.719-  43 1.95  13 1.95  52 2.03
 103  0.906  0.625  0.719-  13 1.95  43 1.95  12 2.03
 104  0.750  0.000  0.245-  14 1.95  24 1.95
 105  0.750  0.000  0.329-  14 1.95  24 1.95  17 1.98
 106  0.098  0.875  0.287-   5 1.95  15 1.95  54 1.98
 107  0.902  0.875  0.287-   5 1.95  15 1.95  14 1.98
 108  0.000  0.000  0.352-  16 1.95  26 1.95  15 1.98
 109  0.000  0.000  0.435-  16 1.95  26 1.95  19 1.98
 110  0.848  0.875  0.394-   7 1.95  17 1.95  16 1.98
 111  0.152  0.875  0.394-  47 1.95  57 1.95  16 1.98
 112  0.750  0.000  0.458-  18 1.95  28 1.95  17 1.98
 113  0.750  0.000  0.542-  18 1.95  28 1.95  21 2.11
 114  0.098  0.875  0.500-   9 1.95  19 1.95  58 1.98
 115  0.902  0.875  0.500-   9 1.95  19 1.95  18 1.98
 116  1.000  0.000  0.565-  20 1.89  30 1.89  19 2.00
 117  0.000  0.000  0.649-  23 1.81  30 2.02  20 2.02
 118  0.850  0.875  0.607-  20 1.95  11 1.97  21 1.97
 119  0.150  0.875  0.607-  20 1.95  61 1.97  51 1.97
 120  0.750  0.000  0.672-  21 1.86  32 2.10  22 2.10
 121  0.750  0.000  0.756-  22 1.83  32 1.83
 122  0.094  0.875  0.719-  23 1.95  13 1.95  62 2.03
 123  0.906  0.875  0.719-  13 1.95  23 1.95  22 2.03
 124  0.750  0.250  0.245-  24 1.95  34 1.95
 125  0.750  0.250  0.329-  24 1.95  34 1.95  27 1.98
 126  0.098  0.125  0.287-  15 1.95  25 1.95  64 1.98
 127  0.902  0.125  0.287-  15 1.95  25 1.95  24 1.98
 128  0.000  0.250  0.352-  26 1.95  36 1.95  25 1.98
 129  0.000  0.250  0.435-  26 1.95  36 1.95  29 1.98
 130  0.848  0.125  0.394-  17 1.95  27 1.95  26 1.98
 131  0.152  0.125  0.394-  57 1.95  67 1.95  26 1.98
 132  0.750  0.250  0.458-  28 1.95  38 1.95  27 1.98
 133  0.750  0.250  0.542-  28 1.95  38 1.95  31 2.11
 134  0.098  0.125  0.500-  19 1.95  29 1.95  68 1.98
 135  0.902  0.125  0.500-  19 1.95  29 1.95  28 1.98
 136  1.000  0.250  0.565-  30 1.89  40 1.89  29 2.00
 137  0.000  0.250  0.649-  33 1.81  40 2.02  30 2.02
 138  0.850  0.125  0.607-  30 1.95  21 1.97  31 1.97
 139  0.150  0.125  0.607-  30 1.95  71 1.97  61 1.97
 140  0.750  0.250  0.672-  31 1.86  32 2.10  42 2.10
 141  0.750  0.250  0.756-  42 1.83  32 1.83
 142  0.094  0.125  0.719-  23 1.95  33 1.95  72 2.03
[...]
 229  0.500  0.500  0.435-  46 1.95  76 1.95  79 1.98
 230  0.348  0.375  0.394-  67 1.95  77 1.95  76 1.98
 231  0.652  0.375  0.394-  27 1.95  37 1.95  76 1.98
 232  0.250  0.500  0.458-  48 1.95  78 1.95  77 1.98
 233  0.250  0.500  0.542-  48 1.95  78 1.95  81 2.11
 234  0.598  0.375  0.500-  69 1.95  79 1.95  38 1.98
 235  0.402  0.375  0.500-  69 1.95  79 1.95  78 1.98
 236  0.500  0.500  0.565-  80 1.89  50 1.89  79 2.00
 237  0.500  0.500  0.649-  83 1.81  80 2.02  50 2.02
 238  0.350  0.375  0.607-  80 1.95  71 1.97  81 1.97
 239  0.650  0.375  0.607-  80 1.95  31 1.97  41 1.97
 240  0.250  0.500  0.672-  81 1.86  82 2.10  52 2.10
 241  0.250  0.500  0.756-  52 1.83  82 1.83
 242  0.594  0.375  0.719-  83 1.95  73 1.95  42 2.03
 243  0.406  0.375  0.719-  83 1.95  73 1.95  82 2.03

IMPORTANT INFORMATION: All symmetrisations will be switched off!
NOSYMM: (Re-)initialisation of all symmetry stuff for point group C_1.

                                     Primitive cell

  volume of cell :    4700.2642

  direct lattice vectors                    reciprocal lattice vectors
    13.003962940  0.000000000  0.000000000     0.076899635  0.000000000  0.000000000
     0.000000000 11.830322230  0.000000000     0.000000000  0.084528551  0.000000000
     0.000000000  0.000000000 30.552726600     0.000000000  0.000000000  0.032730303

  length of vectors
    13.003962940 11.830322230 30.552726600     0.076899635  0.084528551  0.032730303

  position of ions in fractional coordinates (direct lattice)
     0.499999667  0.611162781  0.802065469
     0.499999556  0.709555726  0.807474500
     0.499999792  0.512613963  0.795686551
     0.750000000  0.625000000  0.287188176
     0.000000000  0.750000000  0.287188176
     0.000000000  0.625000000  0.393594088
     0.750000000  0.750000000  0.393594088
     0.750000000  0.625000000  0.500000000
     0.000000000  0.750000000  0.500000000
     0.999999977  0.624999989  0.604107514
     0.750000007  0.750000012  0.610767618
     0.749999988  0.625000012  0.720461010
     0.999999986  0.749999988  0.708092187
     0.750000000  0.875000000  0.287188176
     0.000000000  0.000000000  0.287188176
     0.000000000  0.875000000  0.393594088
     0.750000000  0.000000000  0.393594088
     0.750000000  0.875000000  0.500000000
     0.000000000  0.000000000  0.500000000
     0.000000039  0.875000004  0.604107516
     0.750000003  0.999999990  0.610767611
     0.749999998  0.875000011  0.720461030
     0.000000003  0.000000016  0.708092185
     0.750000000  0.125000000  0.287188176
     0.000000000  0.250000000  0.287188176
     0.000000000  0.125000000  0.393594088
     0.750000000  0.250000000  0.393594088
     0.750000000  0.125000000  0.500000000
     0.000000000  0.250000000  0.500000000
     0.999999978  0.125000012  0.604107520
     0.749999992  0.250000022  0.610767621
     0.749999978  0.124999987  0.720460998
     0.000000011  0.250000009  0.708092188
     0.750000000  0.375000000  0.287188176
     0.000000000  0.500000000  0.287188176
     0.000000000  0.375000000  0.393594088
     0.750000000  0.500000000  0.393594088
     0.750000000  0.375000000  0.500000000
     0.000000000  0.500000000  0.500000000
     0.000000017  0.375000006  0.604107523
     0.750000001  0.499999983  0.610767625
     0.750000034  0.374999983  0.720461028
     0.000000022  0.499999995  0.708092186
     0.250000000  0.625000000  0.287188176
     0.500000000  0.750000000  0.287188176
     0.500000000  0.625000000  0.393594088
     0.250000000  0.750000000  0.393594088
     0.250000000  0.625000000  0.500000000
     0.500000000  0.750000000  0.500000000
     0.500000025  0.624999995  0.604107520
     0.250000008  0.749999983  0.610767631
     0.249999995  0.625000004  0.720461042
     0.499999999  0.749999996  0.708092179
     0.250000000  0.875000000  0.287188176
     0.500000000  0.000000000  0.287188176
     0.500000000  0.875000000  0.393594088
     0.250000000  0.000000000  0.393594088
     0.250000000  0.875000000  0.500000000
     0.500000000  0.000000000  0.500000000
     0.499999983  0.874999995  0.604107517
[...]
     0.500000000  0.500000000  0.435304992
     0.347999497  0.375000000  0.393594088
     0.652000503  0.375000000  0.393594088
     0.250000000  0.500000000  0.458289097
     0.250000000  0.500000000  0.541710903
     0.597999497  0.375000000  0.500000000
     0.402000503  0.375000000  0.500000000
     0.499999993  0.499999999  0.565341161
     0.499999997  0.499999994  0.648962158
     0.350200449  0.374999991  0.607128763
     0.649799558  0.375000002  0.607128743
     0.249999986  0.499999994  0.671634993
     0.249999989  0.499999984  0.755903992
     0.594079552  0.375000009  0.718679827
     0.405920447  0.374999997  0.718679832

  ion indices of the primitive-cell ions
   primitive index   ion index
                 1           1
                 2           2
                 3           3
                 4           4
                 5           5
                 6           6
                 7           7
                 8           8
                 9           9
[...]

 FORCES acting on ions
    electron-ion (+dipol)            ewald-force                    non-local-force                 convergence-correction
   -.710E-04 0.343E+01 -.160E+04   0.705E-04 -.343E+01 0.160E+04   0.104E-05 -.644E-02 -.252E-01   0.233E-07 0.549E-03 0.475E-03
   0.921E-04 -.272E+03 -.238E+04   -.170E-03 0.335E+03 0.239E+04   0.785E-04 -.631E+02 -.962E+01   0.761E-07 0.380E-03 0.398E-03
   -.440E-03 0.270E+03 -.242E+04   0.512E-03 -.332E+03 0.241E+04   -.724E-04 0.620E+02 0.659E+01   0.481E-07 0.190E-04 0.139E-02
   -.241E+00 -.107E-02 0.379E+04   0.240E+00 0.114E-02 -.380E+04   0.936E-04 -.106E-05 0.454E+00   -.498E-07 -.178E-04 0.411E-04
   0.284E-06 -.648E-01 0.398E+04   -.284E-06 0.649E-01 -.397E+04   -.977E-09 -.170E-04 -.403E+01   0.213E-08 -.615E-05 0.129E-05
   0.327E-06 -.471E-02 0.194E+04   -.332E-06 0.474E-02 -.194E+04   0.353E-08 0.102E-04 -.465E-01   0.211E-08 -.654E-05 -.154E-04
   -.469E+00 -.139E+00 0.194E+04   0.468E+00 0.140E+00 -.194E+04   0.232E-03 0.251E-04 0.205E+00   -.548E-05 0.252E-05 0.107E-04
   -.211E+01 0.644E-02 0.170E+02   0.211E+01 -.685E-02 -.162E+02   0.110E-02 0.882E-04 -.138E+00   -.757E-04 0.141E-04 -.116E-03
   -.618E-06 -.711E+00 0.265E+02   0.254E-06 0.714E+00 -.276E+02   0.210E-06 -.868E-03 0.357E+00   0.561E-08 0.496E-04 -.122E-03
   0.467E-05 -.367E+00 -.185E+04   -.436E-05 0.368E+00 0.185E+04   0.295E-07 -.824E-03 0.149E-01   0.201E-07 0.894E-05 -.267E-03
   -.128E+02 -.544E+01 -.190E+04   0.128E+02 0.544E+01 0.190E+04   -.408E-02 -.309E-02 -.865E-01   -.112E-04 0.209E-03 0.896E-04
   -.859E+02 -.434E+01 -.370E+04   0.859E+02 0.434E+01 0.370E+04   0.835E-02 0.546E-03 -.189E+00   -.267E-03 0.187E-03 0.207E-03
   0.856E-04 -.740E+01 -.377E+04   -.857E-04 0.740E+01 0.376E+04   -.227E-07 -.336E-02 0.103E+01   -.593E-08 0.234E-03 0.105E-03
   -.236E+00 -.953E-01 0.379E+04   0.236E+00 0.958E-01 -.380E+04   0.124E-03 -.380E-04 0.454E+00   -.146E-05 0.125E-04 0.450E-04
   0.239E-06 -.617E-01 0.398E+04   -.236E-06 0.618E-01 -.397E+04   -.102E-08 -.108E-04 -.403E+01   0.153E-08 0.257E-04 -.320E-05
   0.516E-07 -.196E+00 0.194E+04   -.558E-07 0.196E+00 -.194E+04   0.296E-08 0.167E-04 -.466E-01   0.131E-08 0.970E-05 -.201E-05
   -.463E+00 -.149E+00 0.194E+04   0.462E+00 0.149E+00 -.194E+04   0.315E-03 0.347E-04 0.204E+00   -.299E-05 0.143E-04 0.186E-04
   -.216E+01 -.115E+01 0.158E+02   0.215E+01 0.117E+01 -.150E+02   0.821E-03 -.132E-02 -.140E+00   -.496E-04 0.716E-04 -.191E-04
   -.440E-05 -.626E+00 0.252E+02   0.412E-05 0.629E+00 -.263E+02   0.176E-06 -.520E-03 0.358E+00   0.154E-07 0.160E-04 -.637E-04
   0.216E-03 -.362E+01 -.185E+04   -.216E-03 0.362E+01 0.185E+04   -.150E-06 -.176E-02 0.137E-01   0.432E-07 0.256E-04 -.218E-03
   -.885E+01 -.413E+01 -.191E+04   0.885E+01 0.413E+01 0.191E+04   0.349E-03 -.840E-03 -.805E-01   -.524E-04 -.184E-03 -.121E-03
   -.463E+02 -.318E+02 -.374E+04   0.463E+02 0.318E+02 0.374E+04   0.167E-01 -.343E-02 -.215E+00   -.254E-03 -.429E-03 0.264E-03
   0.591E-04 -.594E+01 -.377E+04   -.593E-04 0.594E+01 0.377E+04   0.744E-07 -.188E-02 0.104E+01   0.119E-07 -.592E-03 -.145E-03
   -.230E+00 0.105E-02 0.379E+04   0.229E+00 -.113E-02 -.380E+04   0.133E-03 0.233E-05 0.454E+00   -.168E-06 0.162E-04 0.392E-04
   0.249E-06 0.647E-01 0.398E+04   -.247E-06 -.649E-01 -.397E+04   0.508E-08 0.166E-04 -.403E+01   0.165E-09 0.494E-05 -.173E-04
   -.170E-06 0.454E-02 0.194E+04   0.184E-06 -.461E-02 -.194E+04   0.936E-09 -.210E-05 -.467E-01   0.266E-09 0.628E-05 -.892E-05
   -.446E+00 0.139E+00 0.194E+04   0.445E+00 -.140E+00 -.194E+04   0.279E-03 -.211E-04 0.204E+00   0.135E-06 -.337E-05 0.138E-05
   -.198E+01 -.758E-02 0.147E+02   0.198E+01 0.661E-02 -.138E+02   0.107E-02 0.352E-04 -.142E+00   0.533E-05 -.619E-04 -.402E-04
   -.449E-05 0.704E+00 0.253E+02   0.427E-05 -.708E+00 -.264E+02   0.154E-06 0.952E-03 0.358E+00   0.124E-07 -.309E-04 -.445E-04
   -.244E-04 0.241E+00 -.185E+04   0.247E-04 -.243E+00 0.185E+04   0.140E-07 0.161E-02 0.174E-01   0.241E-07 -.685E-04 -.452E-03
   -.922E+01 0.511E+01 -.191E+04   0.922E+01 -.511E+01 0.191E+04   -.136E-02 0.177E-02 -.829E-01   0.520E-04 -.409E-04 -.281E-03
   -.243E+02 0.299E+01 -.375E+04   0.243E+02 -.299E+01 0.375E+04   0.810E-02 -.190E-02 -.214E+00   -.237E-03 -.258E-03 -.720E-04
   0.656E-04 0.657E+01 -.377E+04   -.659E-04 -.658E+01 0.377E+04   0.195E-06 0.437E-02 0.103E+01   0.223E-07 -.373E-04 -.343E-03
   -.234E+00 0.953E-01 0.379E+04   0.234E+00 -.958E-01 -.380E+04   0.103E-03 0.369E-04 0.454E+00   0.376E-06 -.108E-04 0.352E-04
   0.294E-06 0.617E-01 0.398E+04   -.294E-06 -.618E-01 -.397E+04   -.167E-08 0.111E-04 -.403E+01   0.231E-08 -.245E-04 -.127E-04
   0.188E-06 0.196E+00 0.194E+04   -.194E-06 -.196E+00 -.194E+04   0.351E-08 -.217E-04 -.466E-01   0.283E-08 -.979E-05 -.208E-04
   -.452E+00 0.149E+00 0.194E+04   0.451E+00 -.149E+00 -.194E+04   0.162E-03 -.434E-04 0.205E+00   -.950E-05 -.136E-04 0.456E-05
   -.194E+01 0.115E+01 0.159E+02   0.194E+01 -.117E+01 -.150E+02   0.979E-03 0.125E-02 -.140E+00   -.655E-05 -.242E-04 -.115E-03
   -.717E-06 0.638E+00 0.266E+02   0.423E-06 -.640E+00 -.277E+02   0.176E-06 0.303E-03 0.357E+00   -.918E-09 -.316E-04 -.698E-04
   0.130E-03 0.370E+01 -.185E+04   -.129E-03 -.370E+01 0.185E+04   -.126E-06 0.961E-03 0.144E-01   0.120E-07 -.363E-05 -.425E-03
   -.133E+02 0.441E+01 -.190E+04   0.133E+02 -.441E+01 0.190E+04   -.524E-02 0.146E-02 -.908E-01   0.104E-03 0.188E-04 0.543E-04
   -.550E+02 0.333E+02 -.373E+04   0.550E+02 -.333E+02 0.373E+04   0.121E-01 0.718E-02 -.209E+00   0.102E-03 0.329E-03 0.191E-03
   0.102E-03 0.658E+01 -.376E+04   -.102E-03 -.658E+01 0.376E+04   -.190E-06 0.279E-02 0.102E+01   0.181E-07 0.202E-03 -.119E-03
   0.241E+00 -.107E-02 0.379E+04   -.240E+00 0.114E-02 -.380E+04   -.936E-04 -.106E-05 0.454E+00   0.486E-07 -.178E-04 0.411E-04
   -.275E-06 -.717E-01 0.398E+04   0.274E-06 0.720E-01 -.397E+04   0.116E-09 -.342E-04 -.403E+01   0.880E-10 -.391E-05 -.217E-05
   -.100E-06 0.243E-01 0.195E+04   0.832E-07 -.219E-01 -.194E+04   0.361E-08 -.527E-03 -.467E-01   -.641E-09 -.340E-04 0.237E-04
   0.469E+00 -.139E+00 0.194E+04   -.468E+00 0.140E+00 -.194E+04   -.232E-03 0.251E-04 0.205E+00   0.548E-05 0.252E-05 0.107E-04
   0.211E+01 0.644E-02 0.170E+02   -.211E+01 -.684E-02 -.162E+02   -.110E-02 0.881E-04 -.138E+00   0.758E-04 0.141E-04 -.116E-03
   -.213E-05 -.728E+00 0.309E+02   0.176E-05 0.716E+00 -.320E+02   0.202E-06 0.821E-02 0.348E+00   -.868E-08 0.971E-05 0.305E-04
   0.140E-03 -.142E+01 -.182E+04   -.140E-03 0.143E+01 0.182E+04   -.191E-06 -.162E-01 0.183E-01   0.276E-07 0.107E-03 0.321E-03
   0.128E+02 -.544E+01 -.190E+04   -.128E+02 0.544E+01 0.190E+04   0.408E-02 -.309E-02 -.865E-01   0.111E-04 0.209E-03 0.896E-04
   0.859E+02 -.434E+01 -.370E+04   -.859E+02 0.434E+01 0.370E+04   -.835E-02 0.546E-03 -.189E+00   0.267E-03 0.187E-03 0.207E-03
   -.220E-03 -.687E+02 -.362E+04   0.220E-03 0.688E+02 0.362E+04   -.570E-07 -.180E-01 0.112E+01   0.185E-07 -.345E-04 0.488E-03
   0.236E+00 -.953E-01 0.379E+04   -.236E+00 0.958E-01 -.380E+04   -.124E-03 -.380E-04 0.454E+00   0.146E-05 0.125E-04 0.450E-04
   -.231E-06 -.719E-01 0.398E+04   0.227E-06 0.721E-01 -.397E+04   0.791E-09 -.172E-04 -.403E+01   0.927E-09 0.232E-04 -.121E-05
   0.198E-06 -.202E+00 0.195E+04   -.222E-06 0.204E+00 -.194E+04   0.833E-08 -.580E-03 -.469E-01   0.331E-09 0.150E-04 0.821E-05
   0.463E+00 -.149E+00 0.194E+04   -.462E+00 0.149E+00 -.194E+04   -.315E-03 0.347E-04 0.204E+00   0.299E-05 0.143E-04 0.186E-04
   0.216E+01 -.115E+01 0.158E+02   -.215E+01 0.117E+01 -.150E+02   -.821E-03 -.132E-02 -.140E+00   0.496E-04 0.716E-04 -.191E-04
   -.160E-06 -.928E+00 0.299E+02   -.309E-06 0.930E+00 -.310E+02   0.236E-06 0.457E-03 0.346E+00   0.283E-08 -.629E-04 0.537E-04
   0.108E-04 -.106E+02 -.183E+04   -.104E-04 0.106E+02 0.183E+04   -.483E-07 -.353E-02 -.223E-01   -.576E-08 0.202E-03 -.205E-03
[...]
   -.531E+02 0.123E+00 0.116E+04   0.571E+02 -.124E+00 -.116E+04   -.356E+01 0.122E-02 0.157E+00   -.418E-05 -.254E-05 -.167E-05
   0.531E+02 0.123E+00 0.116E+04   -.571E+02 -.124E+00 -.116E+04   0.356E+01 0.122E-02 0.157E+00   0.417E-05 -.255E-05 -.167E-05
   0.662E+00 0.245E+00 0.515E+03   -.660E+00 -.247E+00 -.519E+03   -.333E-02 0.500E-02 0.415E+01   0.167E-04 -.785E-05 -.500E-04
   0.229E+01 0.951E+00 -.511E+03   -.229E+01 -.952E+00 0.518E+03   -.354E-02 0.251E-02 -.718E+01   -.104E-04 -.181E-05 -.821E-04
   -.561E+02 0.645E+00 0.169E+02   0.608E+02 -.649E+00 -.171E+02   -.521E+01 0.117E-01 0.354E+00   0.569E-05 0.911E-05 -.784E-04
   0.561E+02 0.645E+00 0.169E+02   -.608E+02 -.649E+00 -.171E+02   0.521E+01 0.117E-01 0.354E+00   -.570E-05 0.911E-05 -.784E-04
   0.437E-04 0.133E+01 -.607E+03   -.481E-04 -.127E+01 0.601E+03   0.422E-05 -.562E-01 0.650E+01   -.800E-08 0.171E-04 0.152E-03
   -.518E-04 0.783E+01 -.156E+04   0.536E-04 -.773E+01 0.156E+04   -.186E-05 -.105E+00 0.237E+01   0.164E-07 0.429E-06 -.527E-03
   -.215E+02 0.532E+01 -.112E+04   0.245E+02 -.535E+01 0.111E+04   -.298E+01 0.314E-01 0.849E+00   -.130E-03 -.734E-04 -.121E-03
   0.215E+02 0.532E+01 -.112E+04   -.245E+02 -.535E+01 0.111E+04   0.298E+01 0.314E-01 0.849E+00   0.130E-03 -.733E-04 -.121E-03
   0.234E+02 0.773E+01 -.179E+04   -.235E+02 -.782E+01 0.179E+04   0.102E+00 0.905E-01 -.222E+01   -.440E-03 0.735E-04 -.910E-04
   0.687E+02 0.209E+02 -.270E+04   -.685E+02 -.209E+02 0.272E+04   -.250E+00 -.543E-02 -.207E+02   -.478E-04 0.488E-04 0.161E-03
   -.529E+02 0.483E+02 -.228E+04   0.589E+02 -.484E+02 0.229E+04   -.605E+01 0.708E-01 -.347E+01   -.259E-03 -.872E-04 -.333E-03
   0.529E+02 0.483E+02 -.228E+04   -.589E+02 -.484E+02 0.229E+04   0.605E+01 0.708E-01 -.347E+01   0.259E-03 -.872E-04 -.333E-03
   0.803E-04 0.820E+00 0.968E+02   -.853E-13 0.725E-12 -.468E-10   -.801E-04 -.819E+00 -.968E+02   -.300E-06 -.434E-04 -.149E-02

 POSITION                                       TOTAL-FORCE (eV/Angst)
      6.50198      7.22924     24.51651         0.000000     -0.006789      0.002214
      6.50198      8.39507     24.66960         0.000001      0.003042     -0.000026
      6.50198      6.06149     24.33332         0.000000      0.006368      0.006087
      9.75297      7.39395      8.77438        -0.000239      0.000046     -3.375790
      0.00000      8.87274      8.77438         0.000000      0.000110      2.809114
      0.00000      7.39395     12.02537         0.000000      0.000030      0.542058
      9.75297      8.87274     12.02537        -0.000850      0.000609     -0.705792
      9.75297      7.39395     15.27636        -0.004657     -0.000242      0.699181
      0.00000      8.87274     15.27636        -0.000000      0.002648     -0.761677
     13.00396      7.39410     18.45778         0.000000      0.000637     -0.002072
      9.75335      8.87343     18.65801         0.000089     -0.004172     -0.002164
      9.75282      7.39520     22.00260         0.003519     -0.000882     -0.001597
     13.00396      8.87333     21.63623        -0.000000     -0.001757      0.003689
      9.75297     10.35153      8.77438        -0.000290      0.000458     -3.375724
      0.00000      0.00000      8.77438         0.000000      0.000080      2.809004
      0.00000     10.35153     12.02537         0.000000      0.000226      0.542200
      9.75297      0.00000     12.02537        -0.001108      0.000422     -0.703724
      9.75297     10.35153     15.27636        -0.003456      0.015472      0.708768
      0.00000      0.00000     15.27636        -0.000000      0.002231     -0.760788
      0.00000     10.35167     18.45818         0.000000     -0.000974     -0.001429
      9.75264      0.00018     18.66127         0.002081      0.000465      0.001363
      9.75146     10.35141     22.01370        -0.001208      0.003374     -0.002068
     -0.00000     -0.00029     21.63664        -0.000000      0.004076      0.006128
      9.75297      1.47879      8.77438        -0.000303     -0.000070     -3.375606
      0.00000      2.95758      8.77438         0.000000     -0.000138      2.809030
      0.00000      1.47879     12.02537         0.000000     -0.000081      0.542258
      9.75297      2.95758     12.02537        -0.000970     -0.000628     -0.703711
      9.75297      1.47879     15.27636        -0.003838     -0.001070      0.718538
      0.00000      2.95758     15.27636        -0.000000     -0.002875     -0.761407
     13.00396      1.47861     18.45837         0.000000     -0.000361     -0.000250
      9.75331      2.95695     18.66114        -0.001066      0.003640      0.001882
      9.75212      1.47892     22.01333         0.000561      0.000978     -0.003458
      0.00000      2.95733     21.63661        -0.000000     -0.003522      0.006948
      9.75297      4.43637      8.77438        -0.000251     -0.000459     -3.375695
      0.00000      5.91516      8.77438         0.000000     -0.000088      2.809132
      0.00000      4.43637     12.02537         0.000000     -0.000210      0.542114
      9.75297      5.91516     12.02537        -0.000724     -0.000445     -0.705676
      9.75297      4.43637     15.27636        -0.004816     -0.014225      0.708599
      0.00000      5.91516     15.27636        -0.000000     -0.002057     -0.762413
      0.00000      4.43627     18.45784         0.000000      0.001006     -0.001342
      9.75374      5.91482     18.65836        -0.002197      0.000318     -0.001056
      9.75389      4.43735     22.01190        -0.001441     -0.002956     -0.002810
     -0.00000      5.91573     21.63581        -0.000000      0.002135      0.005518
      3.25099      7.39395      8.77438         0.000239      0.000046     -3.375790
      6.50198      8.87274      8.77438        -0.000000      0.000258      2.809969
      6.50198      7.39395     12.02537        -0.000000      0.001900      0.543951
      3.25099      8.87274     12.02537         0.000850      0.000609     -0.705792
      3.25099      7.39395     15.27636         0.004657     -0.000242      0.699181
      6.50198      8.87274     15.27636        -0.000000     -0.004276     -0.738254
      6.50198      7.39071     18.46686         0.000000      0.000794      0.000563
      3.25062      8.87343     18.65801        -0.000089     -0.004172     -0.002164
      3.25114      7.39520     22.00260        -0.003519     -0.000882     -0.001597
      6.50198      8.87955     21.63242        -0.000000      0.003385      0.000864
      3.25099     10.35153      8.77438         0.000290      0.000458     -3.375724
      6.50198      0.00000      8.77438        -0.000000      0.000134      2.810081
      6.50198     10.35153     12.02537        -0.000000      0.001874      0.545706
      3.25099      0.00000     12.02537         0.001108      0.000422     -0.703724
      3.25099     10.35153     15.27636         0.003456      0.015473      0.708768
      6.50198      0.00000     15.27636        -0.000000      0.002765     -0.769168
      6.50198     10.34936     18.45366         0.000000      0.000624      0.000956
[...]
      6.50198      5.91516     13.29975        -0.000000      0.000392     -0.106343
      4.52537      4.43637     12.02537         0.438890      0.000556      0.048741
      8.47859      4.43637     12.02537        -0.438890      0.000556      0.048741
      3.25099      5.91516     14.00198        -0.000952      0.002861     -0.114746
      3.25099      5.91516     16.55075         0.001548      0.001946      0.027100
      7.77636      4.43637     15.27636        -0.494064      0.007807      0.096343
      5.22760      4.43637     15.27636         0.494064      0.007807      0.096343
      6.50198      5.91539     17.27566        -0.000000      0.000476     -0.003081
      6.50198      5.91417     19.83576         0.000000      0.000846      0.005944
      4.55301      4.43624     18.55299        -0.002922      0.001359     -0.004558
      8.45095      4.43624     18.55299         0.002922      0.001359     -0.004558
      3.24308      5.91539     20.51917         0.000423      0.000870      0.003980
      3.26817      5.91895     23.09335        -0.003015      0.002743      0.003363
      7.72935      4.42735     21.93597        -0.001214      0.003542     -0.001030
      5.27461      4.42735     21.93597         0.001213      0.003542     -0.001030
    total drift:                               -0.000000      0.001803     -0.042214

  FREE ENERGIE OF THE ION-ELECTRON SYSTEM (eV)
  free  energy   TOTEN  =     -2148.76069673 eV

  energy  without entropy=    -2148.76069673  energy(sigma->0) =    -2148.76069673

 d Force = 0.1783563E-04[ 0.602E-06, 0.351E-04]  d Energy = 0.1937335E-04-0.154E-05
 d Force = 0.2115708E+01[ 0.212E+01, 0.212E+01]  d Ewald  = 0.2115709E+01-0.711E-06

 reached required accuracy - stopping structural energy minimisation