 vasp.6.4.1 05Apr23 (build Sep 19 2024 10:44:22) complex

 executed on             LinuxIFC date 2024.10.20  01:00:22

 INCAR:
   SYSTEM = TiO2
   ISMEAR = 0
   SIGMA = 0.05
   EDIFF = 1E-7
   ALGO = ALL
   ISTART = 0
   IBRION = 2
   NSW = 1000
   ISYM = 0
   ISIF = 2
   EDIFFG = -0.01
   DIPOL = 0.5 0.5 0.5
   IDIPOL = 3
   LDIPOL = .TRUE.
   GGA = PE
   IVDW = 21
   ENCUT = 600
   PREC = Accurate
   LASPH = .TRUE.
   LREAL = .FALSE.
   ISPIN = 1
   NELM = 200
   NELMIN = 8
   NCORE = 8
   KPAR = 1
   LWAVE = .FALSE.
   LCHARG = .FALSE.

 POTCAR:    PAW_PBE N 08Apr2002
 POTCAR:    PAW_PBE H 15Jun2001
 POTCAR:    PAW_PBE Ti_pv 07Sep2000
 POTCAR:    PAW_PBE O 08Apr2002
|           W    W    AA    RRRRR   N    N  II  N    N   GGGG   !!!           |
|           W    W   A  A   R    R  NN   N  II  NN   N  G    G  !!!           |
|           W    W  A    A  R    R  N N  N  II  N N  N  G       !!!           |
|           W WW W  AAAAAA  RRRRR   N  N N  II  N  N N  G  GGG   !            |
|           WW  WW  A    A  R   R   N   NN  II  N   NN  G    G                |
|           W    W  A    A  R    R  N    N  II  N    N   GGGG   !!!           |
|     For optimal performance we recommend to set                             |
|       NCORE = 2 up to number-of-cores-per-socket                            |
|     This setting can greatly improve the performance of VASP for DFT.       |
|     The default, NCORE=1 might be grossly inefficient on modern             |
|     multi-core architectures or massively parallel machines. Do your        |
|     Unfortunately you need to use the default for GW and RPA                |
|     calculations (for HF NCORE is supported but not extensively tested      |
|     yet).                                                                   |

   TITEL  = PAW_PBE N 08Apr2002
   POMASS =   14.001; ZVAL   =    5.000    mass and valenz
   ENMAX  =  400.000; ENMIN  =  300.000 eV

   TITEL  = PAW_PBE H 15Jun2001
   POMASS =    1.000; ZVAL   =    1.000    mass and valenz
   ENMAX  =  250.000; ENMIN  =  200.000 eV

   TITEL  = PAW_PBE Ti_pv 07Sep2000
   POMASS =   47.880; ZVAL   =   10.000    mass and valenz
   ENMAX  =  222.335; ENMIN  =  166.751 eV

   TITEL  = PAW_PBE O 08Apr2002
   POMASS =   16.000; ZVAL   =    6.000    mass and valenz
   ENMAX  =  400.000; ENMIN  =  300.000 eV

  PAW_PBE N 08Apr2002                   :
  PAW_PBE H 15Jun2001                   :
  PAW_PBE Ti_pv 07Sep2000               :
  PAW_PBE O 08Apr2002                   :

 POSCAR:  N  H Ti  O
  positions in direct lattice
 exchange correlation table for  LEXCH =        8
   RHO(1)=    0.500       N(1)  =     2000
   RHO(2)=  100.500       N(2)  =     4000

 ion  position               nearest neighbor table
   1  0.609  0.500  0.773-   2 1.02   4 1.02   3 1.02  52 2.30
   2  0.547  0.500  0.801-   1 1.02
   3  0.668  0.428  0.776-   1 1.02
   4  0.668  0.572  0.776-   1 1.02
   5  0.817  0.833  0.295-  55 1.94  89 1.94  57 1.94  56 2.00  54 2.00  22 3.07   6 3.07   8 3.07

   6  0.600  0.667  0.326-  58 1.94 120 1.94  53 1.94  56 1.94  59 2.00  57 2.00  37 3.07   5 3.07
                             7 3.07  11 3.10
   7  0.317  0.667  0.295-  59 1.94 125 1.94  61 1.94  60 2.00  53 2.00  40 3.07   8 3.07   6 3.07

   8  0.100  0.833  0.326-  62 1.94  92 1.94  54 1.94  60 1.94  55 2.00  61 2.00  23 3.07   7 3.07
                             5 3.07   9 3.10
   9  0.951  0.833  0.422-  63 1.93  65 1.94  97 1.94  55 1.98  64 1.99  62 2.01  12 3.02  10 3.07
                            26 3.07   8 3.10
  10  0.731  0.667  0.452-  58 1.90  64 1.94 128 1.94  66 1.97  67 1.99  65 2.01  11 3.02   9 3.07
                            41 3.07  15 3.12
  11  0.451  0.667  0.422-  67 1.93 133 1.94  69 1.94  59 1.98  68 1.99  58 2.01  10 3.02  12 3.07
                            44 3.07   6 3.10
  12  0.231  0.833  0.452-  62 1.90 100 1.94  68 1.94  70 1.97  63 1.99  69 2.01   9 3.02  27 3.07
                            11 3.07  13 3.12
  13  0.089  0.833  0.550-  73 1.93 105 1.93  71 1.94  72 1.99  63 2.00  70 2.01  16 2.98  14 3.07
                            30 3.07  12 3.12
  14  0.867  0.667  0.577-  66 1.87  72 1.94 136 1.94  75 1.95  74 2.00  73 2.03  15 2.98  13 3.07
                            45 3.07
  15  0.589  0.667  0.550- 141 1.93  77 1.93  75 1.94  76 1.99  67 2.00  66 2.01  14 2.98  16 3.07
                            48 3.07  10 3.12
  16  0.367  0.833  0.577-  70 1.87  76 1.94 108 1.94  71 1.95  78 2.00  77 2.03  13 2.98  15 3.07
                            31 3.07
  17  0.234  0.833  0.680-  79 1.86 113 1.93  81 1.93  80 2.01  71 2.09  78 2.11  20 2.87  34 3.09
                            18 3.09
  18  0.004  0.667  0.701-  74 1.79  82 1.83  80 1.98 144 1.98  81 2.06  19 2.87  49 3.09  17 3.09

[...]

  21  0.817  0.167  0.295-  87 1.94  89 1.94 121 1.94  88 2.00  86 2.00  22 3.07  38 3.07  24 3.07

[...]

  37  0.817  0.500  0.295- 119 1.94  57 1.94 121 1.94 120 2.00 118 2.00  38 3.07   6 3.07  40 3.07

  38  0.600  0.333  0.326- 122 1.94 120 1.94 117 1.94  88 1.94 123 2.00 121 2.00  37 3.07  21 3.07
                            39 3.07  43 3.10
  39  0.317  0.333  0.295- 123 1.94 125 1.94  93 1.94 124 2.00 117 2.00  40 3.07  24 3.07  38 3.07

  40  0.100  0.500  0.326- 126 1.94 124 1.94  60 1.94 118 1.94 119 2.00 125 2.00   7 3.07  39 3.07
                            37 3.07  41 3.10
  41  0.951  0.500  0.422- 127 1.93  65 1.94 129 1.94 119 1.98 128 1.99 126 2.01  44 3.02  42 3.07
                            10 3.07  40 3.10
  42  0.731  0.333  0.452- 122 1.90  96 1.94 128 1.94 130 1.97 131 1.99 129 2.01  43 3.02  41 3.07
                            25 3.07  47 3.12
  43  0.451  0.333  0.422- 131 1.93 133 1.94 101 1.94 123 1.98 132 1.99 122 2.01  42 3.02  28 3.07
                            44 3.07  38 3.10
  44  0.231  0.500  0.452- 126 1.90 132 1.94  68 1.94 134 1.97 127 1.99 133 2.01  41 3.02  11 3.07
                            43 3.07  45 3.12
  45  0.089  0.500  0.550- 137 1.93  73 1.93 135 1.94 136 1.99 127 2.00 134 2.01  48 2.98  46 3.07
                            14 3.07  44 3.12
  46  0.867  0.333  0.577- 130 1.87 136 1.94 104 1.94 139 1.95 138 2.00 137 2.03  47 2.98  45 3.07
                            29 3.07
  47  0.589  0.333  0.550- 141 1.93 109 1.93 139 1.94 140 1.99 131 2.00 130 2.01  46 2.98  32 3.07
                            48 3.07  42 3.12
  48  0.367  0.500  0.577- 134 1.87 140 1.94  76 1.94 135 1.95 142 2.00 141 2.03  45 2.98  47 3.07
                            15 3.07
  49  0.234  0.500  0.680- 143 1.86  81 1.93 145 1.93 144 2.01 135 2.09 142 2.11  52 2.87  18 3.09
                            50 3.09
  50  0.004  0.333  0.701- 138 1.79 146 1.83 144 1.98 112 1.98 145 2.06  51 2.87  33 3.09  49 3.09

  51  0.734  0.333  0.680- 146 1.86 116 1.93 148 1.93 147 2.01 139 2.09 138 2.11  50 2.87  36 3.09
                            52 3.09
  52  0.504  0.500  0.701- 142 1.79 143 1.83  83 1.98 147 1.98 148 2.06   1 2.30  49 2.87  19 3.09
                            51 3.09
  53  0.496  0.667  0.269-   6 1.94   7 2.00
  54  0.996  0.833  0.269-   8 1.94   5 2.00
  55  0.920  0.833  0.352-   5 1.94   9 1.98   8 2.00
  56  0.637  0.833  0.321-  22 1.94   6 1.94   5 2.00
  57  0.779  0.667  0.300-  37 1.94   5 1.94   6 2.00
  58  0.629  0.667  0.395-  10 1.90   6 1.94  11 2.01
  59  0.420  0.667  0.352-   7 1.94  11 1.98   6 2.00
  60  0.137  0.667  0.321-  40 1.94   8 1.94   7 2.00
  61  0.279  0.833  0.300-  23 1.94   7 1.94   8 2.00
  62  0.129  0.833  0.395-  12 1.90   8 1.94   9 2.01
  63  0.055  0.833  0.480-   9 1.93  12 1.99  13 2.00
  64  0.771  0.833  0.447-  10 1.94  26 1.94   9 1.99
  65  0.913  0.667  0.427-   9 1.94  41 1.94  10 2.01
  66  0.766  0.667  0.521-  14 1.87  10 1.97  15 2.01
  67  0.555  0.667  0.480-  11 1.93  10 1.99  15 2.00
  68  0.271  0.667  0.447-  12 1.94  44 1.94  11 1.99
  69  0.413  0.833  0.427-  27 1.94  11 1.94  12 2.01
  70  0.266  0.833  0.521-  16 1.87  12 1.97  13 2.01
  71  0.197  0.833  0.607-  13 1.94  16 1.95  17 2.09
  72  0.908  0.833  0.573-  30 1.94  14 1.94  13 1.99
  73  0.052  0.667  0.553-  13 1.93  45 1.93  14 2.03
  74  0.914  0.667  0.646-  18 1.79  14 2.00  19 2.11
  75  0.697  0.667  0.607-  15 1.94  14 1.95  19 2.09
  76  0.408  0.667  0.573-  16 1.94  48 1.94  15 1.99
  77  0.552  0.833  0.553-  15 1.93  31 1.93  16 2.03
  78  0.414  0.833  0.646-  20 1.79  16 2.00  17 2.11
  79  0.349  0.833  0.732-  20 1.83  17 1.86
  80  0.056  0.833  0.709-  34 1.98  18 1.98  17 2.01
  81  0.196  0.667  0.680-  49 1.93  17 1.93  18 2.06
  82  0.849  0.667  0.732-  18 1.83  19 1.86
  83  0.556  0.667  0.709-  20 1.98  52 1.98  19 2.01
  84  0.696  0.833  0.680-  35 1.93  19 1.93  20 2.06
  85  0.496  0.000  0.269-  22 1.94  23 2.00
  86  0.996  0.167  0.269-  24 1.94  21 2.00
  87  0.920  0.167  0.352-  21 1.94  25 1.98  24 2.00
  88  0.637  0.167  0.321-  22 1.94  38 1.94  21 2.00
  89  0.779  0.000  0.300-   5 1.94  21 1.94  22 2.00
  90  0.629  0.000  0.395-  26 1.90  22 1.94  27 2.01
  91  0.420  0.000  0.352-  23 1.94  27 1.98  22 2.00
  92  0.137  0.000  0.321-   8 1.94  24 1.94  23 2.00
  93  0.279  0.167  0.300-  23 1.94  39 1.94  24 2.00
  94  0.129  0.167  0.395-  28 1.90  24 1.94  25 2.01
  95  0.055  0.167  0.480-  25 1.93  28 1.99  29 2.00
  96  0.771  0.167  0.447-  42 1.94  26 1.94  25 1.99
  97  0.913  0.000  0.427-  25 1.94   9 1.94  26 2.01
  98  0.766  1.000  0.521-  30 1.87  26 1.97  31 2.01
  99  0.555  1.000  0.480-  27 1.93  26 1.99  31 2.00
 100  0.271  1.000  0.447-  12 1.94  28 1.94  27 1.99
 101  0.413  0.167  0.427-  27 1.94  43 1.94  28 2.01
 102  0.266  0.167  0.521-  32 1.87  28 1.97  29 2.01
 103  0.197  0.167  0.607-  29 1.94  32 1.95  33 2.09
 104  0.908  0.167  0.573-  30 1.94  46 1.94  29 1.99
 105  0.052  0.000  0.553-  13 1.93  29 1.93  30 2.03
 106  0.914  1.000  0.646-  34 1.79  30 2.00  35 2.11
 107  0.697  0.000  0.607-  31 1.94  30 1.95  35 2.09
 108  0.408  0.000  0.573-  16 1.94  32 1.94  31 1.99
 109  0.552  0.167  0.553-  31 1.93  47 1.93  32 2.03
 110  0.414  0.167  0.646-  36 1.79  32 2.00  33 2.11
 111  0.349  0.167  0.732-  36 1.83  33 1.86
 112  0.056  0.167  0.709-  50 1.98  34 1.98  33 2.01
[...]
 134  0.266  0.500  0.521-  48 1.87  44 1.97  45 2.01
 135  0.197  0.500  0.607-  45 1.94  48 1.95  49 2.09
 136  0.908  0.500  0.573-  46 1.94  14 1.94  45 1.99
 137  0.052  0.333  0.553-  29 1.93  45 1.93  46 2.03
 138  0.914  0.333  0.646-  50 1.79  46 2.00  51 2.11
 139  0.697  0.333  0.607-  47 1.94  46 1.95  51 2.09
 140  0.408  0.333  0.573-  32 1.94  48 1.94  47 1.99
 141  0.552  0.500  0.553-  47 1.93  15 1.93  48 2.03
 142  0.414  0.500  0.646-  52 1.79  48 2.00  49 2.11
 143  0.349  0.500  0.732-  52 1.83  49 1.86
 144  0.056  0.500  0.709-  50 1.98  18 1.98  49 2.01
 145  0.196  0.333  0.680-  33 1.93  49 1.93  50 2.06
 146  0.849  0.333  0.732-  50 1.83  51 1.86
 147  0.556  0.333  0.709-  36 1.98  52 1.98  51 2.01
 148  0.696  0.500  0.680-  19 1.93  51 1.93  52 2.06

IMPORTANT INFORMATION: All symmetrisations will be switched off!
NOSYMM: (Re-)initialisation of all symmetry stuff for point group C_1.

                                     Primitive cell

[...]
   O          49.602          3.873          9.629          1.78313351
   O          51.542          3.898          9.815          1.81767920
   O          51.254          3.894          9.788          1.81259035
   O          51.770          3.900          9.837          1.82169111
   O          36.339          3.677          8.242          1.52624885
   O          50.967          3.890          9.761          1.80750346
   O          52.950          3.915          9.949          1.84234112
   O          37.633          3.698          8.387          1.55316681
   O          49.420          3.870          9.611          1.77986048
   O          51.052          3.891          9.769          1.80901214

  Number of pair interactions contributing to vdW energy: 1742659
  Edisp (eV):  -18.05890

  FORCE on cell =-STRESS in cart. coord.  units (eV):
  Direction    XX          YY          ZZ          XY          YZ          ZX
  Alpha Z  2418.51080  2418.51080  2418.51080
  Ewald  481490.39829474786.32801************    -0.00033    -0.00003 -1854.65629
  Hartree502766.11096498657.53452************    -0.00018    -0.00004 -1247.87674
  E(xc)   -5176.50653 -5180.87930 -5187.53965    -0.00000     0.00000    -1.43077
  Local  ************************993116.21820     0.00050     0.00008  3102.49759
  n-local -3285.41348 -3253.79292 -3295.99744    -0.00000    -0.00000     2.59357
  augment  3134.55021  3130.51142  3122.21804     0.00000     0.00000    -0.43917
  Kinetic 17133.25862 17192.47137 17257.13149     0.00000    -0.00000    -9.84664
  Fock        0.00000     0.00000     0.00000     0.00000     0.00000     0.00000
  vdW       -19.73805   -26.23360   -21.46584    -0.00000     0.00000    -0.74917
  Total     -46.49433   -16.46349   -13.17882    -0.00001    -0.00000    -9.90761
  in kB     -22.61677    -8.00852    -6.41072    -0.00000    -0.00000    -4.81947

 VOLUME and BASIS-vectors are now :
  energy-cutoff  :      600.00
  volume of cell :     3293.67
      direct lattice vectors                 reciprocal lattice vectors
    10.375787277  0.000000000  0.000000000     0.096378229 -0.000000000  0.000000000
     0.000000000 11.367280081  0.000000000     0.000000000  0.087971792  0.000000000
     0.000000000  0.000000000 27.925590326     0.000000000  0.000000000  0.035809449

  length of vectors
    10.375787277 11.367280081 27.925590326     0.096378229  0.087971792  0.035809449

 FORCES acting on ions:
    Electron-Ion                     Ewald-Force                    Non-Local-Force
   -.161E+02 0.263E-04 -.174E+04   0.662E+01 -.191E-04 0.172E+04   0.949E+01 0.135E-05 0.179E+02
   0.431E+02 -.149E-05 -.368E+03   -.479E+02 0.169E-05 0.373E+03   0.481E+01 -.761E-06 -.552E+01
   -.423E+02 0.550E+02 -.351E+03   0.466E+02 -.609E+02 0.351E+03   -.435E+01 0.589E+01 -.372E+00
   -.423E+02 -.550E+02 -.351E+03   0.466E+02 0.609E+02 0.351E+03   -.435E+01 -.589E+01 -.372E+00
   0.444E+01 0.208E-02 0.334E+04   0.386E+00 -.354E-02 -.333E+04   -.104E+01 0.230E-03 -.338E+01
   0.503E+01 -.144E+00 0.274E+04   -.659E+01 0.144E+00 -.275E+04   -.100E+00 -.751E-03 -.435E-01
   0.448E+01 0.138E+00 0.334E+04   0.318E+00 -.145E+00 -.333E+04   -.104E+01 0.168E-02 -.338E+01
   0.381E+01 0.113E+00 0.274E+04   -.540E+01 -.122E+00 -.275E+04   -.931E-01 0.188E-02 -.482E-01
   -.782E+00 0.312E+00 0.125E+04   0.634E+00 -.311E+00 -.125E+04   0.161E+00 -.143E-02 0.267E-01
   0.851E+00 -.171E+01 0.793E+03   -.796E+00 0.170E+01 -.793E+03   -.453E-01 0.180E-01 -.146E+00
   0.952E+00 -.444E+00 0.125E+04   -.110E+01 0.445E+00 -.125E+04   0.156E+00 0.705E-02 0.904E-02
   -.420E+01 0.214E+00 0.787E+03   0.424E+01 -.215E+00 -.787E+03   -.254E-01 0.173E-02 -.154E+00
   -.600E+01 -.223E+01 -.773E+03   0.573E+01 0.222E+01 0.773E+03   0.303E+00 0.118E-01 0.138E+00
   -.973E+01 -.475E+01 -.116E+04   0.989E+01 0.477E+01 0.116E+04   -.102E+00 -.726E-02 -.272E+00
   0.335E+00 -.170E+01 -.750E+03   -.568E+00 0.170E+01 0.750E+03   0.266E+00 0.265E-02 0.103E+00
   -.184E+00 -.679E+00 -.118E+04   0.325E+00 0.701E+00 0.118E+04   -.104E+00 -.177E-01 -.319E+00
   0.267E+02 -.106E+02 -.276E+04   -.276E+02 0.106E+02 0.276E+04   0.967E+00 -.170E-02 -.129E+00
   -.841E+02 -.201E+02 -.314E+04   0.844E+02 0.200E+02 0.314E+04   -.568E-01 0.129E+00 0.694E+00
   -.115E+02 -.376E+02 -.268E+04   0.106E+02 0.377E+02 0.268E+04   0.891E+00 -.257E-01 0.391E-02
   -.591E+02 -.330E+02 -.313E+04   0.593E+02 0.329E+02 0.313E+04   -.195E-01 0.398E-01 0.710E+00
   0.444E+01 -.208E-02 0.334E+04   0.386E+00 0.353E-02 -.333E+04   -.104E+01 -.230E-03 -.338E+01
   0.505E+01 0.323E-05 0.274E+04   -.663E+01 -.336E-05 -.275E+04   -.948E-01 0.968E-07 -.482E-01
   0.436E+01 0.431E-05 0.334E+04   0.457E+00 -.466E-05 -.333E+04   -.104E+01 0.650E-07 -.338E+01
   0.381E+01 -.113E+00 0.274E+04   -.540E+01 0.122E+00 -.275E+04   -.931E-01 -.188E-02 -.482E-01
   -.782E+00 -.312E+00 0.125E+04   0.634E+00 0.311E+00 -.125E+04   0.161E+00 0.144E-02 0.267E-01
   -.127E+01 -.573E-05 0.791E+03   0.131E+01 0.700E-05 -.790E+03   -.144E-01 -.570E-06 -.158E+00
   0.943E+00 -.138E-04 0.125E+04   -.109E+01 0.133E-04 -.125E+04   0.155E+00 0.774E-07 0.127E-01
   -.420E+01 -.214E+00 0.787E+03   0.424E+01 0.215E+00 -.787E+03   -.254E-01 -.173E-02 -.154E+00
   -.600E+01 0.223E+01 -.773E+03   0.573E+01 -.222E+01 0.773E+03   0.303E+00 -.118E-01 0.138E+00
   -.941E+01 -.164E-04 -.118E+04   0.954E+01 0.171E-04 0.118E+04   -.776E-01 -.415E-06 -.277E+00
   -.449E+01 -.830E-04 -.765E+03   0.422E+01 0.846E-04 0.764E+03   0.313E+00 0.341E-06 0.179E+00
   -.183E+00 0.679E+00 -.118E+04   0.325E+00 -.701E+00 0.118E+04   -.104E+00 0.177E-01 -.319E+00
   0.267E+02 0.106E+02 -.276E+04   -.276E+02 -.106E+02 0.276E+04   0.967E+00 0.170E-02 -.129E+00
   -.736E+02 -.870E-04 -.315E+04   0.739E+02 0.874E-04 0.315E+04   -.920E-01 0.103E-05 0.712E+00
   0.105E+02 -.946E-04 -.275E+04   -.114E+02 0.975E-04 0.275E+04   0.904E+00 -.379E-06 -.802E-01
   -.591E+02 0.330E+02 -.313E+04   0.593E+02 -.329E+02 0.313E+04   -.195E-01 -.398E-01 0.710E+00
   0.443E+01 -.276E-05 0.334E+04   0.411E+00 0.292E-05 -.333E+04   -.104E+01 -.165E-06 -.338E+01
   0.503E+01 0.144E+00 0.274E+04   -.659E+01 -.144E+00 -.275E+04   -.100E+00 0.751E-03 -.435E-01
   0.448E+01 -.138E+00 0.334E+04   0.318E+00 0.145E+00 -.333E+04   -.104E+01 -.168E-02 -.338E+01
   0.294E+01 -.907E-05 0.274E+04   -.449E+01 0.968E-05 -.274E+04   -.107E+00 0.981E-07 -.503E-01
   0.156E+01 0.378E-04 0.125E+04   -.169E+01 -.392E-04 -.125E+04   0.139E+00 -.544E-06 0.611E-01
   0.851E+00 0.171E+01 0.793E+03   -.796E+00 -.170E+01 -.793E+03   -.453E-01 -.180E-01 -.146E+00
   0.952E+00 0.444E+00 0.125E+04   -.110E+01 -.445E+00 -.125E+04   0.156E+00 -.705E-02 0.904E-02
   -.776E+01 -.412E-04 0.769E+03   0.780E+01 0.449E-04 -.769E+03   -.258E-01 -.812E-06 -.633E-01
   -.196E+01 0.525E-05 -.775E+03   0.174E+01 -.368E-05 0.775E+03   0.221E+00 0.969E-07 0.161E+00
   -.973E+01 0.475E+01 -.116E+04   0.989E+01 -.477E+01 0.116E+04   -.102E+00 0.726E-02 -.272E+00
   0.335E+00 0.170E+01 -.750E+03   -.568E+00 -.170E+01 0.750E+03   0.266E+00 -.265E-02 0.103E+00
   -.795E+00 0.131E-04 -.122E+04   0.906E+00 -.150E-04 0.122E+04   -.851E-01 0.760E-06 -.201E+00
   0.460E+02 0.172E-04 -.276E+04   -.467E+02 -.167E-04 0.276E+04   0.677E+00 0.327E-06 0.351E-02
   -.841E+02 0.201E+02 -.314E+04   0.844E+02 -.200E+02 0.314E+04   -.568E-01 -.129E+00 0.694E+00
   -.115E+02 0.376E+02 -.268E+04   0.106E+02 -.377E+02 0.268E+04   0.891E+00 0.257E-01 0.391E-02
   0.118E+02 0.632E-04 -.309E+04   -.112E+02 -.637E-04 0.309E+04   -.552E+00 -.174E-06 -.366E+00
   -.313E+02 -.235E-01 0.225E+04   0.360E+02 0.229E-01 -.227E+04   -.646E+01 0.906E-03 0.170E+02
   -.316E+02 -.123E-01 0.225E+04   0.363E+02 0.985E-02 -.227E+04   -.646E+01 0.313E-02 0.170E+02
   0.795E+02 0.137E+00 0.137E+04   -.839E+02 -.137E+00 -.137E+04   0.339E+01 -.213E-02 -.415E+01
   0.728E+02 0.100E-01 0.167E+04   -.794E+02 -.977E-02 -.167E+04   0.694E+01 -.162E-03 -.248E+01
   -.844E+02 -.352E-01 0.192E+04   0.912E+02 0.325E-01 -.192E+04   -.642E+01 0.582E-02 -.348E+00
   -.676E+02 -.870E+00 0.105E+04   0.728E+02 0.925E+00 -.105E+04   -.533E+01 -.517E-01 0.401E+01
   0.802E+02 0.188E-01 0.137E+04   -.846E+02 0.350E-02 -.137E+04   0.338E+01 -.237E-01 -.403E+01
   0.720E+02 0.128E+00 0.167E+04   -.786E+02 -.138E+00 -.167E+04   0.695E+01 0.237E-01 -.250E+01
[...]
   0.867E+02 0.335E-04 -.107E+04   -.933E+02 -.355E-04 0.107E+04   0.663E+01 0.199E-05 -.718E+01
   0.686E+02 0.690E-04 -.702E+03   -.742E+02 -.766E-04 0.704E+03   0.556E+01 0.706E-05 -.269E+01
   -.798E+02 0.525E+00 -.458E+03   0.857E+02 -.527E+00 0.456E+03   -.595E+01 0.623E-02 0.251E+01
   -.643E+02 0.942E+01 -.127E+04   0.662E+02 -.972E+01 0.126E+04   -.197E+01 0.301E+00 0.935E+01
   0.800E+02 0.882E+01 -.103E+04   -.861E+02 -.911E+01 0.104E+04   0.610E+01 0.300E+00 -.549E+01
   0.783E+02 0.440E+00 -.716E+03   -.843E+02 -.442E+00 0.719E+03   0.605E+01 0.546E-02 -.291E+01
   -.711E+02 0.676E-04 -.464E+03   0.767E+02 -.722E-04 0.461E+03   -.563E+01 0.315E-05 0.211E+01
   -.599E+02 -.546E-04 -.130E+04   0.653E+02 0.605E-04 0.129E+04   -.538E+01 -.611E-05 0.572E+01
   0.107E+03 0.173E-04 -.224E+04   -.112E+03 -.176E-04 0.226E+04   0.566E+01 0.464E-06 -.201E+02
   0.453E+02 0.189E-04 -.199E+04   -.486E+02 -.177E-04 0.200E+04   0.327E+01 -.166E-05 -.739E+01
   -.486E+02 0.653E+01 -.164E+04   0.533E+02 -.639E+01 0.164E+04   -.463E+01 -.152E+00 0.275E+01
   0.130E+02 0.291E+02 -.224E+04   -.182E+02 -.290E+02 0.226E+04   0.524E+01 -.786E-01 -.195E+02
   0.755E+02 0.450E+02 -.193E+04   -.801E+02 -.446E+02 0.193E+04   0.466E+01 -.386E+00 -.629E+01
   -.674E+02 0.913E-04 -.155E+04   0.715E+02 -.967E-04 0.155E+04   -.407E+01 0.296E-05 0.422E+01
   -.157E+02 -.679E-04 0.569E+02   0.398E-12 -.789E-12 -.978E-11   0.157E+02 0.624E-04 -.569E+02

 POSITION                                       TOTAL-FORCE (eV/Angst)
      6.33003      5.68364     21.74495        -0.001479      0.000009      0.005278
      5.67738      5.68364     22.52981        -0.006062     -0.000001      0.003047
      6.93707      4.86276     21.82114        -0.007289      0.002281      0.004247
      6.93707      6.50452     21.82114        -0.007294     -0.002289      0.004245
      8.47263      9.47273      8.23077         3.818363     -0.001216      1.761724
      6.22461      7.57819      9.11262        -1.658374     -0.000783     -1.902818
      3.28474      7.57819      8.23077         3.792009     -0.004898      1.749153
      1.03672      9.47273      9.11262        -1.684517     -0.007279     -1.908194
      9.86522      9.47302     11.79680         0.001840      0.000481      0.000408
      7.59580      7.57333     12.59938        -0.004080      0.000638     -0.002884
      4.67286      7.57504     11.79370         0.001456      0.003852      0.001225
      2.40031      9.47210     12.60734        -0.001276      0.000703     -0.001243
      0.92798      9.47413     15.35948        -0.000480      0.001083      0.000557
      9.01014      7.57142     16.07014         0.000413      0.003341      0.001452
      6.10478      7.57526     15.34087         0.004190     -0.000162     -0.001292
      3.81124      9.47274     16.09319        -0.004614      0.005324      0.002729
      2.41577      9.46546     18.99567        -0.000613      0.003431      0.003630
      0.02566      7.56682     19.54672        -0.000489     -0.000833      0.005325
      7.58948      7.57768     18.92663        -0.000917      0.002186      0.001596
      5.23314      9.48924     19.54119         0.004241      0.002743      0.000961
      8.47263      1.89455      8.23077         3.818363      0.001216      1.761724
      6.22461      0.00000      9.11262        -1.674035      0.000000     -1.908064
      3.28474      0.00000      8.23077         3.810409     -0.000000      1.756944
      1.03672      1.89455      9.11262        -1.684517      0.007278     -1.908194
      9.86522      1.89426     11.79680         0.001839     -0.000481      0.000409
      7.59203     -0.00000     12.60062         0.000356      0.000001      0.009414
      4.67487      0.00000     11.79655        -0.002964     -0.000000      0.002460
      2.40031      1.89518     12.60734        -0.001275     -0.000707     -0.001242
      0.92798      1.89315     15.35948        -0.000481     -0.001085      0.000561
      8.99801     -0.00000     16.08327        -0.002836      0.000000     -0.001280
      6.11066      0.00000     15.34938         0.007770      0.000002      0.000149
      3.81124      1.89454     16.09319        -0.004616     -0.005324      0.002721
      2.41577      1.90182     18.99567        -0.000610     -0.003430      0.003633
      0.04758     -0.00000     19.54927        -0.007878      0.000001     -0.004703
      7.62059     -0.00000     18.98199         0.004848      0.000002     -0.001155
      5.23314      1.87804     19.54119         0.004238     -0.002741      0.000957
      8.47263      5.68364      8.23077         3.834335      0.000000      1.760951
      6.22461      3.78909      9.11262        -1.658373      0.000783     -1.902819
      3.28474      3.78909      8.23077         3.792009      0.004899      1.749152
      1.03672      5.68364      9.11262        -1.657840      0.000001     -1.835371
      9.88082      5.68364     11.79252         0.001612     -0.000002     -0.003976
      7.59580      3.79395     12.59938        -0.004080     -0.000636     -0.002881
      4.67286      3.79224     11.79370         0.001461     -0.003853      0.001228
      2.40305      5.68364     12.63797        -0.000671      0.000003     -0.001961
      0.95908      5.68364     15.36696        -0.001822      0.000002      0.001544
      9.01014      3.79586     16.07014         0.000415     -0.003339      0.001455
      6.10478      3.79202     15.34087         0.004188      0.000162     -0.001291
      3.82886      5.68364     16.18439         0.002239     -0.000001     -0.003727
      2.45275      5.68364     19.01664        -0.001036      0.000001      0.007730
      0.02566      3.80046     19.54672        -0.000487      0.000833      0.005324
      7.58948      3.78960     18.92663        -0.000919     -0.002191      0.001597
      5.26577      5.68364     19.71127         0.002106     -0.000001      0.002169
      5.14763      7.57819      7.50000        -1.774387      0.000329      0.991775
     10.33552      9.47273      7.50000        -1.771470      0.000722      0.988471
      9.54962      9.47273      9.84340        -0.998323     -0.002093     -0.152099
      6.60974      9.47273      8.96155         0.379175      0.000100     -0.066767
      8.08751      7.57819      8.38185         0.294834      0.003148     -1.081464
      6.53135      7.57819     11.02740        -0.076697      0.003700      0.406058
      4.36172      7.57819      9.84340        -1.002915     -0.001402     -0.140627
      1.42184      7.57819      8.96155         0.389359      0.013968     -0.075206
[...]
      2.77710      5.68364     14.57042         0.001956     -0.000000      0.004293
      2.03774      5.68364     16.95831         0.001291     -0.000000      0.000646
      9.42509      5.68364     15.99589        -0.000577     -0.000001      0.000209
      0.55387      3.79065     15.44966        -0.000284      0.004479      0.002716
      9.48826      3.78520     18.01648         0.000039      0.001634     -0.000900
      7.24199      3.77664     16.91541         0.000367      0.002554     -0.004369
      4.24140      3.79006     16.03132         0.000533      0.003787      0.001420
      5.73667      5.68364     15.47342        -0.003204     -0.000001      0.000736
      4.28490      5.68364     18.10490        -0.001240     -0.000000     -0.003798
      3.59687      5.68364     20.48714         0.001727      0.000000     -0.000472
      0.56004      5.68364     19.78519        -0.005944     -0.000000      0.005455
      2.02659      3.79293     19.02130         0.000295     -0.004227      0.001738
      8.77064      3.81756     20.40168         0.003272     -0.000750      0.001520
      5.76274      3.75938     19.74297        -0.004290      0.007424      0.002386
      7.19385      5.68364     18.93786        -0.002977     -0.000002      0.003392
    total drift:                               -0.010348     -0.000006      0.007113

  FREE ENERGIE OF THE ION-ELECTRON SYSTEM (eV)
  free  energy   TOTEN  =     -1314.24023237 eV

  energy  without entropy=    -1314.24023237  energy(sigma->0) =    -1314.24023237

 d Force = 0.8707142E-05[ 0.512E-05, 0.123E-04]  d Energy = 0.1475213E-04-0.604E-05
 d Force = 0.2204935E+01[ 0.220E+01, 0.220E+01]  d Ewald  = 0.2204935E+01 0.873E-09

 reached required accuracy - stopping structural energy minimisation