 vasp.6.4.2 20Jul23 (build Feb 22 2024 13:53:45) complex
 executed on              LinuxNV date 2024.08.27  18:29:52
 OpenACC runtime initialized ...    4 GPUs detected

 INCAR:
   SYSTEM = Oxide-Surface
   ISMEAR = 0
   SIGMA = 0.05
   EDIFF = 1E-5
   ALGO = Normal
   IBRION = -1
   NSW = 0
   ISYM = 0
   DIPOL = 0.5 0.5 0.5
   IDIPOL = 3
   LDIPOL = .TRUE.
   ISTART = 1
   LHFCALC = .TRUE.
   HFSCREEN = 0.2
   GGA = PE
   HFRCUT = -1
   ENCUT = 520
   PREC = Normal
   PRECFOCK = Normal
   LASPH = .TRUE.
   LREAL = Auto
   ISPIN = 1
   NELM = 200
   NELMIN = 8
   NCORE = 1
   KPAR = 1
   LWAVE = .FALSE.
   LCHARG = .FALSE.

 POTCAR:    PAW_PBE C 08Apr2002
 POTCAR:    PAW_PBE O 08Apr2002
 POTCAR:    PAW_PBE Mg_pv 13Apr2007
 POTCAR:    PAW_PBE O 08Apr2002
 POTCAR:    PAW_PBE C 08Apr2002
   VRHFIN =C: s2p2

   TITEL  = PAW_PBE C 08Apr2002
   POMASS =   12.011; ZVAL   =    4.000    mass and valenz
   ENMAX  =  400.000; ENMIN  =  300.000 eV

[...]

   TITEL  = PAW_PBE Mg_pv 13Apr2007
   POMASS =   24.305; ZVAL   =    8.000    mass and valenz
   ENMAX  =  403.929; ENMIN  =  302.947 eV

   TITEL  = PAW_PBE O 08Apr2002
   POMASS =   16.000; ZVAL   =    6.000    mass and valenz
   ENMAX  =  400.000; ENMIN  =  300.000 eV

 Optimization of the real space projectors (new method)

 maximal supplied QI-value         = 25.13
 optimisation between [QCUT,QGAM] = [ 11.56, 23.12] = [ 37.43,149.72] Ry
 Optimized for a Real-space Cutoff    1.04 Angstroem

   l    n(q)    QCUT    max X(q) W(low)/X(q) W(high)/X(q)  e(spline)
   0      7    11.561   115.676    0.20E-03    0.60E-03    0.21E-06
   0      7    11.561    87.132    0.20E-03    0.59E-03    0.21E-06
   1      7    11.561     4.429    0.23E-03    0.35E-03    0.15E-06
   1      7    11.561     2.733    0.18E-03    0.25E-03    0.12E-06
 Optimization of the real space projectors (new method)

[...]

   l    n(q)    QCUT    max X(q) W(low)/X(q) W(high)/X(q)  e(spline)
   1      8    11.527     2.974    0.16E-03    0.13E-03    0.98E-07
   1      8    11.527     4.279    0.42E-03    0.30E-03    0.22E-06
   0      8    11.527    16.381    0.13E-03    0.20E-03    0.72E-07
   0      8    11.527     5.611    0.88E-04    0.13E-03    0.50E-07
   2      7    11.527     4.652    0.25E-03    0.73E-04    0.51E-07
 Optimization of the real space projectors (new method)

 maximal supplied QI-value         = 24.76
 optimisation between [QCUT,QGAM] = [ 11.64, 23.27] = [ 37.91,151.63] Ry
 Optimized for a Real-space Cutoff    1.04 Angstroem

   l    n(q)    QCUT    max X(q) W(low)/X(q) W(high)/X(q)  e(spline)
   0      7    11.635    20.381    0.14E-03    0.49E-03    0.18E-06
   0      7    11.635    15.268    0.16E-03    0.52E-03    0.19E-06
   1      7    11.635     5.964    0.30E-03    0.44E-03    0.22E-06
   1      7    11.635     5.382    0.27E-03    0.34E-03    0.19E-06
  PAW_PBE C 08Apr2002                   :
  PAW_PBE O 08Apr2002                   :
  PAW_PBE Mg_pv 13Apr2007               :
  PAW_PBE O 08Apr2002                   :

 POSCAR:  C  O Mg  O
  positions in direct lattice
 exchange correlation table for  LEXCH =        8
   RHO(1)=    0.500       N(1)  =     2000
   RHO(2)=  100.500       N(2)  =     4000

 ion  position               nearest neighbor table
   1  0.500  0.750  0.719-   3 1.26   2 1.26  56 1.47
   2  0.500  0.887  0.748-   1 1.26  26 2.17
   3  0.500  0.613  0.748-   1 1.26  34 2.17
   4  0.000  0.750  0.252-  36 2.11  38 2.11  39 2.11  46 2.11  55 2.11
   5  0.250  0.000  0.252-  37 2.11  38 2.11  39 2.11  47 2.11  54 2.11
   6  0.000  0.000  0.376-  42 2.11  38 2.11  36 2.11  37 2.11  44 2.11  53 2.11
   7  0.250  0.750  0.376-  39 2.11  37 2.11  36 2.11  45 2.11  52 2.11  43 2.13
   8  1.000  0.750  0.499-  36 2.10  50 2.11  42 2.11  59 2.13  43 2.13  40 2.14
   9  0.252  0.001  0.502-  58 2.09  51 2.10  41 2.11  43 2.12  42 2.13  37 2.14
  10  0.000  0.003  0.624-  48 2.09  41 2.10  57 2.10  42 2.12  40 2.13
  11  0.237  0.750  0.623-  40 2.00  43 2.08  49 2.10  41 2.10  56 2.22
  12  0.000  0.250  0.252-  44 2.11  38 2.11  46 2.11  47 2.11  63 2.11
  13  0.250  0.500  0.252-  45 2.11  39 2.11  46 2.11  47 2.11  62 2.11
  14  0.000  0.500  0.376-  50 2.11  46 2.11  45 2.11  36 2.11  44 2.11  61 2.11
  15  0.250  0.250  0.376-  47 2.11  44 2.11  45 2.11  37 2.11  60 2.11  51 2.12
  16  0.000  0.250  0.500-  44 2.11  51 2.11  67 2.11  50 2.11  42 2.11  48 2.14
  17  0.252  0.500  0.502-  66 2.09  51 2.10  49 2.11  43 2.12  50 2.13  45 2.14
  18  0.000  0.498  0.624-  48 2.09  49 2.10  65 2.10  50 2.12  40 2.13
  19  0.248  0.250  0.625-  48 2.09  51 2.11  49 2.12  41 2.12  64 2.13
  20  0.500  0.750  0.252-  52 2.11  39 2.11  54 2.11  55 2.11  62 2.11
  21  0.750  0.000  0.252-  53 2.11  38 2.11  54 2.11  55 2.11  63 2.11
  22  0.500  0.000  0.376-  54 2.11  52 2.11  53 2.11  37 2.11  60 2.11  58 2.15
  23  0.750  0.750  0.376-  55 2.11  52 2.11  53 2.11  36 2.11  61 2.11  59 2.13
  24  0.500  0.750  0.498-  52 2.07  59 2.09  43 2.09  66 2.09  58 2.09
  25  0.748  0.001  0.502-  58 2.09  67 2.10  57 2.11  59 2.12  42 2.13  53 2.14
  26  0.500  0.011  0.636-  64 2.02  41 2.14  57 2.14   2 2.17  56 2.21
  27  0.763  0.750  0.623-  40 2.00  59 2.08  65 2.10  57 2.10  56 2.22
  28  0.500  0.250  0.252-  60 2.11  54 2.11  47 2.11  62 2.11  63 2.11
  29  0.750  0.500  0.252-  61 2.11  55 2.11  46 2.11  62 2.11  63 2.11
  30  0.500  0.500  0.376-  62 2.11  52 2.11  60 2.11  61 2.11  45 2.11  66 2.15
  31  0.750  0.250  0.376-  63 2.11  53 2.11  60 2.11  61 2.11  44 2.11  67 2.12
  32  0.500  0.250  0.502-  51 2.11  67 2.11  66 2.13  58 2.13  64 2.14  60 2.15
  33  0.748  0.500  0.502-  66 2.09  67 2.10  65 2.11  59 2.12  50 2.13  61 2.14
  34  0.500  0.489  0.636-  64 2.02  49 2.14  65 2.14   3 2.17  56 2.21
  35  0.752  0.250  0.625-  48 2.09  67 2.11  65 2.12  57 2.12  64 2.13
  36  0.000  0.750  0.376-   8 2.10   4 2.11   7 2.11   6 2.11  14 2.11  23 2.11
  37  0.250  0.000  0.376-   5 2.11   6 2.11   7 2.11  15 2.11  22 2.11   9 2.14
  38  0.000  0.000  0.252-   6 2.11   5 2.11   4 2.11  12 2.11  21 2.11
  39  0.250  0.750  0.252-   7 2.11   5 2.11   4 2.11  13 2.11  20 2.11
  40  0.000  0.750  0.626-  11 2.00  27 2.00  10 2.13  18 2.13   8 2.14
  41  0.248  0.999  0.626-  10 2.10  11 2.10   9 2.11  19 2.12  26 2.14
  42  0.000  1.000  0.500-   8 2.11   6 2.11  16 2.11  10 2.12   9 2.13  25 2.13
  43  0.252  0.750  0.501-  11 2.08  24 2.09   9 2.12  17 2.12   7 2.13   8 2.13
  44  0.000  0.250  0.376-  12 2.11   6 2.11  14 2.11  15 2.11  31 2.11  16 2.11
  45  0.250  0.500  0.376-  13 2.11   7 2.11  14 2.11  15 2.11  30 2.11  17 2.14
  46  0.000  0.500  0.252-  14 2.11  12 2.11  13 2.11   4 2.11  29 2.11
  47  0.250  0.250  0.252-  15 2.11  12 2.11  13 2.11   5 2.11  28 2.11
  48  0.000  0.250  0.626-  19 2.09  35 2.09  10 2.09  18 2.09  16 2.14
  49  0.248  0.502  0.626-  18 2.10  11 2.10  17 2.11  19 2.12  34 2.14
  50  0.000  0.501  0.500-   8 2.11  14 2.11  16 2.11  18 2.12  17 2.13  33 2.13
  51  0.251  0.250  0.501-   9 2.10  17 2.10  32 2.11  19 2.11  16 2.11  15 2.12
  52  0.500  0.750  0.376-  24 2.07  20 2.11  22 2.11  23 2.11   7 2.11  30 2.11
  53  0.750  0.000  0.376-  21 2.11   6 2.11  22 2.11  23 2.11  31 2.11  25 2.14
  54  0.500  0.000  0.252-  22 2.11  20 2.11  21 2.11   5 2.11  28 2.11
  55  0.750  0.750  0.252-  23 2.11  20 2.11  21 2.11   4 2.11  29 2.11
  56  0.500  0.750  0.633-   1 1.47  26 2.21  34 2.21  11 2.22  27 2.22
  57  0.752  0.999  0.626-  10 2.10  27 2.10  25 2.11  35 2.12  26 2.14
  58  0.500  0.998  0.502-  24 2.09   9 2.09  25 2.09  32 2.13  22 2.15
  59  0.748  0.750  0.501-  27 2.08  24 2.09  25 2.12  33 2.12  23 2.13   8 2.13
  60  0.500  0.250  0.376-  28 2.11  22 2.11  15 2.11  30 2.11  31 2.11  32 2.15
  61  0.750  0.500  0.376-  29 2.11  23 2.11  14 2.11  30 2.11  31 2.11  33 2.14
  62  0.500  0.500  0.252-  30 2.11  20 2.11  28 2.11  29 2.11  13 2.11
  63  0.750  0.250  0.252-  31 2.11  21 2.11  28 2.11  29 2.11  12 2.11
  64  0.500  0.250  0.628-  26 2.02  34 2.02  35 2.13  19 2.13  32 2.14
  65  0.752  0.502  0.626-  18 2.10  27 2.10  33 2.11  35 2.12  34 2.14
  66  0.500  0.503  0.502-  24 2.09  17 2.09  33 2.09  32 2.13  30 2.15
  67  0.749  0.250  0.501-  25 2.10  33 2.10  32 2.11  35 2.11  16 2.11  31 2.12

IMPORTANT INFORMATION: All symmetrisations will be switched off!
NOSYMM: (Re-)initialisation of all symmetry stuff for point group C_1.

                                     Primitive cell

  volume of cell :    1211.2538

  direct lattice vectors                    reciprocal lattice vectors
     8.440984654  0.000000000  0.000000000     0.118469591  0.000000000  0.000000000
     0.000000000  8.440984654  0.000000000     0.000000000  0.118469591  0.000000000
     0.000000000  0.000000000 17.000000000     0.000000000  0.000000000  0.058823529

  length of vectors
     8.440984654  8.440984654 17.000000000     0.118469591  0.118469591  0.058823529

  position of ions in fractional coordinates (direct lattice)
     0.500000012  0.750264058  0.719050453
     0.500000066  0.887195294  0.748143164
     0.500000015  0.613356952  0.748141716
     0.000000012  0.750271483  0.251856836
     0.250000012  0.000271483  0.251856836
     0.000000012  0.000271483  0.375988963
     0.250000012  0.750271483  0.375988963
     0.999999988  0.750271429  0.499368462
     0.252039891  0.001028111  0.501782346
     0.000000034  0.002582678  0.624444171
     0.237174200  0.750271417  0.622958809
     0.000000012  0.250271483  0.251856836
     0.250000012  0.500271483  0.251856836
     0.000000012  0.500271483  0.375988963
     0.250000012  0.250271483  0.375988963
     0.000000025  0.250271481  0.500321386
     0.252039913  0.499514860  0.501782439
     0.000000033  0.497960304  0.624444240
     0.247666331  0.250271551  0.624926941
     0.500000012  0.750271483  0.251856836
     0.750000012  0.000271483  0.251856836
     0.500000012  0.000271483  0.375988963
     0.750000012  0.750271483  0.375988963
     0.500000031  0.750271498  0.497974947
     0.747960134  0.001028090  0.501782397
     0.500000002  0.011479476  0.636458488
     0.762825859  0.750271422  0.622958927
     0.500000012  0.250271483  0.251856836
     0.750000012  0.500271483  0.251856836
     0.500000012  0.500271483  0.375988963
     0.750000012  0.250271483  0.375988963
     0.500000005  0.250271518  0.502223723
     0.747960113  0.499514886  0.501782491
     0.500000001  0.489064058  0.636458884
     0.752333702  0.250271549  0.624926893
     0.000000012  0.750271483  0.375988963
     0.250000012  0.000271483  0.375988963
     0.000000012  0.000271483  0.251856836
     0.250000012  0.750271483  0.251856836
     0.000000034  0.750271519  0.625525054
     0.248158668  0.998774097  0.625931889
     0.000000015  0.999728517  0.499971061
     0.252314560  0.750271518  0.501128046
     0.000000012  0.250271483  0.375988963
     0.250000012  0.500271483  0.375988963
     0.000000012  0.500271483  0.251856836
     0.250000012  0.250271483  0.251856836
     0.000000017  0.250271467  0.626441503
     0.248158646  0.501768877  0.625931815
     0.000000014  0.500814411  0.499971054
     0.250533599  0.250271460  0.500674415
[...]
   4.22049243  6.33303007  6.39181237
   6.33073860  0.00229158  6.39181237
   4.22049243  0.00229158  4.28156621
   6.33073860  6.33303007  4.28156621
   4.22049209  6.33303698 10.75435346
   6.34628149  8.43063666 10.64084222
   4.22049239  8.42386055  8.53684259
   6.31120156  6.33303037  8.51917757
   4.22049243  2.11253775  6.39181237
   6.33073860  4.22278391  6.39181237
   4.22049243  4.22278391  4.28156621
   6.33073860  2.11253775  4.28156621
   4.22049249  2.11253705 10.68203623
   6.34628164  4.23542359 10.64084111
   4.22049240  4.24220002  8.53684248
   6.32623466  2.11253754  8.51146535

--------------------------------------- Iteration      FINAL  ---------------------------------------

--------------------OUTCAR has been truncated-------------------------

[...]

--------------------OUTCAR has been truncated-------------------------

 VOLUME and BASIS-vectors are now :
  energy-cutoff  :      520.00
  volume of cell :     1211.25
      direct lattice vectors                 reciprocal lattice vectors
     8.440984654  0.000000000  0.000000000     0.118469591  0.000000000  0.000000000
     0.000000000  8.440984654  0.000000000     0.000000000  0.118469591  0.000000000
     0.000000000  0.000000000 17.000000000     0.000000000  0.000000000  0.058823529

  length of vectors
     8.440984654  8.440984654 17.000000000     0.118469591  0.118469591  0.058823529

 FORCES acting on ions
    electron-ion (+dipol)            ewald-force                    non-local-force                 convergence-correction
   0.105E-03 -.474E-01 -.842E+03   -.106E-03 0.576E-01 0.845E+03   0.119E-05 0.332E-02 -.273E+01   0.165E-07 0.143E-06 0.871E-02
   -.602E-04 -.222E+03 -.137E+04   0.793E-04 0.265E+03 0.139E+04   -.165E-04 -.386E+02 -.247E+02   0.325E-07 0.141E-03 0.148E-01
   0.430E-04 0.222E+03 -.137E+04   -.423E-04 -.265E+03 0.139E+04   -.368E-06 0.386E+02 -.247E+02   0.281E-07 -.141E-03 0.148E-01
   0.139E-04 -.188E-03 0.172E+04   -.146E-04 -.230E-04 -.172E+04   0.509E-06 0.125E-02 -.677E+01   -.573E-07 0.192E-06 -.176E-01
   0.554E+00 -.112E+01 0.172E+04   -.547E+00 0.116E+01 -.172E+04   -.489E-02 -.214E-01 -.688E+01   -.225E-04 0.129E-04 -.176E-01
   0.649E-04 -.259E+01 0.609E+03   -.683E-04 0.274E+01 -.609E+03   0.213E-05 -.992E-01 0.145E+00   -.597E-07 -.114E-04 -.135E-01
   0.276E+01 -.784E-04 0.610E+03   -.281E+01 -.109E-03 -.611E+03   0.236E-01 0.451E-03 0.755E+00   0.153E-04 0.117E-06 -.134E-01
   0.263E-04 -.131E-03 -.476E+03   -.331E-04 0.321E-04 0.476E+03   0.616E-05 -.101E-03 0.101E+00   -.155E-07 0.762E-07 -.363E-02
   0.571E+01 -.860E+01 -.491E+03   -.511E+01 0.884E+01 0.492E+03   -.532E+00 -.204E+00 -.114E+01   0.635E-04 -.596E-04 -.335E-02
   0.436E-05 -.183E+02 -.164E+04   0.911E-06 0.191E+02 0.163E+04   -.455E-05 -.700E+00 0.586E+01   0.839E-09 0.120E-04 0.894E-02
   0.493E+02 -.535E-03 -.155E+04   -.553E+02 0.842E-03 0.154E+04   0.521E+01 0.206E-02 0.656E+01   0.333E-03 0.527E-07 0.869E-02
   0.141E-04 -.247E-03 0.172E+04   -.147E-04 0.235E-04 -.172E+04   0.479E-06 0.127E-02 -.687E+01   -.657E-07 -.571E-07 -.177E-01
   0.554E+00 0.112E+01 0.172E+04   -.547E+00 -.116E+01 -.172E+04   -.489E-02 0.239E-01 -.688E+01   -.226E-04 -.129E-04 -.176E-01
   0.667E-04 0.258E+01 0.609E+03   -.703E-04 -.274E+01 -.609E+03   0.223E-05 0.100E+00 0.145E+00   -.560E-07 0.112E-04 -.135E-01
   -.940E+00 -.330E-03 0.606E+03   0.102E+01 0.113E-03 -.607E+03   -.517E-01 0.450E-03 0.416E+00   0.125E-04 -.989E-07 -.134E-01
   0.459E-04 -.307E-03 -.498E+03   -.442E-04 0.240E-04 0.498E+03   -.203E-05 -.455E-03 -.134E+00   -.784E-07 -.617E-06 -.353E-02
   0.571E+01 0.860E+01 -.491E+03   -.511E+01 -.884E+01 0.492E+03   -.532E+00 0.207E+00 -.114E+01   0.638E-04 0.596E-04 -.335E-02
   0.164E-04 0.183E+02 -.164E+04   -.106E-04 -.191E+02 0.163E+04   -.504E-05 0.701E+00 0.586E+01   -.140E-07 -.119E-04 0.894E-02
   0.293E+02 -.700E-03 -.163E+04   -.301E+02 0.569E-04 0.162E+04   0.761E+00 0.199E-02 0.596E+01   -.313E-05 -.413E-07 0.896E-02
   -.142E-04 -.182E-03 0.172E+04   0.148E-04 -.280E-04 -.172E+04   -.329E-06 0.126E-02 -.671E+01   0.438E-07 0.255E-06 -.176E-01
   -.554E+00 -.112E+01 0.172E+04   0.547E+00 0.116E+01 -.172E+04   0.489E-02 -.214E-01 -.688E+01   0.225E-04 0.129E-04 -.176E-01
   -.675E-04 -.627E+01 0.606E+03   0.709E-04 0.656E+01 -.606E+03   -.205E-05 -.173E+00 0.622E+00   0.511E-07 -.140E-04 -.134E-01
   -.276E+01 -.769E-04 0.610E+03   0.281E+01 -.111E-03 -.611E+03   -.236E-01 0.451E-03 0.755E+00   -.153E-04 0.114E-06 -.134E-01
   -.479E-04 0.504E-04 -.479E+03   0.542E-04 -.202E-03 0.474E+03   -.574E-05 0.184E-02 0.449E+01   0.303E-07 0.231E-07 -.350E-02
   -.571E+01 -.860E+01 -.491E+03   0.511E+01 0.884E+01 0.492E+03   0.532E+00 -.204E+00 -.114E+01   -.635E-04 -.596E-04 -.335E-02
   0.885E-06 -.857E+02 -.153E+04   -.576E-05 0.891E+02 0.153E+04   0.455E-05 -.304E+01 0.137E+01   0.316E-07 -.439E-03 0.103E-01
   -.493E+02 -.520E-03 -.155E+04   0.553E+02 0.827E-03 0.154E+04   -.521E+01 0.206E-02 0.656E+01   -.333E-03 0.609E-07 0.869E-02
   -.143E-04 -.252E-03 0.172E+04   0.147E-04 0.281E-04 -.171E+04   -.298E-06 0.126E-02 -.689E+01   0.384E-07 -.192E-06 -.176E-01
   -.554E+00 0.112E+01 0.172E+04   0.547E+00 -.116E+01 -.172E+04   0.489E-02 0.239E-01 -.688E+01   0.226E-04 -.129E-04 -.176E-01
   -.698E-04 0.626E+01 0.606E+03   0.735E-04 -.656E+01 -.606E+03   -.221E-05 0.174E+00 0.622E+00   0.552E-07 0.140E-04 -.134E-01
   0.940E+00 -.334E-03 0.606E+03   -.102E+01 0.117E-03 -.607E+03   0.517E-01 0.450E-03 0.416E+00   -.126E-04 -.980E-07 -.134E-01
   -.517E-04 -.645E-03 -.497E+03   0.486E-04 0.386E-03 0.498E+03   0.300E-05 0.202E-02 -.459E+00   0.632E-07 0.123E-06 -.334E-02
   -.571E+01 0.860E+01 -.491E+03   0.511E+01 -.884E+01 0.492E+03   0.532E+00 0.207E+00 -.114E+01   -.638E-04 0.597E-04 -.335E-02
   -.196E-04 0.857E+02 -.153E+04   0.142E-04 -.891E+02 0.153E+04   0.484E-05 0.304E+01 0.137E+01   0.379E-07 0.439E-03 0.103E-01
   -.293E+02 -.722E-03 -.163E+04   0.301E+02 0.781E-04 0.162E+04   -.761E+00 0.199E-02 0.596E+01   0.314E-05 -.365E-07 0.896E-02
   0.405E-04 -.205E-05 0.460E+03   -.394E-04 -.319E-04 -.460E+03   -.107E-05 -.629E-03 0.239E+00   -.450E-07 0.987E-07 -.992E-02
   0.392E+00 -.220E+01 0.454E+03   -.514E+00 0.230E+01 -.454E+03   0.141E+00 -.125E+00 -.340E+00   0.130E-04 -.117E-04 -.991E-02
   0.106E-04 -.681E+00 0.129E+04   -.112E-04 0.714E+00 -.130E+04   0.905E-06 -.399E-01 0.305E+01   0.151E-07 0.741E-05 -.133E-01
   0.608E+00 -.141E-04 0.129E+04   -.614E+00 -.201E-04 -.130E+04   0.694E-02 0.739E-03 0.312E+01   -.163E-04 0.167E-06 -.133E-01
   -.380E-04 0.463E-04 -.123E+04   0.405E-04 0.136E-03 0.124E+04   -.196E-05 0.187E-02 -.471E+01   -.267E-07 -.447E-07 0.671E-02
   0.379E+02 -.293E+02 -.120E+04   -.371E+02 0.295E+02 0.121E+04   -.754E+00 -.113E+00 -.475E+01   0.119E-03 -.878E-04 0.674E-02
   0.351E-04 -.617E+01 -.365E+03   -.366E-04 0.625E+01 0.365E+03   0.170E-05 -.798E-01 0.596E-01   0.103E-07 -.180E-04 -.268E-02
   0.390E+01 0.532E-04 -.357E+03   -.420E+01 -.330E-04 0.356E+03   0.265E+00 -.141E-02 0.757E+00   0.837E-04 0.489E-07 -.254E-02
   0.463E-04 -.115E-03 0.456E+03   -.471E-04 0.471E-04 -.455E+03   0.117E-05 -.574E-03 -.113E+00   -.414E-07 0.226E-07 -.994E-02
   0.392E+00 0.220E+01 0.454E+03   -.514E+00 -.230E+01 -.454E+03   0.141E+00 0.124E+00 -.340E+00   0.130E-04 0.117E-04 -.991E-02
   0.109E-04 0.681E+00 0.129E+04   -.114E-04 -.714E+00 -.130E+04   0.917E-06 0.414E-01 0.305E+01   -.224E-07 -.755E-05 -.133E-01
   0.240E+00 -.655E-04 0.129E+04   -.231E+00 0.203E-04 -.130E+04   -.105E-01 0.749E-03 0.303E+01   -.156E-04 -.704E-07 -.133E-01
   0.152E-04 -.191E-03 -.125E+04   -.171E-04 -.235E-04 0.125E+04   0.208E-05 0.485E-02 -.463E+01   -.461E-07 -.914E-07 0.685E-02
   0.379E+02 0.293E+02 -.120E+04   -.371E+02 -.295E+02 0.121E+04   -.749E+00 0.112E+00 -.475E+01   0.119E-03 0.878E-04 0.674E-02
   0.392E-04 0.617E+01 -.365E+03   -.400E-04 -.625E+01 0.365E+03   0.968E-06 0.897E-01 0.622E-01   0.167E-07 0.181E-04 -.268E-02
   0.306E+01 -.220E-03 -.367E+03   -.319E+01 0.929E-04 0.367E+03   0.105E+00 -.368E-02 0.278E+00   0.243E-04 -.531E-07 -.263E-02
   -.443E-04 0.302E-04 0.465E+03   0.431E-04 -.670E-04 -.466E+03   0.153E-05 -.621E-03 0.436E+00   0.640E-07 0.785E-07 -.988E-02
   -.392E+00 -.220E+01 0.454E+03   0.514E+00 0.230E+01 -.454E+03   -.141E+00 -.125E+00 -.340E+00   -.131E-04 -.118E-04 -.991E-02
   -.108E-04 -.105E+01 0.129E+04   0.113E-04 0.110E+01 -.130E+04   -.342E-06 -.573E-01 0.309E+01   0.254E-07 0.833E-05 -.133E-01
   -.608E+00 -.138E-04 0.129E+04   0.614E+00 -.203E-04 -.130E+04   -.694E-02 0.739E-03 0.312E+01   0.163E-04 0.112E-06 -.133E-01
   0.218E-04 -.495E-02 -.969E+03   -.217E-04 0.722E-02 0.946E+03   0.126E-06 -.692E-02 0.210E+02   0.218E-07 -.390E-08 0.733E-02
   -.379E+02 -.293E+02 -.120E+04   0.371E+02 0.295E+02 0.121E+04   0.754E+00 -.113E+00 -.475E+01   -.119E-03 -.878E-04 0.674E-02
   -.384E-04 -.862E+01 -.383E+03   0.383E-04 0.905E+01 0.384E+03   0.604E-06 -.379E+00 -.164E+01   0.208E-07 -.784E-04 -.245E-02
   -.390E+01 0.553E-04 -.357E+03   0.420E+01 -.344E-04 0.356E+03   -.265E+00 -.141E-02 0.757E+00   -.837E-04 0.627E-07 -.254E-02
   -.469E-04 -.129E-03 0.451E+03   0.472E-04 0.637E-04 -.451E+03   0.718E-06 -.573E-03 -.299E+00   0.667E-07 -.636E-07 -.991E-02
   -.392E+00 0.220E+01 0.454E+03   0.514E+00 -.230E+01 -.454E+03   -.141E+00 0.124E+00 -.340E+00   -.130E-04 0.118E-04 -.991E-02
   -.110E-04 0.105E+01 0.129E+04   0.115E-04 -.110E+01 -.130E+04   -.372E-06 0.588E-01 0.309E+01   0.208E-07 -.835E-05 -.133E-01
   -.240E+00 -.657E-04 0.129E+04   0.231E+00 0.206E-04 -.130E+04   0.105E-01 0.749E-03 0.303E+01   0.155E-04 -.100E-06 -.133E-01
   -.145E-04 -.167E-02 -.120E+04   0.161E-04 0.148E-02 0.121E+04   -.120E-05 -.392E-02 -.374E+01   -.603E-10 -.289E-07 0.690E-02
   -.379E+02 0.293E+02 -.120E+04   0.371E+02 -.295E+02 0.121E+04   0.749E+00 0.112E+00 -.475E+01   -.119E-03 0.878E-04 0.674E-02
   -.450E-04 0.862E+01 -.383E+03   0.447E-04 -.905E+01 0.384E+03   0.874E-06 0.385E+00 -.164E+01   0.232E-07 0.784E-04 -.245E-02
   -.306E+01 -.235E-03 -.367E+03   0.319E+01 0.108E-03 0.367E+03   -.105E+00 -.368E-02 0.278E+00   -.244E-04 -.347E-07 -.263E-02
   0.265E-04 -.167E-01 0.599E+02   -.362E-12 -.135E-12 0.188E-11   -.113E-04 0.571E-01 -.527E+02   -.121E-06 0.168E-06 -.315E+00

 POSITION                                       TOTAL-FORCE (eV/Angst)
      4.22049      6.33297     12.22386        -0.000000      0.012510      0.120513
      4.22049      7.48880     12.71843        -0.000000     -1.126728     -0.646500
      4.22049      5.17734     12.71841        -0.000000      1.125532     -0.642148
      0.00000      6.33303      4.28157        -0.000000      0.001474      0.524887
      2.11025      0.00229      4.28157         0.001554      0.011307      0.549740
      0.00000      0.00229      6.39181        -0.000001      0.045170      0.082671
      2.11025      6.33303      6.39181        -0.024026     -0.000208     -0.004073
      8.44098      6.33303      8.48926        -0.000000     -0.000195      0.045908
      2.12746      0.00868      8.53030         0.010856      0.009155      0.058817
      0.00000      0.02180     10.61555         0.000000      0.014432     -0.136975
      2.00198      6.33303     10.59030        -0.132545      0.001141     -0.152894
      0.00000      2.11254      4.28157        -0.000000      0.001473      0.554483
      2.11025      4.22278      4.28157         0.001554     -0.008370      0.549740
      0.00000      4.22278      6.39181        -0.000001     -0.045649      0.082648
      2.11025      2.11254      6.39181         0.023380     -0.000239      0.076733
      0.00000      2.11254      8.50546        -0.000001     -0.000585      0.049265
      2.12747      4.21640      8.53030         0.010893     -0.007891      0.058737
      0.00000      4.20328     10.61555         0.000000     -0.015585     -0.136197
      2.09055      2.11254     10.62376        -0.016417      0.000052     -0.128242
      4.22049      6.33303      4.28157         0.000000      0.001483      0.504705
      6.33074      0.00229      4.28157        -0.001554      0.011307      0.549741
      4.22049      0.00229      6.39181         0.000001      0.092597      0.087481
      6.33074      6.33303      6.39181         0.024026     -0.000208     -0.004072
      4.22049      6.33303      8.46557        -0.000000      0.001494     -0.077750
      6.31352      0.00868      8.53030        -0.010856      0.009154      0.058900
      4.22049      0.09690     10.81979         0.000000      0.032744      0.004763
      6.43900      6.33303     10.59030         0.132545      0.001141     -0.153006
      4.22049      2.11254      4.28157         0.000000      0.001467      0.553194
      6.33074      4.22278      4.28157        -0.001554     -0.008370      0.549740
      4.22049      4.22278      6.39181         0.000001     -0.093055      0.087474
      6.33074      2.11254      6.39181        -0.023380     -0.000239      0.076735
      4.22049      2.11254      8.53780         0.000000      0.000404      0.048180
      6.31352      4.21640      8.53030        -0.010894     -0.007889      0.058821
      4.22049      4.12818     10.81980        -0.000000     -0.033704      0.003413
      6.35044      2.11254     10.62376         0.016417      0.000052     -0.128330
      0.00000      6.33303      6.39181        -0.000000     -0.001377      0.032657
      2.11025      0.00229      6.39181         0.041035     -0.045491      0.034935
      0.00000      0.00229      4.28157         0.000000     -0.013681     -0.484047
      2.11025      6.33303      4.28157         0.002436     -0.000160     -0.461532
      0.00000      6.33303     10.63393        -0.000000      0.000827     -0.087865
      2.09470      8.43064     10.64084        -0.027691      0.009466     -0.100995
      0.00000      8.43869      8.49951         0.000000     -0.006297      0.027701
      2.12978      6.33303      8.51918        -0.001758     -0.002004      0.029955
      0.00000      2.11254      6.39181         0.000000     -0.001347     -0.006305
      2.11025      4.22278      6.39181         0.041033      0.042789      0.034950
      0.00000      4.22278      4.28157         0.000000      0.013360     -0.484047
      2.11025      2.11254      4.28157        -0.003548     -0.000159     -0.489532
      0.00000      2.11254     10.64951         0.000000      0.003032     -0.101703
      2.09470      4.23542     10.64084        -0.023192     -0.012382     -0.105112
      0.00000      4.22737      8.49951         0.000000      0.013042      0.029771
      2.11475      2.11254      8.51147        -0.004462     -0.004012      0.025055
      4.22049      6.33303      6.39181         0.000000     -0.001366     -0.040946
      6.33074      0.00229      6.39181        -0.041035     -0.045491      0.034936
      4.22049      0.00229      4.28157        -0.000000     -0.019659     -0.473539
      6.33074      6.33303      4.28157        -0.002436     -0.000160     -0.461532
      4.22049      6.33304     10.75435         0.000000     -0.005210      1.038804
      6.34628      8.43064     10.64084         0.027691      0.009473     -0.100984
      4.22049      8.42386      8.53684         0.000000     -0.003905     -0.029944
      6.31120      6.33303      8.51918         0.001757     -0.002004      0.029967
      4.22049      2.11254      6.39181         0.000001     -0.001344      0.088023
      6.33074      4.22278      6.39181        -0.041032      0.042789      0.034951
      4.22049      4.22278      4.28157        -0.000000      0.019340     -0.473543
      6.33074      2.11254      4.28157         0.003548     -0.000159     -0.489533
      4.22049      2.11254     10.68204        -0.000000     -0.004077     -0.069606
      6.34628      4.23542     10.64084         0.023192     -0.012388     -0.105102
      4.22049      4.24220      8.53684         0.000000      0.007392     -0.028002
      6.32623      2.11254      8.51147         0.004462     -0.004012      0.025059
    total drift:                                0.000012      0.058584     -0.423743

  FREE ENERGIE OF THE ION-ELECTRON SYSTEM (eV)
  free  energy   TOTEN  =      -474.90714167 eV

  energy  without entropy=     -474.90714167  energy(sigma->0) =     -474.90714167

     |            E. Caldeweyher, S. Ehlert & S. Grimme          |
     |          Mulliken Center for Theoretical Chemistry        |
     |                    University of Bonn                     |

Rational (Becke-Johnson) damping: hse06-D4-ATM
  s6         1.0000
  s8         1.1953
  s9         1.0000
  a1         0.3866
  a2         5.1913
 alp        16.0000

Dispersion energy:      -2.7788212891714E-01 Eh