 vasp.6.4.2 20Jul23 (build Feb 22 2024 13:53:45) complex
 executed on              LinuxNV date 2024.08.27  18:27:05
 OpenACC runtime initialized ...    4 GPUs detected

 INCAR:
   SYSTEM = Oxide-Surface
   ISMEAR = 0
   SIGMA = 0.05
   EDIFF = 1E-5
   ALGO = Normal
   IBRION = -1
   NSW = 0
   ISYM = 0
   DIPOL = 0.5 0.5 0.5
   IDIPOL = 3
   LDIPOL = .TRUE.
   ISTART = 0
   LHFCALC = .FALSE.
   GGA = PE
   HFRCUT = -1
   ENCUT = 1000
   PREC = Normal
   PRECFOCK = Normal
   LASPH = .TRUE.
   LREAL = Auto
   ISPIN = 1
   NELM = 200
   NELMIN = 8
   NCORE = 1
   KPAR = 1
   LWAVE = .FALSE.
   LCHARG = .FALSE.

 POTCAR:    PAW_PBE C_h 06Feb2004
 POTCAR:    PAW_PBE O_h 06Feb2004
 POTCAR:    PAW_PBE Mg_sv 12Apr2007
 POTCAR:    PAW_PBE O_h 06Feb2004
 POTCAR:    PAW_PBE C_h 06Feb2004
   VRHFIN =C: s2p2

   TITEL  = PAW_PBE C_h 06Feb2004
   POMASS =   12.011; ZVAL   =    4.000    mass and valenz
   ENMAX  =  700.000; ENMIN  =  500.000 eV

[...]

   TITEL  = PAW_PBE Mg_sv 12Apr2007
   POMASS =   24.305; ZVAL   =   10.000    mass and valenz
   ENMAX  =  495.223; ENMIN  =  371.417 eV

   TITEL  = PAW_PBE O_h 06Feb2004
   POMASS =   16.000; ZVAL   =    6.000    mass and valenz
   ENMAX  =  700.000; ENMIN  =  500.000 eV

 Optimization of the real space projectors (new method)

 maximal supplied QI-value         = 34.20
 optimisation between [QCUT,QGAM] = [ 16.08, 32.15] = [ 72.37,289.48] Ry
 Optimized for a Real-space Cutoff    0.71 Angstroem

   l    n(q)    QCUT    max X(q) W(low)/X(q) W(high)/X(q)  e(spline)
   0      7    16.076   134.812    0.49E-03    0.92E-03    0.59E-07
   0      7    16.076    80.524    0.48E-03    0.91E-03    0.58E-07
   1      6    16.076    79.026    0.37E-03    0.58E-03    0.12E-06
   1      6    16.076    45.188    0.36E-03    0.56E-03    0.12E-06
 Optimization of the real space projectors (new method)

[...]

   l    n(q)    QCUT    max X(q) W(low)/X(q) W(high)/X(q)  e(spline)
   0      9    16.140     8.730    0.14E-04    0.12E-04    0.27E-07
   0      9    16.140     8.910    0.19E-04    0.17E-04    0.41E-07
   1      9    16.140     2.513    0.16E-04    0.28E-04    0.54E-07
   1      9    16.140     3.341    0.27E-04    0.13E-03    0.17E-06
   2      9    16.140     3.683    0.18E-03    0.21E-03    0.81E-07
 Optimization of the real space projectors (new method)

 maximal supplied QI-value         = 34.20
 optimisation between [QCUT,QGAM] = [ 16.08, 32.15] = [ 72.37,289.48] Ry
 Optimized for a Real-space Cutoff    0.71 Angstroem

   l    n(q)    QCUT    max X(q) W(low)/X(q) W(high)/X(q)  e(spline)
   0      7    16.076   280.207    0.42E-03    0.69E-03    0.60E-07
   0      7    16.076   228.978    0.42E-03    0.69E-03    0.61E-07
   1      6    16.076    86.127    0.11E-03    0.66E-03    0.10E-06
   1      6    16.076    65.368    0.11E-03    0.65E-03    0.10E-06
  PAW_PBE C_h 06Feb2004                 :
  PAW_PBE O_h 06Feb2004                 :
  PAW_PBE Mg_sv 12Apr2007               :
  PAW_PBE O_h 06Feb2004                 :

 POSCAR:  C  O Mg  O
  positions in direct lattice
 exchange correlation table for  LEXCH =        8
   RHO(1)=    0.500       N(1)  =     2000
   RHO(2)=  100.500       N(2)  =     4000

 ion  position               nearest neighbor table
   1  0.500  0.750  0.719-   3 1.26   2 1.26  56 1.47
   2  0.500  0.887  0.748-   1 1.26
   3  0.500  0.613  0.748-   1 1.26
   4  0.000  0.750  0.252-
   5  0.250  0.000  0.252-
   6  0.000  0.000  0.376-
   7  0.250  0.750  0.376-
   8  1.000  0.750  0.499-
   9  0.252  0.001  0.502-
  10  0.000  0.003  0.624-
  11  0.237  0.750  0.623-  40 2.00
  12  0.000  0.250  0.252-
  13  0.250  0.500  0.252-
  14  0.000  0.500  0.376-
  15  0.250  0.250  0.376-
  16  0.000  0.250  0.500-
  17  0.252  0.500  0.502-
  18  0.000  0.498  0.624-
  19  0.248  0.250  0.625-
  20  0.500  0.750  0.252-
  21  0.750  0.000  0.252-
  22  0.500  0.000  0.376-
  23  0.750  0.750  0.376-
  24  0.500  0.750  0.498-
  25  0.748  0.001  0.502-
  26  0.500  0.011  0.636-  64 2.02
  27  0.763  0.750  0.623-  40 2.00
  28  0.500  0.250  0.252-
  29  0.750  0.500  0.252-
  30  0.500  0.500  0.376-
  31  0.750  0.250  0.376-
  32  0.500  0.250  0.502-
  33  0.748  0.500  0.502-
  34  0.500  0.489  0.636-  64 2.02
  35  0.752  0.250  0.625-
  36  0.000  0.750  0.376-
  37  0.250  0.000  0.376-
  38  0.000  0.000  0.252-
  39  0.250  0.750  0.252-
  40  0.000  0.750  0.626-  11 2.00  27 2.00
  41  0.248  0.999  0.626-
  42  0.000  1.000  0.500-
  43  0.252  0.750  0.501-
  44  0.000  0.250  0.376-
  45  0.250  0.500  0.376-
  46  0.000  0.500  0.252-
  47  0.250  0.250  0.252-
  48  0.000  0.250  0.626-
  49  0.248  0.502  0.626-
  50  0.000  0.501  0.500-
  51  0.251  0.250  0.501-
  52  0.500  0.750  0.376-
  53  0.750  0.000  0.376-
  54  0.500  0.000  0.252-
  55  0.750  0.750  0.252-
  56  0.500  0.750  0.633-   1 1.47
  57  0.752  0.999  0.626-
  58  0.500  0.998  0.502-
  59  0.748  0.750  0.501-
  60  0.500  0.250  0.376-
  61  0.750  0.500  0.376-
  62  0.500  0.500  0.252-
  63  0.750  0.250  0.252-
  64  0.500  0.250  0.628-  26 2.02  34 2.02
  65  0.752  0.502  0.626-
  66  0.500  0.503  0.502-
  67  0.749  0.250  0.501-

IMPORTANT INFORMATION: All symmetrisations will be switched off!
NOSYMM: (Re-)initialisation of all symmetry stuff for point group C_1.

                                     Primitive cell

  volume of cell :    1211.2538

  direct lattice vectors                    reciprocal lattice vectors
     8.440984654  0.000000000  0.000000000     0.118469591  0.000000000  0.000000000
     0.000000000  8.440984654  0.000000000     0.000000000  0.118469591  0.000000000
     0.000000000  0.000000000 17.000000000     0.000000000  0.000000000  0.058823529

  length of vectors
     8.440984654  8.440984654 17.000000000     0.118469591  0.118469591  0.058823529

  position of ions in fractional coordinates (direct lattice)
     0.500000012  0.750264058  0.719050453
     0.500000066  0.887195294  0.748143164
     0.500000015  0.613356952  0.748141716
     0.000000012  0.750271483  0.251856836
     0.250000012  0.000271483  0.251856836
     0.000000012  0.000271483  0.375988963
     0.250000012  0.750271483  0.375988963
     0.999999988  0.750271429  0.499368462
     0.252039891  0.001028111  0.501782346
     0.000000034  0.002582678  0.624444171
     0.237174200  0.750271417  0.622958809
     0.000000012  0.250271483  0.251856836
     0.250000012  0.500271483  0.251856836
     0.000000012  0.500271483  0.375988963
     0.250000012  0.250271483  0.375988963
     0.000000025  0.250271481  0.500321386
     0.252039913  0.499514860  0.501782439
     0.000000033  0.497960304  0.624444240
     0.247666331  0.250271551  0.624926941
     0.500000012  0.750271483  0.251856836
     0.750000012  0.000271483  0.251856836
     0.500000012  0.000271483  0.375988963
     0.750000012  0.750271483  0.375988963
     0.500000031  0.750271498  0.497974947
     0.747960134  0.001028090  0.501782397
     0.500000002  0.011479476  0.636458488
     0.762825859  0.750271422  0.622958927
     0.500000012  0.250271483  0.251856836
     0.750000012  0.500271483  0.251856836
     0.500000012  0.500271483  0.375988963
     0.750000012  0.250271483  0.375988963
     0.500000005  0.250271518  0.502223723
     0.747960113  0.499514886  0.501782491
     0.500000001  0.489064058  0.636458884
     0.752333702  0.250271549  0.624926893
     0.000000012  0.750271483  0.375988963
     0.250000012  0.000271483  0.375988963
     0.000000012  0.000271483  0.251856836
     0.250000012  0.750271483  0.251856836
     0.000000034  0.750271519  0.625525054
     0.248158668  0.998774097  0.625931889
     0.000000015  0.999728517  0.499971061
     0.252314560  0.750271518  0.501128046
     0.000000012  0.250271483  0.375988963
     0.250000012  0.500271483  0.375988963
     0.000000012  0.500271483  0.251856836
     0.250000012  0.250271483  0.251856836
     0.000000017  0.250271467  0.626441503
     0.248158646  0.501768877  0.625931815
     0.000000014  0.500814411  0.499971054
     0.250533599  0.250271460  0.500674415
     0.500000012  0.750271483  0.375988963
     0.750000012  0.000271483  0.375988963
     0.500000012  0.000271483  0.251856836
     0.750000012  0.750271483  0.251856836
     0.499999972  0.750272301  0.632609027
     0.751841373  0.998774078  0.625931895
     0.500000008  0.997971315  0.502167211
     0.747685467  0.750271518  0.501128092
     0.500000012  0.250271483  0.375988963
     0.750000012  0.500271483  0.375988963
     0.500000012  0.500271483  0.251856836
     0.750000012  0.250271483  0.251856836
     0.500000019  0.250271401  0.628355073
     0.751841390  0.501768901  0.625931830
     0.500000009  0.502571702  0.502167205
     0.749466433  0.250271458  0.500674433

  ion indices of the primitive-cell ions
   primitive index   ion index
                 1           1
                 2           2
                 3           3
                 4           4
                 5           5
                 6           6
                 7           7
                 8           8
                 9           9
                10          10
                11          11
                12          12
                13          13
                14          14
                15          15
                16          16
                17          17
                18          18
                19          19
                20          20
                21          21
                22          22
                23          23
                24          24
                25          25
                26          26
                27          27
                28          28
                29          29
                30          30
                31          31
                32          32
                33          33
                34          34
                35          35
                36          36
                37          37
                38          38
                39          39
                40          40
                41          41
                42          42
                43          43
                44          44
                45          45
                46          46
                47          47
                48          48
                49          49
                50          50
                51          51
                52          52
                53          53
                54          54
                55          55
                56          56
                57          57
                58          58
                59          59
                60          60
                61          61
                62          62
                63          63
                64          64
                65          65
                66          66
                67          67

 KPOINTS: pymatgen v2020.8.13 with grid density =

Automatic generation of k-mesh.
 Grid dimensions read from file:
 generate k-points for:    2    2    1

 Generating k-lattice:

[...]
  Alpha Z  1248.31882  1248.31882  1248.31882
  Ewald  107229.64142108137.04893************     0.00010    -0.02651    -0.00000
  Hartree124315.32189124851.31160************     0.00005    -0.00069    -0.00003
  E(xc)   -3303.07185 -3301.39186 -3307.64008     0.00000    -0.00006     0.00000
  Local  ************************241008.24675    -0.00014     0.02183     0.00003
  n-local -5645.47327 -5642.49212 -5646.67084     0.00000     0.00696    -0.00000
  augment   725.21782   725.08188   716.87742     0.00000     0.00120    -0.00000
  Kinetic 12943.44236 12898.48571 12950.35062    -0.00001     0.00074    -0.00001
  Fock        0.00000     0.00000     0.00000     0.00000     0.00000     0.00000
  Total     -11.13435   -14.23214     7.43907     0.00000     0.00348    -0.00001
  in kB     -14.72789   -18.82546     9.83998     0.00000     0.00461    -0.00001

 VOLUME and BASIS-vectors are now :
  energy-cutoff  :     1000.00
  volume of cell :     1211.25
      direct lattice vectors                 reciprocal lattice vectors
     8.440984654  0.000000000  0.000000000     0.118469591  0.000000000  0.000000000
     0.000000000  8.440984654  0.000000000     0.000000000  0.118469591  0.000000000
     0.000000000  0.000000000 17.000000000     0.000000000  0.000000000  0.058823529

  length of vectors
     8.440984654  8.440984654 17.000000000     0.118469591  0.118469591  0.058823529

 FORCES acting on ions
    electron-ion (+dipol)            ewald-force                    non-local-force                 convergence-correction
   0.117E-03 -.542E-01 -.969E+03   -.119E-03 0.585E-01 0.976E+03   -.796E-06 0.229E-02 -.658E+01   0.214E-05 -.356E-05 -.442E-03
   -.565E-04 -.215E+03 -.155E+04   0.723E-04 0.256E+03 0.158E+04   -.195E-04 -.419E+02 -.272E+02   0.279E-05 -.679E-03 -.110E-02
   0.552E-04 0.215E+03 -.155E+04   -.511E-04 -.256E+03 0.158E+04   -.383E-05 0.419E+02 -.272E+02   -.112E-05 0.677E-03 -.110E-02
   0.187E-04 0.219E-03 0.245E+04   -.208E-04 -.334E-04 -.244E+04   0.334E-05 -.306E-02 -.904E+01   0.330E-05 -.836E-05 0.141E-02
   0.581E+00 -.145E+01 0.245E+04   -.571E+00 0.149E+01 -.244E+04   -.836E-02 -.317E-01 -.921E+01   -.769E-04 0.772E-04 0.140E-02
   0.968E-04 -.338E+01 0.863E+03   -.101E-03 0.356E+01 -.863E+03   0.374E-05 -.142E+00 0.236E+00   0.426E-06 0.223E-04 0.493E-02
   0.306E+01 -.825E-04 0.863E+03   -.311E+01 -.164E-03 -.865E+03   0.287E-01 -.120E-02 0.109E+01   -.628E-04 -.419E-05 0.474E-02
   0.466E-04 0.189E-03 -.692E+03   -.562E-04 0.545E-04 0.692E+03   0.353E-05 -.152E-02 0.949E-01   0.495E-05 0.554E-05 0.491E-02
   0.336E+01 -.919E+01 -.717E+03   -.262E+01 0.948E+01 0.719E+03   -.744E+00 -.289E+00 -.164E+01   0.188E-06 -.296E-04 0.469E-02
   0.426E-06 -.228E+02 -.235E+04   0.848E-05 0.238E+02 0.234E+04   -.579E-05 -.974E+00 0.793E+01   -.323E-05 -.887E-04 0.380E-03
   0.521E+02 -.721E-03 -.223E+04   -.593E+02 0.116E-02 0.222E+04   0.717E+01 -.102E-02 0.892E+01   -.365E-03 0.213E-05 0.683E-03
   0.263E-04 0.138E-03 0.245E+04   -.216E-04 0.344E-04 -.244E+04   0.110E-04 -.304E-02 -.918E+01   -.129E-04 -.138E-05 0.134E-02
   0.581E+00 0.145E+01 0.245E+04   -.571E+00 -.149E+01 -.244E+04   -.839E-02 0.280E-01 -.921E+01   -.688E-04 -.766E-04 0.141E-02
   0.100E-03 0.338E+01 0.863E+03   -.104E-03 -.356E+01 -.863E+03   0.638E-05 0.137E+00 0.236E+00   0.270E-05 -.182E-04 0.493E-02
   -.198E+01 -.424E-03 0.859E+03   0.208E+01 0.171E-03 -.859E+03   -.766E-01 -.120E-02 0.616E+00   -.182E-04 0.699E-06 0.485E-02
   0.673E-04 0.174E-03 -.721E+03   -.615E-04 0.424E-04 0.721E+03   -.523E-05 -.255E-02 -.234E+00   -.445E-06 -.745E-05 0.474E-02
   0.336E+01 0.919E+01 -.717E+03   -.262E+01 -.948E+01 0.719E+03   -.745E+00 0.286E+00 -.164E+01   0.214E-04 0.206E-04 0.468E-02
   0.215E-04 0.228E+02 -.235E+04   -.682E-05 -.238E+02 0.234E+04   0.348E-05 0.973E+00 0.793E+01   -.180E-04 0.822E-04 0.396E-03
   0.372E+02 -.797E-03 -.233E+04   -.383E+02 0.405E-04 0.232E+04   0.105E+01 0.138E-02 0.808E+01   0.210E-03 -.232E-05 0.626E-03
   -.161E-04 0.229E-03 0.245E+04   0.211E-04 -.406E-04 -.244E+04   -.169E-04 -.307E-02 -.896E+01   -.878E-05 -.103E-04 0.138E-02
   -.581E+00 -.145E+01 0.245E+04   0.571E+00 0.149E+01 -.244E+04   0.838E-02 -.317E-01 -.921E+01   0.782E-04 0.922E-04 0.144E-02
   -.110E-03 -.841E+01 0.857E+03   0.104E-03 0.874E+01 -.858E+03   -.131E-04 -.246E+00 0.870E+00   0.197E-04 0.684E-04 0.475E-02
   -.306E+01 -.767E-04 0.863E+03   0.311E+01 -.166E-03 -.865E+03   -.287E-01 -.120E-02 0.109E+01   0.390E-04 -.106E-04 0.474E-02
   -.788E-04 0.493E-03 -.706E+03   0.818E-04 -.288E-03 0.700E+03   -.924E-05 -.215E-02 0.618E+01   0.553E-05 -.651E-05 0.459E-02
   -.336E+01 -.919E+01 -.717E+03   0.262E+01 0.948E+01 0.719E+03   0.744E+00 -.289E+00 -.164E+01   -.107E-04 -.193E-04 0.468E-02
   -.142E-05 -.973E+02 -.222E+04   -.118E-04 0.101E+03 0.221E+04   -.409E-06 -.411E+01 0.178E+01   0.144E-04 0.601E-03 0.299E-03
   -.521E+02 -.702E-03 -.223E+04   0.593E+02 0.114E-02 0.222E+04   -.717E+01 -.102E-02 0.892E+01   0.357E-03 0.503E-05 0.674E-03
   -.288E-04 0.122E-03 0.245E+04   0.217E-04 0.407E-04 -.244E+04   -.722E-05 -.305E-02 -.921E+01   0.140E-04 0.120E-04 0.146E-02
   -.581E+00 0.145E+01 0.245E+04   0.571E+00 -.149E+01 -.244E+04   0.837E-02 0.280E-01 -.921E+01   0.728E-04 -.876E-04 0.142E-02
   -.114E-03 0.841E+01 0.857E+03   0.108E-03 -.874E+01 -.858E+03   -.106E-04 0.241E+00 0.870E+00   0.208E-04 -.678E-04 0.477E-02
   0.198E+01 -.426E-03 0.859E+03   -.208E+01 0.177E-03 -.859E+03   0.766E-01 -.120E-02 0.616E+00   -.496E-05 -.875E-05 0.485E-02
   -.769E-04 -.415E-03 -.724E+03   0.655E-04 0.571E-03 0.725E+03   0.366E-05 -.118E-02 -.667E+00   0.127E-04 0.718E-05 0.441E-02
   -.336E+01 0.919E+01 -.717E+03   0.262E+01 -.948E+01 0.719E+03   0.745E+00 0.286E+00 -.164E+01   -.163E-04 0.175E-04 0.468E-02
   -.210E-04 0.973E+02 -.222E+04   0.145E-04 -.101E+03 0.221E+04   0.104E-04 0.411E+01 0.178E+01   -.319E-05 -.590E-03 0.298E-03
   -.372E+02 -.831E-03 -.233E+04   0.383E+02 0.683E-04 0.232E+04   -.105E+01 0.138E-02 0.808E+01   -.193E-03 0.397E-05 0.612E-03
   0.362E-04 0.126E-04 0.521E+03   -.429E-04 -.370E-04 -.522E+03   -.104E-05 0.166E-02 0.325E+00   0.751E-05 0.268E-05 0.335E-02
   0.145E+00 -.218E+01 0.514E+03   -.287E+00 0.230E+01 -.513E+03   0.178E+00 -.165E+00 -.296E+00   -.309E-04 0.884E-05 0.331E-02
   0.175E-04 -.690E+00 0.149E+04   -.130E-04 0.732E+00 -.149E+04   0.416E-06 -.542E-01 0.261E+01   -.556E-05 0.575E-04 0.839E-03
   0.555E+00 0.130E-03 0.148E+04   -.560E+00 -.235E-04 -.149E+04   0.693E-02 0.190E-02 0.270E+01   -.301E-05 -.785E-06 0.852E-03
   -.406E-04 0.480E-04 -.142E+04   0.491E-04 0.176E-03 0.143E+04   -.360E-05 -.374E-02 -.479E+01   -.387E-05 0.983E-05 0.136E-03
   0.342E+02 -.268E+02 -.139E+04   -.334E+02 0.270E+02 0.139E+04   -.863E+00 -.925E-01 -.480E+01   0.101E-03 -.803E-04 0.454E-03
   0.348E-04 -.611E+01 -.424E+03   -.435E-04 0.619E+01 0.424E+03   0.393E-06 -.790E-01 0.807E-01   0.747E-05 -.225E-04 0.309E-02
   0.117E+01 0.211E-03 -.418E+03   -.145E+01 -.388E-04 0.417E+03   0.279E+00 0.149E-02 0.841E+00   -.176E-04 0.397E-05 0.318E-02
   0.542E-04 -.984E-04 0.517E+03   -.557E-04 0.585E-04 -.516E+03   0.114E-05 0.170E-02 -.867E-01   -.974E-07 -.997E-05 0.326E-02
   0.145E+00 0.218E+01 0.514E+03   -.287E+00 -.230E+01 -.513E+03   0.178E+00 0.168E+00 -.296E+00   -.184E-04 -.121E-04 0.331E-02
   0.200E-04 0.690E+00 0.149E+04   -.133E-04 -.732E+00 -.149E+04   0.190E-05 0.563E-01 0.261E+01   -.809E-05 -.488E-04 0.828E-03
   0.155E+00 0.800E-04 0.148E+04   -.143E+00 0.237E-04 -.149E+04   -.151E-01 0.190E-02 0.258E+01   -.492E-04 0.127E-05 0.819E-03
   0.224E-04 -.353E-03 -.144E+04   -.213E-04 -.488E-04 0.144E+04   0.413E-05 -.176E-02 -.465E+01   -.459E-05 -.495E-05 0.159E-03
   0.342E+02 0.268E+02 -.139E+04   -.334E+02 -.270E+02 0.139E+04   -.861E+00 0.910E-01 -.480E+01   0.113E-03 0.769E-04 0.477E-03
   0.571E-04 0.611E+01 -.424E+03   -.466E-04 -.619E+01 0.424E+03   0.160E-05 0.794E-01 0.811E-01   -.110E-04 0.238E-04 0.309E-02
   0.229E+01 -.669E-05 -.426E+03   -.240E+01 0.110E-03 0.426E+03   0.121E+00 0.119E-02 0.340E+00   0.992E-06 -.333E-05 0.313E-02
   -.520E-04 0.596E-04 0.526E+03   0.472E-04 -.822E-04 -.527E+03   -.312E-05 0.167E-02 0.456E+00   0.847E-05 -.564E-05 0.331E-02
   -.145E+00 -.218E+01 0.514E+03   0.287E+00 0.230E+01 -.513E+03   -.178E+00 -.165E+00 -.296E+00   0.187E-04 0.212E-04 0.330E-02
   -.163E-04 -.109E+01 0.148E+04   0.131E-04 0.115E+01 -.149E+04   -.410E-05 -.763E-01 0.265E+01   0.609E-05 0.182E-04 0.875E-03
   -.555E+00 0.132E-03 0.148E+04   0.560E+00 -.237E-04 -.149E+04   -.693E-02 0.190E-02 0.270E+01   0.768E-05 -.197E-05 0.863E-03
   0.424E-05 -.467E-02 -.116E+04   -.903E-05 0.709E-02 0.113E+04   0.633E-06 -.370E-02 0.238E+02   0.488E-05 0.282E-06 0.712E-03
   -.342E+02 -.268E+02 -.139E+04   0.334E+02 0.270E+02 0.139E+04   0.863E+00 -.925E-01 -.480E+01   -.101E-03 -.906E-04 0.475E-03
   -.449E-04 -.700E+01 -.451E+03   0.441E-04 0.739E+01 0.453E+03   0.684E-06 -.387E+00 -.171E+01   -.163E-07 -.206E-04 0.314E-02
   -.117E+01 0.223E-03 -.418E+03   0.145E+01 -.395E-04 0.417E+03   -.279E+00 0.149E-02 0.841E+00   0.951E-05 -.378E-05 0.319E-02
   -.669E-04 -.119E-03 0.510E+03   0.554E-04 0.757E-04 -.510E+03   -.315E-05 0.169E-02 -.201E+00   0.134E-04 0.253E-05 0.330E-02
   -.145E+00 0.218E+01 0.514E+03   0.287E+00 -.230E+01 -.513E+03   -.178E+00 0.168E+00 -.296E+00   0.463E-05 -.127E-04 0.331E-02
   -.132E-04 0.109E+01 0.148E+04   0.134E-04 -.115E+01 -.149E+04   -.231E-05 0.784E-01 0.265E+01   0.111E-05 -.195E-04 0.864E-03
   -.155E+00 0.780E-04 0.148E+04   0.143E+00 0.240E-04 -.149E+04   0.151E-01 0.191E-02 0.258E+01   0.473E-04 -.223E-05 0.819E-03
   -.161E-04 -.209E-02 -.139E+04   0.196E-04 0.172E-02 0.139E+04   -.161E-05 -.346E-02 -.372E+01   -.285E-05 0.111E-07 0.430E-03
   -.342E+02 0.268E+02 -.139E+04   0.334E+02 -.270E+02 0.139E+04   0.861E+00 0.910E-01 -.480E+01   -.111E-03 0.764E-04 0.456E-03
   -.600E-04 0.700E+01 -.451E+03   0.510E-04 -.739E+01 0.453E+03   -.726E-06 0.385E+00 -.171E+01   0.932E-05 0.199E-04 0.314E-02
   -.229E+01 -.414E-04 -.426E+03   0.240E+01 0.128E-03 0.426E+03   -.121E+00 0.119E-02 0.340E+00   -.977E-05 0.150E-04 0.313E-02
   0.445E-04 -.725E-02 0.653E+02   0.000E+00 0.199E-12 0.165E-11   -.537E-04 -.286E-01 -.655E+02   0.196E-05 -.276E-04 0.150E+00

 POSITION                                       TOTAL-FORCE (eV/Angst)
      4.22049      6.33297     12.22386        -0.000001      0.007111      0.293440
      4.22049      7.48880     12.71843        -0.000001     -0.494855     -0.219831
      4.22049      5.17734     12.71841        -0.000001      0.481190     -0.214818
      0.00000      6.33303      4.28157         0.000005     -0.002350      0.290190
      2.11025      0.00229      4.28157         0.001763      0.007779      0.311940
      0.00000      0.00229      6.39181         0.000000      0.041465      0.070136
      2.11025      6.33303      6.39181        -0.022385     -0.000920     -0.009340
      8.44098      6.33303      8.48926        -0.000001     -0.000740      0.046790
      2.12746      0.00868      8.53030        -0.000971     -0.002603      0.040336
      0.00000      0.02180     10.61555        -0.000000      0.000003      0.020312
      2.00198      6.33303     10.59030        -0.042290     -0.000049      0.013142
      0.00000      2.11254      4.28157         0.000003     -0.002336      0.317770
      2.11025      4.22278      4.28157         0.001733     -0.010001      0.311953
      0.00000      4.22278      6.39181         0.000006     -0.044694      0.070130
      2.11025      2.11254      6.39181         0.023499     -0.000915      0.065455
      0.00000      2.11254      8.50546         0.000000     -0.001809      0.042889
      2.12747      4.21640      8.53030        -0.002304      0.000891      0.041657
      0.00000      4.20328     10.61555         0.000000     -0.000025      0.018404
      2.09055      2.11254     10.62376        -0.007339      0.001158      0.026441
      4.22049      6.33303      4.28157        -0.000021     -0.002355      0.271063
      6.33074      0.00229      4.28157        -0.001740      0.007747      0.311944
      4.22049      0.00229      6.39181         0.000001      0.087659      0.084004
      6.33074      6.33303      6.39181         0.022384     -0.000918     -0.009340
      4.22049      6.33303      8.46557        -0.000001     -0.001415      0.007675
      6.31352      0.00868      8.53030         0.000971     -0.002601      0.040332
      4.22049      0.09690     10.81979         0.000001      0.000835      0.067786
      6.43900      6.33303     10.59030         0.042291     -0.000049      0.013142
      4.22049      2.11254      4.28157        -0.000000     -0.002343      0.316105
      6.33074      4.22278      4.28157        -0.001748     -0.010017      0.311945
      4.22049      4.22278      6.39181         0.000004     -0.090917      0.083995
      6.33074      2.11254      6.39181        -0.023507     -0.000921      0.065461
      4.22049      2.11254      8.53780         0.000005     -0.000478      0.040154
      6.31352      4.21640      8.53030         0.002307      0.000892      0.041666
      4.22049      4.12818     10.81980         0.000001      0.002859      0.065958
      6.35044      2.11254     10.62376         0.007339      0.001158      0.026447
      0.00000      6.33303      6.39181        -0.000000      0.002174      0.050083
      2.11025      0.00229      6.39181         0.036374     -0.038186      0.060611
      0.00000      0.00229      4.28157        -0.000001     -0.011145     -0.555285
      2.11025      6.33303      4.28157         0.001772      0.002542     -0.536853
      0.00000      6.33303     10.63393         0.000001     -0.002973      0.053402
      2.09470      8.43064     10.64084        -0.021243      0.015423      0.041702
      0.00000      8.43869      8.49951        -0.000001     -0.002806      0.012527
      2.12978      6.33303      8.51918         0.001589      0.002202      0.014649
      0.00000      2.11254      6.39181        -0.000000      0.002181      0.016316
      2.11025      4.22278      6.39181         0.036372      0.042985      0.060621
      0.00000      4.22278      4.28157         0.000001      0.013939     -0.555288
      2.11025      2.11254      4.28157        -0.003450      0.002544     -0.562583
      0.00000      2.11254     10.64951         0.000001     -0.001631      0.056907
      2.09470      4.23542     10.64084        -0.018888     -0.016144      0.041701
      0.00000      4.22737      8.49951         0.000001      0.004043      0.012745
      2.11475      2.11254      8.51147         0.005145      0.001827      0.022575
      4.22049      6.33303      6.39181         0.000001      0.002176     -0.031812
      6.33074      0.00229      6.39181        -0.036375     -0.038186      0.060615
      4.22049      0.00229      4.28157        -0.000001     -0.016403     -0.546872
      6.33074      6.33303      4.28157        -0.001773      0.002542     -0.536855
      4.22049      6.33304     10.75435         0.000001     -0.000745      0.275845
      6.34628      8.43064     10.64084         0.021243      0.015418      0.041696
      4.22049      8.42386      8.53684        -0.000000      0.002515      0.012807
      6.31120      6.33303      8.51918        -0.001587      0.002204      0.014645
      4.22049      2.11254      6.39181        -0.000001      0.002184      0.112434
      6.33074      4.22278      6.39181        -0.036372      0.042987      0.060622
      4.22049      4.22278      4.28157        -0.000001      0.019199     -0.546877
      6.33074      2.11254      4.28157         0.003450      0.002546     -0.562584
      4.22049      2.11254     10.68204        -0.000001     -0.003291      0.061158
      6.34628      4.23542     10.64084         0.018887     -0.016137      0.041697
      4.22049      4.24220      8.53684        -0.000000     -0.003245      0.011742
      6.32623      2.11254      8.51147        -0.005145      0.001828      0.022577
    total drift:                               -0.000007     -0.035854      0.011149

  FREE ENERGIE OF THE ION-ELECTRON SYSTEM (eV)
  free  energy   TOTEN  =      -396.12425182 eV

  energy  without entropy=     -396.12425182  energy(sigma->0) =     -396.12425182

     |            E. Caldeweyher, S. Ehlert & S. Grimme          |
     |          Mulliken Center for Theoretical Chemistry        |
     |                    University of Bonn                     |

Rational (Becke-Johnson) damping: hse06-D4-ATM
  s6         1.0000
  s8         1.1953
  s9         1.0000
  a1         0.3866
  a2         5.1913
 alp        16.0000

Dispersion energy:      -2.7788212891714E-01 Eh