 vasp.6.4.2 20Jul23 (build Feb 22 2024 13:53:45) complex
 executed on              LinuxNV date 2024.08.27  15:08:25
 OpenACC runtime initialized ...    4 GPUs detected

 INCAR:
   SYSTEM = Oxide-Surface
   ISMEAR = 0
   SIGMA = 0.05
   EDIFF = 1E-5
   ALGO = Normal
   IBRION = -1
   NSW = 0
   ISYM = 0
   DIPOL = 0.5 0.5 0.5
   IDIPOL = 3
   LDIPOL = .TRUE.
   ISTART = 0
   LHFCALC = .FALSE.
   GGA = PE
   HFRCUT = -1
   ENCUT = 1000
   PREC = Normal
   PRECFOCK = Normal
   LASPH = .TRUE.
   LREAL = Auto
   ISPIN = 1
   NELM = 200
   NELMIN = 8
   NCORE = 1
   KPAR = 1
   LWAVE = .FALSE.
   LCHARG = .FALSE.

 POTCAR:    PAW_PBE Mg_sv 12Apr2007
 POTCAR:    PAW_PBE O_h 06Feb2004
 POTCAR:    PAW_PBE Mg_sv 12Apr2007
   VRHFIN =Mg: p6s2

   TITEL  = PAW_PBE Mg_sv 12Apr2007
   POMASS =   24.305; ZVAL   =   10.000    mass and valenz
   ENMAX  =  495.223; ENMIN  =  371.417 eV

   TITEL  = PAW_PBE O_h 06Feb2004
   POMASS =   16.000; ZVAL   =    6.000    mass and valenz
   ENMAX  =  700.000; ENMIN  =  500.000 eV

 Optimization of the real space projectors (new method)

 maximal supplied QI-value         = 22.11
 optimisation between [QCUT,QGAM] = [ 16.14, 32.28] = [ 72.95,291.79] Ry
 Optimized for a Real-space Cutoff    0.98 Angstroem

   l    n(q)    QCUT    max X(q) W(low)/X(q) W(high)/X(q)  e(spline)
   0      9    16.140     8.730    0.14E-04    0.12E-04    0.27E-07
   0      9    16.140     8.910    0.19E-04    0.17E-04    0.41E-07
   1      9    16.140     2.513    0.16E-04    0.28E-04    0.54E-07
   1      9    16.140     3.341    0.27E-04    0.13E-03    0.17E-06
   2      9    16.140     3.683    0.18E-03    0.21E-03    0.81E-07
 Optimization of the real space projectors (new method)

 maximal supplied QI-value         = 34.20
 optimisation between [QCUT,QGAM] = [ 16.08, 32.15] = [ 72.37,289.48] Ry
 Optimized for a Real-space Cutoff    0.71 Angstroem

   l    n(q)    QCUT    max X(q) W(low)/X(q) W(high)/X(q)  e(spline)
   0      7    16.076   280.207    0.42E-03    0.69E-03    0.60E-07
   0      7    16.076   228.978    0.42E-03    0.69E-03    0.61E-07
   1      6    16.076    86.127    0.11E-03    0.66E-03    0.10E-06
   1      6    16.076    65.368    0.11E-03    0.65E-03    0.10E-06
  PAW_PBE Mg_sv 12Apr2007               :
  PAW_PBE O_h 06Feb2004                 :

 POSCAR: Mg  O
  positions in direct lattice
 exchange correlation table for  LEXCH =        8
   RHO(1)=    0.500       N(1)  =     2000
   RHO(2)=  100.500       N(2)  =     4000

 ion  position               nearest neighbor table
   1  0.125  0.750  0.203-
   2  0.375  0.000  0.203-
   3  0.125  0.000  0.327-
   4  0.375  0.750  0.327-
   5  0.125  0.750  0.452-
   6  0.375  1.000  0.452-
   7  0.125  1.000  0.576-
   8  0.375  0.750  0.576-
   9  0.125  0.250  0.203-
  10  0.375  0.500  0.203-
  11  0.125  0.500  0.327-
  12  0.375  0.250  0.327-
  13  0.125  0.250  0.452-
  14  0.375  0.500  0.452-
  15  0.125  0.500  0.576-
  16  0.375  0.250  0.576-
  17  0.625  0.750  0.203-
  18  0.875  0.000  0.203-
  19  0.625  0.000  0.327-
  20  0.875  0.750  0.327-
  21  0.625  0.750  0.452-
  22  0.875  0.000  0.452-
  23  0.625  1.000  0.576-
  24  0.875  0.750  0.576-
  25  0.625  0.250  0.203-
  26  0.875  0.500  0.203-
  27  0.625  0.500  0.327-
  28  0.875  0.250  0.327-
  29  0.625  0.250  0.452-
  30  0.875  0.500  0.452-
  31  0.625  0.500  0.576-
  32  0.875  0.250  0.576-
  33  0.125  0.750  0.327-
  34  0.375  0.000  0.327-
  35  0.125  0.000  0.203-
  36  0.375  0.750  0.203-
  37  0.125  0.750  0.578-
  38  0.375  0.000  0.579-
  39  0.125  1.000  0.452-
  40  0.375  0.750  0.452-
  41  0.125  0.250  0.327-
  42  0.375  0.500  0.327-
  43  0.125  0.500  0.203-
  44  0.375  0.250  0.203-
  45  0.125  0.250  0.578-
  46  0.375  0.500  0.578-
  47  0.125  0.500  0.452-
  48  0.375  0.250  0.452-
  49  0.625  0.750  0.327-
  50  0.875  0.000  0.327-
  51  0.625  0.000  0.203-
  52  0.875  0.750  0.203-
  53  0.625  0.750  0.578-
  54  0.875  0.000  0.579-
  55  0.625  1.000  0.452-
  56  0.875  0.750  0.452-
  57  0.625  0.250  0.327-
  58  0.875  0.500  0.327-
  59  0.625  0.500  0.203-
  60  0.875  0.250  0.203-
  61  0.625  0.250  0.578-
  62  0.875  0.500  0.578-
  63  0.625  0.500  0.452-
  64  0.875  0.250  0.452-

IMPORTANT INFORMATION: All symmetrisations will be switched off!
NOSYMM: (Re-)initialisation of all symmetry stuff for point group C_1.

                                     Primitive cell

  volume of cell :    1211.2538

  direct lattice vectors                    reciprocal lattice vectors
     8.440984654  0.000000000  0.000000000     0.118469591  0.000000000  0.000000000
     0.000000000  8.440984654  0.000000000     0.000000000  0.118469591  0.000000000
     0.000000000  0.000000000 17.000000000     0.000000000  0.000000000  0.058823529

  length of vectors
     8.440984654  8.440984654 17.000000000     0.118469591  0.118469591  0.058823529

  position of ions in fractional coordinates (direct lattice)
     0.124874701  0.750000001  0.202819599
     0.374874701  0.000000001  0.202819599
     0.124874701  0.000000001  0.326951726
     0.374874701  0.750000001  0.326951726
     0.124874704  0.750032169  0.451932988
     0.374867470  0.999999999  0.451925450
     0.124874712  0.999999992  0.575783509
     0.374991216  0.750097341  0.575612586
     0.124874701  0.250000001  0.202819599
     0.374874701  0.500000001  0.202819599
     0.124874701  0.500000001  0.326951726
     0.374874701  0.250000001  0.326951726
     0.124874708  0.249967823  0.451932992
     0.374983146  0.500000002  0.451948183
     0.124874712  0.499999995  0.575568334
     0.374991205  0.249902632  0.575612581
     0.624874701  0.750000001  0.202819599
     0.874874701  0.000000001  0.202819599
     0.624874701  0.000000001  0.326951726
     0.874874701  0.750000001  0.326951726
     0.624874696  0.749901113  0.451984522
     0.874881955  0.000000006  0.451925445
     0.624874708  0.999999999  0.575658965
     0.874758227  0.750097345  0.575612601
     0.624874701  0.250000001  0.202819599
     0.874874701  0.500000001  0.202819599
     0.624874701  0.500000001  0.326951726
     0.874874701  0.250000001  0.326951726
     0.624874702  0.250098875  0.451984502
     0.874766288  0.499999992  0.451948190
     0.624874715  0.499999989  0.576325730
     0.874758224  0.249902626  0.575612601
     0.124874701  0.750000001  0.326951726
     0.374874701  0.000000001  0.326951726
     0.124874701  0.000000001  0.202819599
     0.374874701  0.750000001  0.202819599
     0.124874712  0.750041777  0.578461591
     0.374814565  0.000000004  0.578506137
     0.124874716  0.999999982  0.451658755
     0.374798799  0.750012793  0.451587177
     0.124874701  0.250000001  0.326951726
     0.374874701  0.500000001  0.326951726
     0.124874701  0.500000001  0.202819599
     0.374874701  0.250000001  0.202819599
     0.124874718  0.249958210  0.578461567
     0.374624152  0.499999983  0.578487550
     0.124874718  0.500000004  0.451540272
     0.374798803  0.249987199  0.451587172
     0.624874701  0.750000001  0.326951726
     0.874874701  0.000000001  0.326951726
     0.624874701  0.000000001  0.202819599
     0.874874701  0.750000001  0.202819599
     0.624874705  0.750141603  0.578186521
     0.874934875  0.000000005  0.578506145
     0.624874715  0.999999988  0.451528368
     0.874950615  0.750012792  0.451587179
     0.624874701  0.250000001  0.326951726
     0.874874701  0.500000001  0.326951726
     0.624874701  0.500000001  0.202819599
     0.874874701  0.250000001  0.202819599
     0.624874705  0.249858389  0.578186513
     0.875125299  0.499999988  0.578487554
     0.624874718  0.499999993  0.451751169
     0.874950602  0.249987190  0.451587179

  ion indices of the primitive-cell ions
   primitive index   ion index
                 1           1
                 2           2
                 3           3
                 4           4
                 5           5
                 6           6
                 7           7
                 8           8
                 9           9
                10          10
                11          11
                12          12
                13          13
                14          14
                15          15
                16          16
                17          17
                18          18
                19          19
                20          20
                21          21
                22          22
                23          23
                24          24
                25          25
                26          26
                27          27
                28          28
                29          29
                30          30
                31          31
                32          32
                33          33
                34          34
                35          35
                36          36
                37          37
                38          38
                39          39
                40          40
                41          41
                42          42
                43          43
                44          44
                45          45
                46          46
                47          47
                48          48
                49          49
                50          50
                51          51
                52          52
                53          53
                54          54
                55          55
                56          56
                57          57
                58          58
                59          59
                60          60
                61          61
                62          62
                63          63
                64          64

 KPOINTS: pymatgen v2020.8.13 with grid density =

Automatic generation of k-mesh.
 Grid dimensions read from file:
 generate k-points for:    2    2    1

 Generating k-lattice:

  Cartesian coordinates                     Fractional coordinates (reciprocal lattice)
     0.059234796  0.000000000  0.000000000     0.500000000  0.000000000  0.000000000
     0.000000000  0.059234796  0.000000000     0.000000000  0.500000000  0.000000000
     0.000000000  0.000000000  0.058823529     0.000000000  0.000000000  1.000000000

  Length of vectors
     0.059234796  0.059234796  0.058823529

  Shift w.r.t. Gamma in fractional coordinates (k-lattice)
     0.000000000  0.000000000  0.000000000

 Subroutine IBZKPT returns following result:

 Found      4 irreducible k-points:

 Following reciprocal coordinates:
            Coordinates               Weight
  0.000000  0.000000  0.000000      1.000000
  0.500000  0.000000  0.000000      1.000000
  0.000000  0.500000  0.000000      1.000000
  0.500000  0.500000  0.000000      1.000000

 Following cartesian coordinates:
            Coordinates               Weight
  0.000000  0.000000  0.000000      1.000000
  0.059235  0.000000  0.000000      1.000000
  0.000000  0.059235  0.000000      1.000000
  0.059235  0.059235  0.000000      1.000000

 SYSTEM =  Oxide-Surface
 POSCAR =  Mg  O

  energy-cutoff  :     1000.00
  volume of cell :     1211.25
[...]
   7.38480393  4.22049234  5.55817934
   5.27455776  4.22049234  3.44793318
   7.38480393  2.11024617  3.44793318
   5.27455780  2.10905083  9.82917072
   7.38691922  4.22049223  9.83428842
   5.27455790  4.22049227  7.67976987
   7.38544461  2.11013803  7.67698204

--------------------------------------- Iteration      FINAL  ---------------------------------------

--------------------OUTCAR has been truncated-------------------------

[...]

--------------------OUTCAR has been truncated-------------------------

  FORCE on cell =-STRESS in cart. coord.  units (eV):
  Direction    XX          YY          ZZ          XY          YZ          ZX
  Alpha Z  1191.54525  1191.54525  1191.54525
  Ewald  112354.16371112354.11753************    -0.00000    -0.00002     0.00005
  Hartree128928.21545128928.19577************     0.00000    -0.00002     0.00040
  E(xc)   -3223.71139 -3223.71204 -3229.85721    -0.00000    -0.00000    -0.00002
  Local  ************************251082.54315    -0.00000     0.00005    -0.00060
  n-local -5620.30190 -5620.30861 -5620.73458    -0.00000     0.00000     0.04828
  augment   724.12159   724.02447   714.72157     0.00000     0.00000    -0.00069
  Kinetic 12493.01165 12493.00139 12510.40658     0.00001     0.00000     0.00289
  Fock        0.00000     0.00000     0.00000     0.00000     0.00000     0.00000
  Total     -15.55197   -15.67482     7.88760     0.00000     0.00001     0.05030
  in kB     -20.57126   -20.73376    10.43327     0.00001     0.00001     0.06653

 VOLUME and BASIS-vectors are now :
  energy-cutoff  :     1000.00
  volume of cell :     1211.25
      direct lattice vectors                 reciprocal lattice vectors
     8.440984654  0.000000000  0.000000000     0.118469591  0.000000000  0.000000000
     0.000000000  8.440984654  0.000000000     0.000000000  0.118469591  0.000000000
     0.000000000  0.000000000 17.000000000     0.000000000  0.000000000  0.058823529

  length of vectors
     8.440984654  8.440984654 17.000000000     0.118469591  0.118469591  0.058823529

 FORCES acting on ions
    electron-ion (+dipol)            ewald-force                    non-local-force                 convergence-correction
   -.234E-02 0.187E-01 0.245E+04   -.359E-05 -.181E-01 -.244E+04   0.316E-02 -.472E-03 -.916E+01   -.553E-04 0.507E-04 -.404E-02
   -.157E-01 -.409E-04 0.245E+04   0.155E-01 -.293E-05 -.244E+04   -.251E-02 -.196E-04 -.916E+01   -.619E-04 0.450E-04 -.403E-02
   -.465E-03 -.113E-04 0.811E+03   -.686E-05 0.528E-05 -.812E+03   0.290E-02 0.880E-06 0.694E+00   -.299E-04 0.742E-05 0.212E-02
   -.146E+00 0.132E+00 0.811E+03   0.145E+00 -.132E+00 -.812E+03   0.432E-03 -.450E-05 0.679E+00   0.187E-04 -.107E-04 0.212E-02
   -.128E-02 0.226E+00 -.821E+03   -.277E-04 -.216E+00 0.821E+03   -.122E-02 -.108E-01 -.352E+00   0.444E-04 -.434E-04 0.401E-02
   -.242E-01 0.224E-04 -.821E+03   0.108E-01 -.279E-04 0.821E+03   0.931E-02 -.376E-05 -.312E+00   -.284E-06 0.839E-05 0.417E-02
   -.310E-03 0.322E-04 -.243E+04   0.268E-04 -.270E-04 0.243E+04   0.207E-02 -.909E-05 0.776E+01   -.177E-05 -.472E-05 -.408E-02
   0.367E+00 0.633E+00 -.243E+04   -.423E+00 -.604E+00 0.242E+04   0.303E-01 -.345E-01 0.776E+01   0.515E-04 0.508E-04 -.416E-02
   -.239E-02 -.187E-01 0.245E+04   -.321E-05 0.181E-01 -.244E+04   0.314E-02 0.500E-03 -.916E+01   0.108E-04 -.618E-04 -.403E-02
   -.350E-01 0.546E-04 0.245E+04   0.360E-01 0.275E-05 -.244E+04   -.369E-02 0.217E-04 -.916E+01   0.436E-05 -.655E-04 -.394E-02
   -.475E-03 0.396E-04 0.811E+03   -.208E-04 -.640E-05 -.812E+03   0.291E-02 0.159E-04 0.650E+00   -.141E-04 -.513E-04 0.212E-02
   -.146E+00 -.132E+00 0.811E+03   0.145E+00 0.132E+00 -.812E+03   0.468E-03 -.130E-04 0.679E+00   -.436E-04 0.562E-04 0.211E-02
   -.122E-02 -.226E+00 -.821E+03   -.456E-04 0.216E+00 0.821E+03   -.118E-02 0.108E-01 -.352E+00   -.343E-04 0.778E-04 0.399E-02
   -.356E+00 0.279E-04 -.821E+03   0.390E+00 -.959E-05 0.822E+03   -.364E-01 -.201E-06 -.338E+00   -.524E-04 -.211E-04 0.408E-02
   -.380E-03 0.148E-04 -.243E+04   0.478E-04 0.228E-05 0.242E+04   0.582E-03 0.131E-04 0.770E+01   -.367E-04 -.358E-04 -.405E-02
   0.367E+00 -.633E+00 -.243E+04   -.423E+00 0.604E+00 0.242E+04   0.303E-01 0.345E-01 0.776E+01   0.592E-04 -.433E-04 -.414E-02
   -.239E-02 0.379E-01 0.245E+04   0.401E-05 -.386E-01 -.244E+04   0.315E-02 0.680E-03 -.916E+01   -.321E-05 -.240E-04 -.407E-02
   0.163E-01 -.303E-04 0.245E+04   -.155E-01 -.353E-05 -.244E+04   -.359E-02 -.336E-04 -.916E+01   0.826E-04 0.541E-04 -.398E-02
   -.549E-03 0.335E-04 0.811E+03   0.888E-05 -.335E-04 -.812E+03   0.291E-02 0.212E-04 0.650E+00   0.272E-04 -.233E-04 0.216E-02
   0.148E+00 0.132E+00 0.811E+03   -.145E+00 -.132E+00 -.812E+03   -.208E-02 0.268E-04 0.679E+00   -.201E-04 -.389E-04 0.212E-02
   -.150E-02 0.498E+00 -.820E+03   0.102E-03 -.542E+00 0.821E+03   -.123E-02 0.415E-01 -.419E+00   0.649E-04 0.609E-04 0.410E-02
   0.251E-01 0.768E-04 -.821E+03   -.108E-01 -.780E-04 0.821E+03   -.141E-01 -.123E-05 -.313E+00   -.547E-04 0.151E-05 0.416E-02
   -.464E-03 0.108E-04 -.243E+04   0.653E-04 -.177E-04 0.242E+04   0.594E-03 -.218E-04 0.777E+01   0.303E-04 0.362E-04 -.409E-02
   -.362E+00 0.633E+00 -.243E+04   0.423E+00 -.604E+00 0.242E+04   -.355E-01 -.340E-01 0.776E+01   -.731E-04 0.587E-04 -.415E-02
   -.238E-02 -.378E-01 0.245E+04   0.331E-05 0.386E-01 -.244E+04   0.313E-02 -.700E-03 -.916E+01   -.692E-06 0.410E-05 -.412E-02
   0.356E-01 0.296E-05 0.245E+04   -.360E-01 0.327E-05 -.244E+04   -.242E-02 0.842E-05 -.916E+01   -.280E-05 -.356E-05 -.396E-02
   -.552E-03 -.260E-04 0.810E+03   0.259E-04 0.323E-04 -.811E+03   0.290E-02 -.145E-04 0.714E+00   0.292E-04 0.909E-05 0.215E-02
   0.148E+00 -.132E+00 0.811E+03   -.145E+00 0.132E+00 -.812E+03   -.211E-02 -.246E-04 0.679E+00   0.303E-04 0.350E-04 0.210E-02
   -.141E-02 -.498E+00 -.820E+03   0.442E-04 0.542E+00 0.821E+03   -.121E-02 -.415E-01 -.419E+00   0.131E-04 -.528E-04 0.406E-02
   0.357E+00 0.227E-04 -.821E+03   -.390E+00 0.106E-04 0.822E+03   0.316E-01 0.213E-04 -.338E+00   0.267E-04 -.523E-04 0.407E-02
   -.325E-03 -.670E-05 -.244E+04   0.538E-04 0.590E-05 0.243E+04   0.927E-03 0.108E-04 0.792E+01   -.714E-05 -.679E-05 -.425E-02
   -.362E+00 -.633E+00 -.243E+04   0.423E+00 0.604E+00 0.242E+04   -.355E-01 0.341E-01 0.776E+01   -.227E-04 -.597E-04 -.416E-02
   0.686E-03 0.268E-01 0.486E+03   -.960E-05 -.336E-01 -.486E+03   -.194E-02 0.886E-02 -.868E-01   0.137E-04 0.213E-04 -.277E-02
   -.889E-02 0.156E-04 0.486E+03   0.137E-01 -.703E-05 -.486E+03   -.652E-02 0.261E-05 -.850E-01   -.508E-04 -.935E-05 -.279E-02
   0.587E-04 0.297E-04 0.148E+04   -.141E-05 -.594E-06 -.149E+04   -.131E-02 -.116E-04 0.262E+01   -.148E-05 -.175E-04 -.345E-02
   -.171E-01 0.171E-01 0.148E+04   0.162E-01 -.171E-01 -.149E+04   0.170E-02 0.406E-04 0.261E+01   -.249E-04 0.141E-04 -.344E-02
   0.143E-04 0.327E+00 -.149E+04   0.356E-04 -.346E+00 0.150E+04   0.673E-04 0.193E-01 -.470E+01   0.305E-04 0.782E-04 -.400E-02
   -.784E-01 0.715E-04 -.149E+04   0.363E-01 -.534E-04 0.150E+04   0.615E-01 0.790E-05 -.468E+01   -.462E-04 -.244E-04 -.406E-02
   0.933E-03 -.187E-04 -.487E+03   -.160E-04 0.111E-04 0.487E+03   0.120E-02 0.426E-05 0.232E+00   0.238E-04 0.438E-05 -.141E-02
   -.110E+00 0.230E+00 -.486E+03   0.102E+00 -.235E+00 0.486E+03   0.150E-01 0.606E-02 0.293E+00   0.264E-05 0.632E-05 -.137E-02
   0.702E-03 -.268E-01 0.486E+03   -.102E-04 0.336E-01 -.486E+03   -.194E-02 -.887E-02 -.868E-01   -.449E-07 0.124E-04 -.274E-02
   -.105E+00 -.271E-06 0.486E+03   0.922E-01 0.482E-05 -.486E+03   0.164E-01 0.952E-05 -.859E-01   0.297E-05 -.123E-04 -.284E-02
   0.727E-04 -.164E-04 0.148E+04   -.255E-05 0.488E-06 -.149E+04   -.131E-02 0.863E-05 0.262E+01   -.118E-04 0.782E-05 -.349E-02
   -.171E-01 -.171E-01 0.148E+04   0.162E-01 0.171E-01 -.149E+04   0.172E-02 -.458E-04 0.261E+01   -.626E-04 0.621E-05 -.345E-02
   0.917E-04 -.327E+00 -.149E+04   0.115E-05 0.346E+00 0.150E+04   0.982E-04 -.193E-01 -.470E+01   -.382E-04 -.494E-04 -.406E-02
   -.379E+00 -.155E-04 -.149E+04   0.306E+00 0.134E-05 0.149E+04   0.112E+00 -.485E-05 -.461E+01   0.721E-04 0.164E-04 -.415E-02
   0.109E-02 0.388E-04 -.486E+03   -.846E-05 -.123E-04 0.486E+03   -.941E-03 0.132E-04 0.311E+00   -.790E-06 -.371E-04 -.144E-02
   -.110E+00 -.230E+00 -.486E+03   0.102E+00 0.235E+00 0.486E+03   0.150E-01 -.606E-02 0.293E+00   0.233E-04 0.212E-04 -.139E-02
   0.693E-03 0.119E+00 0.486E+03   0.156E-04 -.108E+00 -.485E+03   -.195E-02 -.145E-01 -.858E-01   -.593E-05 -.394E-04 -.269E-02
   0.714E-02 0.101E-04 0.486E+03   -.137E-01 -.127E-04 -.486E+03   0.839E-02 -.254E-05 -.850E-01   0.468E-04 0.412E-05 -.281E-02
   0.594E-04 -.104E-04 0.148E+04   0.155E-05 -.334E-05 -.149E+04   -.132E-02 -.409E-05 0.262E+01   0.484E-05 0.167E-04 -.355E-02
   0.154E-01 0.171E-01 0.148E+04   -.162E-01 -.171E-01 -.149E+04   0.134E-02 0.449E-04 0.261E+01   0.562E-04 -.184E-04 -.346E-02
   0.295E-04 0.456E+00 -.149E+04   0.643E-04 -.438E+00 0.149E+04   0.130E-02 -.340E-01 -.450E+01   -.236E-04 0.209E-04 -.416E-02
   0.750E-01 0.348E-04 -.149E+04   -.364E-01 -.652E-04 0.150E+04   -.506E-01 -.881E-05 -.468E+01   0.211E-04 0.347E-04 -.405E-02
   0.104E-02 0.361E-04 -.486E+03   0.304E-04 -.168E-04 0.486E+03   -.935E-03 0.143E-05 0.313E+00   0.222E-04 -.195E-04 -.143E-02
   0.109E+00 0.230E+00 -.486E+03   -.102E+00 -.235E+00 0.486E+03   -.113E-01 0.479E-02 0.293E+00   -.758E-04 0.590E-05 -.140E-02
   0.677E-03 -.119E+00 0.486E+03   0.923E-05 0.108E+00 -.485E+03   -.195E-02 0.145E-01 -.859E-01   0.168E-04 0.470E-04 -.265E-02
   0.103E+00 -.113E-04 0.486E+03   -.923E-01 0.908E-05 -.486E+03   -.145E-01 0.438E-05 -.859E-01   -.403E-04 -.197E-05 -.281E-02
   0.517E-04 0.192E-05 0.148E+04   0.276E-05 0.323E-05 -.149E+04   -.132E-02 0.275E-05 0.262E+01   0.798E-05 -.781E-05 -.347E-02
   0.154E-01 -.171E-01 0.148E+04   -.162E-01 0.171E-01 -.149E+04   0.135E-02 -.338E-04 0.261E+01   0.285E-04 -.803E-05 -.348E-02
   0.211E-04 -.456E+00 -.149E+04   0.330E-04 0.438E+00 0.149E+04   0.129E-02 0.341E-01 -.450E+01   0.191E-04 -.298E-04 -.415E-02
   0.375E+00 0.351E-04 -.149E+04   -.306E+00 -.743E-05 0.149E+04   -.983E-01 0.900E-05 -.461E+01   -.320E-04 -.346E-04 -.409E-02
   0.827E-03 -.166E-04 -.489E+03   0.386E-04 0.143E-04 0.489E+03   0.168E-02 0.576E-05 0.143E+00   -.109E-04 -.110E-05 -.145E-02
   0.109E+00 -.230E+00 -.486E+03   -.102E+00 0.235E+00 0.486E+03   -.113E-01 -.480E-02 0.293E+00   -.431E-05 0.313E-04 -.138E-02
   -.108E-01 -.279E-04 0.232E+02   -.244E-12 0.681E-13 0.398E-12   0.204E-01 -.592E-05 -.231E+02   -.589E-04 -.482E-05 -.110E+00

 POSITION                                       TOTAL-FORCE (eV/Angst)
      1.05407      6.33074      3.44793         0.000621      0.000124      0.313998
      3.16431      0.00000      3.44793        -0.003006     -0.000018      0.310168
      1.05407      0.00000      5.55818         0.002250      0.000003      0.035196
      3.16431      6.33074      5.55818        -0.000116     -0.000124      0.035863
      1.05407      6.33101      7.68286        -0.002633     -0.000815      0.057244
      3.16425      8.44098      7.68273        -0.004201     -0.000000      0.048818
      1.05407      8.44098      9.78832         0.001641     -0.000008      0.039204
      3.16530      6.33156      9.78541        -0.025665     -0.006254      0.043543
      1.05407      2.11025      3.44793         0.000607     -0.000105      0.314036
      3.16431      4.22049      3.44793        -0.002796      0.000014      0.310151
      1.05407      4.22049      5.55818         0.002249     -0.000002      0.035821
      3.16431      2.11025      5.55818        -0.000121      0.000123      0.035859
      1.05407      2.10997      7.68286        -0.002631      0.000809      0.057243
      3.16523      4.22049      7.68312        -0.002651     -0.000002      0.053974
      1.05407      4.22049      9.78466         0.000065     -0.000005      0.064588
      3.16530      2.10942      9.78541        -0.025665      0.006257      0.043533
      5.27456      6.33074      3.44793         0.000613     -0.000134      0.313948
      7.38480      0.00000      3.44793        -0.002775     -0.000013      0.310159
      5.27456      0.00000      5.55818         0.002252     -0.000001      0.034820
      7.38480      6.33074      5.55818        -0.000011     -0.000124      0.035864
      5.27456      6.32990      7.68374        -0.002705     -0.001848      0.040625
      7.38487      0.00000      7.68273        -0.000033     -0.000000      0.047817
      5.27456      8.44098      9.78620         0.000077      0.000008      0.039651
      7.38382      6.33156      9.78541         0.025146     -0.005796      0.043011
      5.27456      2.11025      3.44793         0.000610      0.000109      0.313903
      7.38480      4.22049      3.44793        -0.003010      0.000012      0.310142
      5.27456      4.22049      5.55818         0.002252      0.000001      0.038155
      7.38480      2.11025      5.55818        -0.000009      0.000122      0.035860
      5.27456      2.11108      7.68374        -0.002708      0.001852      0.040633
      7.38389      4.22049      7.68312        -0.001552      0.000003      0.053909
      5.27456      4.22049      9.79754         0.000500      0.000004     -0.036766
      7.38382      2.10942      9.78541         0.025157      0.005794      0.043018
      1.05407      6.33074      5.55818        -0.001396      0.002049      0.057629
      3.16431      0.00000      5.55818        -0.001915      0.000002      0.053710
      1.05407      0.00000      3.44793        -0.001404      0.000001     -0.553233
      3.16431      6.33074      3.44793         0.000579      0.000009     -0.558699
      1.05407      6.33109      9.83385        -0.000000     -0.000320      0.040959
      3.16380      0.00000      9.83460         0.019286      0.000002      0.040646
      1.05407      8.44098      7.67820         0.001990      0.000002     -0.000202
      3.16367      6.33085      7.67698         0.006467      0.001245      0.008044
      1.05407      2.11025      5.55818        -0.001394     -0.002051      0.057628
      3.16431      4.22049      5.55818         0.003340      0.000002      0.055095
      1.05407      4.22049      3.44793        -0.001404      0.000001     -0.553082
      3.16431      2.11025      3.44793         0.000584     -0.000011     -0.558716
      1.05407      2.10989      9.83385         0.000005      0.000317      0.040963
      3.16220      4.22049      9.83429         0.039042     -0.000002      0.052865
      1.05407      4.22049      7.67618        -0.000006      0.000003      0.016634
      3.16367      2.11014      7.67698         0.006463     -0.001244      0.008047
      5.27456      6.33074      5.55818        -0.001393     -0.003257      0.061407
      7.38480      0.00000      5.55818         0.001726     -0.000000      0.053708
      5.27456      0.00000      3.44793        -0.001406     -0.000001     -0.553115
      7.38480      6.33074      3.44793         0.000490      0.000012     -0.558706
      5.27456      6.33193      9.82917         0.001227     -0.015565      0.090473
      7.38531      0.00000      9.83460        -0.012160     -0.000004      0.040622
      5.27456      8.44098      7.67598         0.000013      0.000002      0.023561
      7.38544      6.33085      7.67698        -0.004403     -0.000024      0.007925
      5.27456      2.11025      5.55818        -0.001394      0.003258      0.061402
      7.38480      4.22049      5.55818        -0.003528      0.000001      0.055090
      5.27456      4.22049      3.44793        -0.001405      0.000001     -0.553326
      7.38480      2.11025      3.44793         0.000492     -0.000008     -0.558710
      5.27456      2.10905      9.82917         0.001220      0.015564      0.090476
      7.38692      4.22049      9.83429        -0.029450      0.000003      0.054124
      5.27456      4.22049      7.67977         0.002390      0.000003      0.004872
      7.38544      2.11014      7.67698        -0.004408      0.000024      0.007922
    total drift:                                0.009464     -0.000039      0.031172

  FREE ENERGIE OF THE ION-ELECTRON SYSTEM (eV)
  free  energy   TOTEN  =      -372.63350480 eV

  energy  without entropy=     -372.63350480  energy(sigma->0) =     -372.63350480

     |            E. Caldeweyher, S. Ehlert & S. Grimme          |
     |          Mulliken Center for Theoretical Chemistry        |
     |                    University of Bonn                     |

Rational (Becke-Johnson) damping: hse06-D4-ATM
  s6         1.0000
  s8         1.1953
  s9         1.0000
  a1         0.3866
  a2         5.1913
 alp        16.0000

Dispersion energy:      -2.6846189383620E-01 Eh