 vasp.6.3.0 20Jan22 (build Apr  1 2022 16:44:48) complex
 executed on        HPECrayEX_GCC date 2022.11.13  01:18:25

 INCAR:
   SYSTEM = MgO-rocksalt
   ISMEAR = 0
   SIGMA = 0.05
   EDIFF = 1E-6
   ALGO = ALL
   ISTART = 0
   IBRION = -1
   NSW = 0
   ISYM = 0
   DIPOL = 0.5 0.5 0.5
   IDIPOL = 3
   LDIPOL = .TRUE.
   LHFCALC = .TRUE.
   GGA = B5
   AEXX = 0.2
   AGGAX = 0.72
   AGGAC = 0.81
   ALDAC = 0.19
   IVDW = 1
   VDW_S6 = 1.05
   VDW_C6 = 0.63 0.70
   VDW_R0 = 1.243 1.342
   ENCUT = 600
   PREC = Accurate
   LASPH = .TRUE.
   LREAL = .FALSE.
   ISPIN = 1
   NELM = 200
   NELMIN = 8
   NCORE = 8
   KPAR = 1
   LWAVE = .FALSE.
   LCHARG = .FALSE.

 POTCAR:    PAW_PBE Mg_pv 13Apr2007
 POTCAR:    PAW_PBE O 08Apr2002
 POTCAR:    PAW_PBE Mg_pv 13Apr2007
   VRHFIN =Mg: p6s2

   TITEL  = PAW_PBE Mg_pv 13Apr2007
   POMASS =   24.305; ZVAL   =    8.000    mass and valenz
   ENMAX  =  403.929; ENMIN  =  302.947 eV

   TITEL  = PAW_PBE O 08Apr2002
   POMASS =   16.000; ZVAL   =    6.000    mass and valenz
   ENMAX  =  400.000; ENMIN  =  300.000 eV

  PAW_PBE Mg_pv 13Apr2007               :
  PAW_PBE O 08Apr2002                   :

 POSCAR: Mg  O
  positions in direct lattice
 exchange correlation table for  LEXCH =       12
   RHO(1)=    0.500       N(1)  =     2000
   RHO(2)=  100.500       N(2)  =     4000

 ion  position               nearest neighbor table
   1  0.000  0.750  0.352-  33 2.11  35 2.11  36 2.11  43 2.11  52 2.11
   2  0.250  0.000  0.352-  34 2.11  35 2.11  36 2.11  44 2.11  51 2.11
   3  0.000  0.000  0.451-  35 2.11  34 2.11  33 2.11  41 2.11  50 2.11  39 2.12
   4  0.250  0.750  0.451-  36 2.11  34 2.11  33 2.11  42 2.11  49 2.11  40 2.12
   5  1.000  0.750  0.550-  56 2.11  47 2.11  39 2.11  40 2.11  33 2.12  37 2.15
   6  0.250  0.000  0.550-  55 2.11  40 2.11  48 2.11  39 2.11  34 2.12  38 2.15
   7  0.000  0.000  0.648-  39 2.10  38 2.11  54 2.11  37 2.11  45 2.11
   8  0.250  0.750  0.648-  40 2.10  37 2.11  53 2.11  46 2.11  38 2.11
   9  0.000  0.250  0.352-  41 2.11  35 2.11  43 2.11  44 2.11  60 2.11
  10  0.250  0.500  0.352-  42 2.11  36 2.11  43 2.11  44 2.11  59 2.11
  11  0.000  0.500  0.451-  43 2.11  41 2.11  42 2.11  33 2.11  58 2.11  47 2.12
  12  0.250  0.250  0.451-  44 2.11  41 2.11  42 2.11  34 2.11  57 2.11  48 2.12
  13  1.000  0.250  0.550-  64 2.11  47 2.11  39 2.11  48 2.11  41 2.12  45 2.15
  14  0.250  0.500  0.550-  63 2.11  48 2.11  40 2.11  47 2.11  42 2.12  46 2.15
  15  0.000  0.500  0.648-  47 2.10  46 2.11  62 2.11  45 2.11  37 2.11
  16  0.250  0.250  0.648-  48 2.10  45 2.11  61 2.11  38 2.11  46 2.11
  17  0.500  0.750  0.352-  49 2.11  36 2.11  51 2.11  52 2.11  59 2.11
  18  0.750  0.000  0.352-  50 2.11  35 2.11  51 2.11  52 2.11  60 2.11
  19  0.500  0.000  0.451-  51 2.11  49 2.11  50 2.11  34 2.11  57 2.11  55 2.12
  20  0.750  0.750  0.451-  52 2.11  49 2.11  50 2.11  33 2.11  58 2.11  56 2.12
  21  0.500  0.750  0.550-  56 2.11  63 2.11  55 2.11  40 2.11  49 2.13  53 2.15
  22  0.750  0.000  0.550-  55 2.11  64 2.11  56 2.11  39 2.11  50 2.13  54 2.15
  23  0.500  0.001  0.649-  61 2.11  53 2.11  38 2.11  54 2.12  55 2.12
  24  0.750  0.751  0.649-  54 2.11  62 2.11  37 2.11  53 2.12  56 2.12
  25  0.500  0.250  0.352-  57 2.11  51 2.11  44 2.11  59 2.11  60 2.11
  26  0.750  0.500  0.352-  58 2.11  52 2.11  43 2.11  59 2.11  60 2.11
  27  0.500  0.500  0.451-  59 2.11  49 2.11  57 2.11  58 2.11  42 2.11  63 2.12
  28  0.750  0.250  0.451-  60 2.11  50 2.11  57 2.11  58 2.11  41 2.11  64 2.12
  29  0.500  0.250  0.550-  64 2.11  63 2.11  55 2.11  48 2.11  57 2.13  61 2.15
  30  0.750  0.500  0.550-  63 2.11  56 2.11  64 2.11  47 2.11  58 2.13  62 2.15
  31  0.500  0.501  0.649-  53 2.11  61 2.11  46 2.11  62 2.12  63 2.12
  32  0.750  0.251  0.649-  62 2.11  54 2.11  45 2.11  61 2.12  64 2.12
  33  0.000  0.750  0.451-   1 2.11   3 2.11   4 2.11  11 2.11  20 2.11   5 2.12
  34  0.250  0.000  0.451-   2 2.11   3 2.11   4 2.11  12 2.11  19 2.11   6 2.12
  35  0.000  0.000  0.352-   3 2.11   2 2.11   1 2.11   9 2.11  18 2.11
  36  0.250  0.750  0.352-   4 2.11   2 2.11   1 2.11  10 2.11  17 2.11
  37  0.001  0.750  0.651-   8 2.11   7 2.11  15 2.11  24 2.11   5 2.15
  38  0.249  0.000  0.651-   7 2.11  16 2.11   8 2.11  23 2.11   6 2.15
  39  1.000  0.000  0.550-   7 2.10  13 2.11   5 2.11  22 2.11   6 2.11   3 2.12
  40  0.250  0.750  0.550-   8 2.10   6 2.11  14 2.11  21 2.11   5 2.11   4 2.12
  41  0.000  0.250  0.451-   9 2.11   3 2.11  11 2.11  12 2.11  28 2.11  13 2.12
  42  0.250  0.500  0.451-  10 2.11   4 2.11  11 2.11  12 2.11  27 2.11  14 2.12
  43  0.000  0.500  0.352-  11 2.11   9 2.11  10 2.11   1 2.11  26 2.11
  44  0.250  0.250  0.352-  12 2.11   9 2.11  10 2.11   2 2.11  25 2.11
  45  0.001  0.250  0.651-  16 2.11  15 2.11   7 2.11  32 2.11  13 2.15
  46  0.249  0.500  0.651-  15 2.11   8 2.11  16 2.11  31 2.11  14 2.15
  47  1.000  0.500  0.550-  15 2.10   5 2.11  13 2.11  30 2.11  14 2.11  11 2.12
  48  0.250  0.250  0.550-  16 2.10   6 2.11  14 2.11  29 2.11  13 2.11  12 2.12
  49  0.500  0.750  0.451-  17 2.11   4 2.11  19 2.11  20 2.11  27 2.11  21 2.13
  50  0.750  0.000  0.451-  18 2.11   3 2.11  19 2.11  20 2.11  28 2.11  22 2.13
  51  0.500  0.000  0.352-  19 2.11  17 2.11  18 2.11   2 2.11  25 2.11
  52  0.750  0.750  0.352-  20 2.11  17 2.11  18 2.11   1 2.11  26 2.11
  53  0.500  0.750  0.651-   8 2.11  31 2.11  23 2.11  24 2.12  21 2.15
  54  0.750  0.000  0.651-  24 2.11   7 2.11  32 2.11  23 2.12  22 2.15
  55  0.500  0.000  0.550-  22 2.11   6 2.11  21 2.11  29 2.11  23 2.12  19 2.12
  56  0.750  0.750  0.550-  21 2.11   5 2.11  30 2.11  22 2.11  24 2.12  20 2.12
  57  0.500  0.250  0.451-  25 2.11  19 2.11  12 2.11  27 2.11  28 2.11  29 2.13
  58  0.750  0.500  0.451-  26 2.11  20 2.11  11 2.11  27 2.11  28 2.11  30 2.13
  59  0.500  0.500  0.352-  27 2.11  17 2.11  25 2.11  26 2.11  10 2.11
  60  0.750  0.250  0.352-  28 2.11  18 2.11  25 2.11  26 2.11   9 2.11
  61  0.500  0.250  0.651-  16 2.11  23 2.11  31 2.11  32 2.12  29 2.15
  62  0.750  0.500  0.651-  32 2.11  15 2.11  24 2.11  31 2.12  30 2.15
  63  0.500  0.500  0.550-  30 2.11  14 2.11  29 2.11  21 2.11  31 2.12  27 2.12
  64  0.750  0.250  0.550-  29 2.11  13 2.11  22 2.11  30 2.11  32 2.12  28 2.12

IMPORTANT INFORMATION: All symmetrisations will be switched off!
NOSYMM: (Re-)initialisation of all symmetry stuff for point group C_1.

                                     Primitive cell

  volume of cell :    1519.8199

  direct lattice vectors                    reciprocal lattice vectors
     8.440984654  0.000000000  0.000000000     0.118469591  0.000000000  0.000000000
     0.000000000  8.440984654  0.000000000     0.000000000  0.118469591  0.000000000
     0.000000000  0.000000000 21.330738491     0.000000000  0.000000000  0.046880702

  length of vectors
     8.440984654  8.440984654 21.330738491     0.118469591  0.118469591  0.046880702

  position of ions in fractional coordinates (direct lattice)
     0.000000000  0.750000000  0.351605267
     0.250000000  0.000000000  0.351605267
     0.000000000  0.000000000  0.450535089
     0.250000000  0.750000000  0.450535089
     0.999835129  0.750167077  0.550083385
     0.250132997  0.000181724  0.550072802
     0.000099849  0.000335666  0.648440958
     0.249867582  0.750310305  0.648424451
     0.000000000  0.250000000  0.351605267
     0.250000000  0.500000000  0.351605267
     0.000000000  0.500000000  0.450535089
     0.250000000  0.250000000  0.450535089
     0.999835226  0.250201077  0.550083778
     0.250145338  0.500182231  0.550069492
     0.000110371  0.500337423  0.648436087
     0.249867243  0.250351611  0.648424686
     0.500000000  0.750000000  0.351605267
     0.750000000  0.000000000  0.351605267
     0.500000000  0.000000000  0.450535089
     0.750000000  0.750000000  0.450535089
     0.500198817  0.750206788  0.550283044
     0.749781363  0.000222660  0.550291264
     0.499687321  0.000543323  0.649261292
     0.750233724  0.750535558  0.649309461
     0.500000000  0.250000000  0.351605267
     0.750000000  0.500000000  0.351605267
     0.500000000  0.500000000  0.450535089
     0.750000000  0.250000000  0.450535089
     0.500198756  0.250238114  0.550283584
     0.749773200  0.500221794  0.550284807
     0.499677713  0.500545028  0.649283781
     0.750233280  0.250550413  0.649309929
     0.000000000  0.750000000  0.450535089
     0.250000000  0.000000000  0.450535089
     0.000000000  0.000000000  0.351605267
     0.250000000  0.750000000  0.351605267
     0.000510852  0.750389798  0.650806738
     0.249441857  0.000387340  0.650735577
     0.999901573  0.000186798  0.549799584
     0.250055055  0.750189924  0.549792876
     0.000000000  0.250000000  0.450535089
     0.250000000  0.500000000  0.450535089
     0.000000000  0.500000000  0.351605267
     0.250000000  0.250000000  0.351605267
     0.000511198  0.250392239  0.650807820
     0.249443187  0.500388743  0.650733295
     0.999899343  0.500186069  0.549807694
     0.250055253  0.250179260  0.549793858
     0.500000000  0.750000000  0.450535089
     0.750000000  0.000000000  0.450535089
     0.500000000  0.000000000  0.351605267
     0.750000000  0.750000000  0.351605267
     0.499671077  0.750406080  0.650994824
     0.750241535  0.000412774  0.650991113
     0.499994468  0.000212142  0.550033471
     0.749993981  0.750211421  0.550040891
     0.500000000  0.250000000  0.450535089
     0.750000000  0.500000000  0.450535089
     0.500000000  0.500000000  0.351605267
     0.750000000  0.250000000  0.351605267
     0.499670325  0.250412997  0.650996074
     0.750239036  0.500414114  0.650995932
     0.499999865  0.500212082  0.550026094
     0.749993748  0.250213015  0.550041623

  ion indices of the primitive-cell ions
   primitive index   ion index
                 1           1
                 2           2
                 3           3
                 4           4
                 5           5
                 6           6
                 7           7
                 8           8
                 9           9
                10          10
                11          11
                12          12
                13          13
                14          14
                15          15
                16          16
                17          17
                18          18
                19          19
                20          20
                21          21
                22          22
                23          23
                24          24
                25          25
                26          26
                27          27
                28          28
                29          29
                30          30
                31          31
                32          32
                33          33
                34          34
                35          35
                36          36
                37          37
                38          38
                39          39
                40          40
                41          41
                42          42
                43          43
                44          44
[...]
   0.25000000  0.50000000  0.45053509
   0.00000000  0.50000000  0.35160527
   0.25000000  0.25000000  0.35160527
   0.00051120  0.25039224  0.65080782
   0.24944319  0.50038874  0.65073330
   0.99989934  0.50018607  0.54980769
   0.25005525  0.25017926  0.54979386
   0.50000000  0.75000000  0.45053509
   0.75000000  0.00000000  0.45053509
   0.50000000  0.00000000  0.35160527
   0.75000000  0.75000000  0.35160527
   0.49967108  0.75040608  0.65099482
   0.75024153  0.00041277  0.65099111
   0.49999447  0.00021214  0.55003347
   0.74999398  0.75021142  0.55004089
   0.50000000  0.25000000  0.45053509
   0.75000000  0.50000000  0.45053509
   0.50000000  0.50000000  0.35160527
   0.75000000  0.25000000  0.35160527
   0.49967033  0.25041300  0.65099607
   0.75023904  0.50041411  0.65099593
   0.49999986  0.50021208  0.55002609
   0.74999375  0.25021302  0.55004162

 position of ions in cartesian coordinates  (Angst):
   0.00000000  6.33073849  7.50000000
   2.11024616  0.00000000  7.50000000
   0.00000000  0.00000000  9.61024616
   2.11024616  6.33073849  9.61024616
   8.43959298  6.33214878 11.73368483
   2.11136879  0.00153393 11.73345908
   0.00084283  0.00283336 13.83172449
   2.10912843  6.33335777 13.83137239
   0.00000000  2.11024616  7.50000000
   2.11024616  4.22049233  7.50000000
   0.00000000  4.22049233  9.61024616
   2.11024616  2.11024616  9.61024616
   8.43959380  2.11194345 11.73369322
   2.11147296  4.22203054 11.73338849
   0.00093164  4.22334051 13.83162060
   2.10912556  2.11321411 13.83137740
   4.22049233  6.33073849  7.50000000
   6.33073849  0.00000000  7.50000000
   4.22049233  0.00000000  9.61024616
   6.33073849  6.33073849  9.61024616
   4.22217054  6.33248398 11.73794371
   6.32889298  0.00187947 11.73811905
   4.21785301  0.00458618 13.84922282
   6.33271135  6.33525913 13.85025031
   4.22049233  2.11024616  7.50000000
   6.33073849  4.22049233  7.50000000
   4.22049233  4.22049233  9.61024616
   6.33073849  2.11024616  9.61024616
   4.22217003  2.11225608 11.73795522
   6.32882408  4.22236449 11.73798131
   4.21777191  4.22509290 13.84970255
   6.33270760  2.11489220 13.85026030
   0.00000000  6.33073849  9.61024616
   2.11024616  0.00000000  9.61024616
   0.00000000  0.00000000  7.50000000
   2.11024616  6.33073849  7.50000000
   0.00431210  6.33402877 13.88218834
   2.10553489  0.00326953 13.88067041
   8.44015383  0.00157676 11.72763114
   2.11071088  6.33234164 11.72748807
   0.00000000  2.11024616  9.61024616
   2.11024616  4.22049233  9.61024616
   0.00000000  4.22049233  7.50000000
   2.11024616  2.11024616  7.50000000
   0.00431502  2.11355705 13.88221141
   2.10554612  4.22377370 13.88062175
   8.44013501  4.22206293 11.72780414
   2.11071255  2.11175930 11.72750901
   4.22049233  6.33073849  9.61024616
   6.33073849  0.00000000  9.61024616
   4.22049233  0.00000000  7.50000000
   6.33073849  6.33073849  7.50000000
   4.21771590  6.33416620 13.88620036
   6.33277728  0.00348422 13.88612120
   4.22044563  0.00179069 11.73262013
   6.33068769  6.33252310 11.73277841
   4.22049233  2.11024616  9.61024616
   6.33073849  4.22049233  9.61024616
   4.22049233  4.22049233  7.50000000
   6.33073849  2.11024616  7.50000000
   4.21770955  2.11373227 13.88622702
   6.33275619  4.22398786 13.88622398
   4.22049119  4.22228250 11.73246277
   6.33068572  2.11204422 11.73279402

--------------------------------------- Iteration      FINAL  ---------------------------------------

--------------------OUTCAR has been truncated-------------------------

[...]

--------------------OUTCAR has been truncated-------------------------

  DFT-D2 method for vdW energy calculation

  Parameters of vdW forcefield:
         C6(Jnm^6/mol)     R0(A)
   Mg       0.630          1.243
   O        0.700          1.342

  vdW correction parametrized for the method þ      

  IVDW =   1
  VDW_RADIUS =    50.000 A
  VDW_S6 =     1.050
  VDW_SR =     1.000
  VDW_D =    20.000
  LVDW_EWALD = F

  Number of pair interactions contributing to vdW energy:  723283
  Edisp (eV):   -5.06801

 VOLUME and BASIS-vectors are now :
  energy-cutoff  :      600.00
  volume of cell :     1519.82
      direct lattice vectors                 reciprocal lattice vectors
     8.440984654  0.000000000  0.000000000     0.118469591  0.000000000  0.000000000
     0.000000000  8.440984654  0.000000000     0.000000000  0.118469591  0.000000000
     0.000000000  0.000000000 21.330738491     0.000000000  0.000000000  0.046880702

  length of vectors
     8.440984654  8.440984654 21.330738491     0.118469591  0.118469591  0.046880702

 FORCES acting on ions:
    Electron-Ion                     Ewald-Force                    Non-Local-Force
   0.116E+00 -.224E-02 0.207E+04   -.118E+00 0.279E-02 -.206E+04   0.139E-02 -.376E-03 -.639E+01
   -.106E+00 0.133E-03 0.207E+04   0.107E+00 0.240E-03 -.206E+04   -.120E-02 -.271E-03 -.639E+01
   0.501E+00 0.178E-01 0.684E+03   -.522E+00 -.995E-02 -.684E+03   0.135E-01 -.476E-02 0.427E+00
   -.457E+00 0.661E-02 0.684E+03   0.475E+00 0.263E-02 -.684E+03   -.111E-01 -.566E-02 0.427E+00
   0.866E+00 -.453E-01 -.689E+03   -.932E+00 0.480E-01 0.689E+03   0.567E-01 0.233E-03 -.164E+00
   -.769E+00 0.172E-01 -.688E+03   0.828E+00 -.161E-01 0.689E+03   -.522E-01 -.186E-03 -.181E+00
   0.117E+01 -.192E+00 -.205E+04   -.103E+01 0.179E+00 0.204E+04   -.118E+00 0.149E-01 0.532E+01
   -.107E+01 -.286E+00 -.205E+04   0.938E+00 0.275E+00 0.204E+04   0.109E+00 0.156E-01 0.532E+01
   0.116E+00 0.324E-02 0.207E+04   -.118E+00 -.302E-02 -.206E+04   0.139E-02 -.181E-03 -.639E+01
   -.104E+00 0.825E-03 0.207E+04   0.106E+00 -.444E-03 -.206E+04   -.119E-02 -.275E-03 -.639E+01
   0.495E+00 0.200E-01 0.684E+03   -.516E+00 -.122E-01 -.684E+03   0.135E-01 -.474E-02 0.432E+00
   -.458E+00 0.313E-01 0.684E+03   0.475E+00 -.251E-01 -.684E+03   -.111E-01 -.372E-02 0.427E+00
   0.866E+00 0.811E-01 -.689E+03   -.932E+00 -.820E-01 0.689E+03   0.566E-01 -.478E-03 -.164E+00
   -.759E+00 0.222E-01 -.688E+03   0.821E+00 -.210E-01 0.689E+03   -.551E-01 -.249E-03 -.178E+00
   0.123E+01 -.186E+00 -.205E+04   -.109E+01 0.172E+00 0.204E+04   -.117E+00 0.146E-01 0.532E+01
   -.107E+01 -.111E+00 -.205E+04   0.938E+00 0.959E-01 0.204E+04   0.109E+00 0.144E-01 0.532E+01
   -.116E+00 -.359E-02 0.207E+04   0.118E+00 0.426E-02 -.206E+04   -.150E-02 -.460E-03 -.640E+01
   0.105E+00 0.460E-03 0.207E+04   -.107E+00 0.827E-05 -.206E+04   0.140E-02 -.337E-03 -.640E+01
   -.513E+00 0.162E-01 0.682E+03   0.529E+00 -.660E-02 -.683E+03   -.101E-01 -.571E-02 0.489E+00
   0.464E+00 -.928E-03 0.682E+03   -.478E+00 0.119E-01 -.683E+03   0.920E-02 -.655E-02 0.491E+00
   -.897E+00 -.802E-01 -.691E+03   0.954E+00 0.825E-01 0.692E+03   -.495E-01 -.159E-03 -.186E+00
   0.800E+00 -.260E-01 -.692E+03   -.850E+00 0.284E-01 0.692E+03   0.448E-01 -.161E-02 -.192E+00
   -.745E+00 0.311E+00 -.205E+04   0.672E+00 -.300E+00 0.205E+04   0.646E-01 -.213E-01 0.544E+01
   0.698E+00 0.263E+00 -.205E+04   -.625E+00 -.254E+00 0.205E+04   -.634E-01 -.185E-01 0.543E+01
   -.115E+00 0.509E-02 0.207E+04   0.118E+00 -.482E-02 -.206E+04   -.150E-02 -.213E-03 -.640E+01
   0.104E+00 0.102E-02 0.207E+04   -.106E+00 -.560E-03 -.206E+04   0.138E-02 -.339E-03 -.640E+01
   -.507E+00 0.190E-01 0.682E+03   0.523E+00 -.948E-02 -.683E+03   -.102E-01 -.568E-02 0.488E+00
   0.464E+00 0.364E-01 0.682E+03   -.478E+00 -.282E-01 -.683E+03   0.921E-02 -.482E-02 0.491E+00
   -.897E+00 0.257E-01 -.691E+03   0.953E+00 -.235E-01 0.692E+03   -.494E-01 -.294E-02 -.186E+00
   0.791E+00 -.244E-01 -.692E+03   -.844E+00 0.268E-01 0.692E+03   0.479E-01 -.156E-02 -.189E+00
   -.790E+00 0.318E+00 -.205E+04   0.722E+00 -.306E+00 0.205E+04   0.627E-01 -.216E-01 0.543E+01
   0.697E+00 0.331E+00 -.205E+04   -.625E+00 -.319E+00 0.205E+04   -.634E-01 -.218E-01 0.543E+01
   0.361E+00 0.498E-02 0.512E+03   -.354E+00 -.126E-01 -.512E+03   -.869E-02 0.908E-02 -.886E-01
   -.331E+00 0.130E-01 0.512E+03   0.325E+00 -.223E-01 -.512E+03   0.730E-02 0.110E-01 -.873E-01
   0.873E-01 -.488E-03 0.155E+04   -.894E-01 0.253E-03 -.156E+04   0.269E-02 0.315E-03 0.313E+01
   -.789E-01 -.255E-02 0.155E+04   0.808E-01 0.255E-02 -.156E+04   -.238E-02 0.208E-04 0.313E+01
   0.104E+01 0.102E+00 -.156E+04   -.102E+01 -.107E+00 0.156E+04   -.634E-01 0.644E-03 -.459E+01
   -.998E+00 0.144E+00 -.156E+04   0.972E+00 -.152E+00 0.156E+04   0.678E-01 0.441E-02 -.458E+01
   0.630E+00 -.105E-01 -.510E+03   -.625E+00 0.931E-02 0.510E+03   -.308E-02 0.144E-02 0.320E+00
   -.571E+00 -.326E-01 -.510E+03   0.568E+00 0.344E-01 0.510E+03   0.202E-02 -.237E-02 0.320E+00
   0.361E+00 0.241E-01 0.512E+03   -.353E+00 -.352E-01 -.512E+03   -.870E-02 0.131E-01 -.886E-01
   -.318E+00 0.156E-01 0.512E+03   0.313E+00 -.248E-01 -.512E+03   0.665E-02 0.109E-01 -.847E-01
   0.867E-01 -.489E-04 0.155E+04   -.889E-01 -.192E-03 -.156E+04   0.271E-02 0.318E-03 0.313E+01
   -.789E-01 0.204E-02 0.155E+04   0.809E-01 -.251E-02 -.156E+04   -.238E-02 0.598E-03 0.313E+01
   0.104E+01 0.171E+00 -.156E+04   -.102E+01 -.180E+00 0.156E+04   -.634E-01 0.599E-02 -.459E+01
   -.995E+00 0.148E+00 -.156E+04   0.967E+00 -.157E+00 0.156E+04   0.693E-01 0.479E-02 -.457E+01
   0.628E+00 -.836E-02 -.510E+03   -.624E+00 0.722E-02 0.510E+03   -.195E-02 0.142E-02 0.319E+00
   -.571E+00 0.130E-01 -.510E+03   0.568E+00 -.177E-01 0.510E+03   0.202E-02 0.598E-02 0.320E+00
   -.363E+00 -.331E-03 0.511E+03   0.352E+00 -.103E-01 -.511E+03   0.134E-01 0.126E-01 -.125E+00
   0.329E+00 0.184E-01 0.511E+03   -.317E+00 -.299E-01 -.511E+03   -.153E-01 0.136E-01 -.128E+00
   -.870E-01 -.695E-03 0.155E+04   0.894E-01 0.392E-03 -.156E+04   -.300E-02 0.398E-03 0.312E+01
   0.787E-01 -.324E-02 0.155E+04   -.808E-01 0.316E-02 -.156E+04   0.259E-02 0.134E-03 0.312E+01
   -.869E+00 -.342E+00 -.156E+04   0.895E+00 0.387E+00 0.156E+04   -.132E-02 -.408E-01 -.443E+01
   0.796E+00 -.293E+00 -.156E+04   -.818E+00 0.333E+00 0.156E+04   -.130E-02 -.367E-01 -.443E+01
   -.620E+00 0.185E-01 -.514E+03   0.608E+00 -.183E-01 0.514E+03   0.126E-01 0.150E-03 0.180E+00
   0.559E+00 -.641E-02 -.514E+03   -.547E+00 0.862E-02 0.514E+03   -.124E-01 -.207E-02 0.172E+00
   -.363E+00 0.390E-01 0.511E+03   0.352E+00 -.513E-01 -.511E+03   0.134E-01 0.144E-01 -.125E+00
   0.317E+00 0.201E-01 0.511E+03   -.305E+00 -.315E-01 -.511E+03   -.144E-01 0.134E-01 -.125E+00
   -.865E-01 -.213E-03 0.155E+04   0.889E-01 -.920E-04 -.156E+04   -.301E-02 0.397E-03 0.313E+01
   0.788E-01 0.236E-02 0.155E+04   -.808E-01 -.286E-02 -.156E+04   0.259E-02 0.659E-03 0.312E+01
   -.870E+00 -.267E+00 -.156E+04   0.895E+00 0.304E+00 0.156E+04   -.118E-02 -.332E-01 -.443E+01
   0.789E+00 -.289E+00 -.156E+04   -.809E+00 0.329E+00 0.156E+04   -.272E-02 -.366E-01 -.443E+01
   -.621E+00 0.217E-01 -.514E+03   0.610E+00 -.215E-01 0.514E+03   0.104E-01 0.704E-04 0.175E+00
   0.559E+00 0.446E-01 -.514E+03   -.547E+00 -.468E-01 0.514E+03   -.125E-01 0.281E-02 0.172E+00
   0.191E-01 0.116E+00 0.180E+02   -.454E-12 -.962E-13 0.318E-11   -.182E-01 -.978E-01 -.158E+02

 POSITION                                       TOTAL-FORCE (eV/Angst)
      0.00000      6.33074      7.50000        -0.000512     -0.000012      0.466393
      2.11025      0.00000      7.50000         0.000453     -0.000067      0.466349
      0.00000      0.00000      9.61025        -0.006204      0.002295      0.044433
      2.11025      6.33074      9.61025         0.005161      0.002670      0.043360
      8.43959      6.33215     11.73368        -0.003604      0.002635      0.024487
      2.11137      0.00153     11.73346         0.002051      0.000739      0.024721
      0.00084      0.00283     13.83172         0.013257      0.002435     -0.040170
      2.10913      6.33336     13.83137        -0.014269      0.005240     -0.039130
      0.00000      2.11025      7.50000        -0.000519     -0.000114      0.466386
      2.11025      4.22049      7.50000         0.000446     -0.000062      0.466125
      0.00000      4.22049      9.61025        -0.006181      0.002285      0.043531
      2.11025      2.11025      9.61025         0.005167      0.001825      0.043410
      8.43959      2.11194     11.73369        -0.003581     -0.001412      0.024491
      2.11147      4.22203     11.73339         0.001932      0.000685      0.024251
      0.00093      4.22334     13.83162         0.011191      0.002308     -0.038519
      2.10913      2.11321     13.83138        -0.014249      0.000113     -0.039063
      4.22049      6.33074      7.50000         0.000575      0.000011      0.467820
      6.33074      0.00000      7.50000        -0.000503     -0.000044      0.468048
      4.22049      0.00000      9.61025         0.004218      0.002955      0.051987
      6.33074      6.33074      9.61025        -0.003885      0.003357      0.052055
      4.22217      6.33248     11.73794         0.002135      0.001774      0.014355
      6.32889      0.00188     11.73812        -0.000953      0.000394      0.014072
      4.21785      0.00459     13.84922        -0.002098     -0.011237     -0.153486
      6.33271      6.33526     13.85025         0.003031     -0.010663     -0.158247
      4.22049      2.11025      7.50000         0.000580     -0.000099      0.467821
      6.33074      4.22049      7.50000        -0.000499     -0.000050      0.467836
      4.22049      4.22049      9.61025         0.004263      0.002943      0.050861
      6.33074      2.11025      9.61025        -0.003886      0.002533      0.052055
      4.22217      2.11226     11.73796         0.002100     -0.001053      0.014347
      6.32882      4.22236     11.73798        -0.001085      0.000477      0.015656
      4.21777      4.22509     13.84970        -0.000086     -0.011331     -0.156438
      6.33271      2.11489     13.85026         0.003062     -0.011400     -0.158146
      0.00000      6.33074      9.61025        -0.002816      0.002554      0.059485
      2.11025      0.00000      9.61025         0.002391      0.003129      0.058846
      0.00000      0.00000      7.50000         0.000899     -0.000015     -0.434266
      2.11025      6.33074      7.50000        -0.000781     -0.000111     -0.434153
      0.00431      6.33403     13.88219        -0.051701     -0.004427     -0.104760
      2.10553      0.00327     13.88067         0.052639     -0.003696     -0.097967
      8.44015      0.00158     11.72763         0.002000      0.000280      0.020776
      2.11071      6.33234     11.72749        -0.001473     -0.001118      0.020278
      0.00000      2.11025      9.61025        -0.002817      0.003767      0.059518
      2.11025      4.22049      9.61025         0.002086      0.003090      0.059373
      0.00000      4.22049      7.50000         0.000909     -0.000017     -0.434133
      2.11025      2.11025      7.50000        -0.000781      0.000076     -0.434155
      0.00432      2.11356     13.88221        -0.051769     -0.003251     -0.104837
      2.10555      4.22377     13.88062         0.052931     -0.003681     -0.097604
      8.44014      4.22206     11.72780         0.002661      0.000312      0.018723
      2.11071      2.11176     11.72751        -0.001480      0.001890      0.020099
      4.22049      6.33074      9.61025         0.004319      0.003643      0.068035
      6.33074      0.00000      9.61025        -0.004849      0.003859      0.067834
      4.22049      0.00000      7.50000        -0.001002      0.000012     -0.435326
      6.33074      6.33074      7.50000         0.000876     -0.000076     -0.435314
      4.21772      6.33417     13.88620         0.025448     -0.001819     -0.067338
      6.33278      0.00348     13.88612        -0.024088     -0.001411     -0.065906
      4.22045      0.00179     11.73262         0.001690      0.000203      0.016357
      6.33069      6.33252     11.73278        -0.002338     -0.000296      0.017381
      4.22049      2.11025      9.61025         0.004313      0.004047      0.068071
      6.33074      4.22049      9.61025        -0.004471      0.003820      0.068002
      4.22049      4.22049      7.50000        -0.001002      0.000008     -0.435179
      6.33074      2.11025      7.50000         0.000879      0.000104     -0.435318
      4.21771      2.11373     13.88623         0.025545     -0.000482     -0.067465
      6.33276      4.22399     13.88622        -0.024162     -0.001507     -0.066409
      4.22049      4.22228     11.73246         0.000776      0.000170      0.018393
      6.33069      2.11204     11.73279        -0.002340      0.000813      0.017305
    total drift:                               -0.000563      0.008843     -0.000056

  FREE ENERGIE OF THE ION-ELECTRON SYSTEM (eV)
  free  energy   TOTEN  =      -438.43430551 eV

  energy  without entropy=     -438.43430551  energy(sigma->0) =     -438.43430551