 vasp.6.3.0 20Jan22 (build Apr  1 2022 16:44:48) complex
 executed on        HPECrayEX_GCC date 2022.11.14  01:17:46

 INCAR:
   SYSTEM = MgO-rocksalt
   ISMEAR = 0
   SIGMA = 0.05
   EDIFF = 1E-6
   ALGO = ALL
   ISTART = 0
   IBRION = -1
   NSW = 0
   ISYM = 0
   DIPOL = 0.5 0.5 0.5
   IDIPOL = 3
   LDIPOL = .TRUE.
   LHFCALC = .TRUE.
   GGA = B5
   AEXX = 0.2
   AGGAX = 0.72
   AGGAC = 0.81
   ALDAC = 0.19
   IVDW = 1
   VDW_S6 = 1.05
   VDW_C6 = 0.63 0.70
   VDW_R0 = 1.243 1.342
   ENCUT = 600
   PREC = Accurate
   LASPH = .TRUE.
   LREAL = .FALSE.
   ISPIN = 2
   MAGMOM = 0.0 0.0 0.0 0.0 0.0 0.0 0.0 0.0 0.0 0.0 0.0 0.0 0.0 0.0 0.0 0.0 0.0 0.0 0.0 0.0 0.0 0.0 0.0 0.0 0.0 0.0 0.0 0.0 0.0 0.0 0.0 0.0 0.0 0.0 0.0 0.0 0.0 0.0 0.0 0.0 0.0 0.0 0.0 0.0 0.0 0.0 0.0 0.0 0.0 0.0 0.0 0.0 0.0 0.0 0.0 0.0 0.0 0.0 0.0 0.0 0.0 0.0 0.0 0.0
   NELM = 200
   NELMIN = 8
   NCORE = 8
   KPAR = 1
   LWAVE = .FALSE.
   LCHARG = .FALSE.

 POTCAR:    PAW_PBE Mg_pv 13Apr2007
 POTCAR:    PAW_PBE O 08Apr2002
 POTCAR:    PAW_PBE Mg_pv 13Apr2007
   VRHFIN =Mg: p6s2

   TITEL  = PAW_PBE Mg_pv 13Apr2007
   POMASS =   24.305; ZVAL   =    8.000    mass and valenz
   ENMAX  =  403.929; ENMIN  =  302.947 eV

   TITEL  = PAW_PBE O 08Apr2002
   POMASS =   16.000; ZVAL   =    6.000    mass and valenz
   ENMAX  =  400.000; ENMIN  =  300.000 eV

  PAW_PBE Mg_pv 13Apr2007               :
  PAW_PBE O 08Apr2002                   :

 POSCAR: Mg  O
  positions in direct lattice
 exchange correlation table for  LEXCH =       12
   RHO(1)=    0.500       N(1)  =     2000
   RHO(2)=  100.500       N(2)  =     4000

 ion  position               nearest neighbor table
   1  0.250  0.000  0.353-  35 2.09  36 2.09  43 2.09  52 2.09  33 2.09
   2  0.500  0.250  0.353-  35 2.09  36 2.09  44 2.09  51 2.09  34 2.09
   3  0.250  0.250  0.451-  33 2.09  34 2.09  41 2.09  50 2.09  35 2.09  39 2.09
   4  0.500  0.000  0.451-  33 2.09  34 2.09  42 2.09  49 2.09  36 2.09  40 2.09
   5  0.250  0.000  0.550-  39 2.09  56 2.09  47 2.09  40 2.09  33 2.10  37 2.12
   6  0.500  0.250  0.549-  39 2.09  40 2.09  48 2.09  55 2.09  34 2.10  38 2.13
   7  0.249  0.250  0.648-  54 2.08  39 2.09  37 2.09  45 2.09  38 2.10
   8  0.499  0.999  0.647-  46 2.08  40 2.08  37 2.09  53 2.09  38 2.09
   9  0.250  0.500  0.353-  35 2.09  43 2.09  44 2.09  60 2.09  41 2.09
  10  0.500  0.750  0.353-  36 2.09  43 2.09  44 2.09  59 2.09  42 2.09
  11  0.250  0.750  0.451-  33 2.09  41 2.09  42 2.09  58 2.09  43 2.09  47 2.09
  12  0.500  0.500  0.451-  34 2.09  41 2.09  42 2.09  57 2.09  44 2.09  48 2.09
  13  0.250  0.500  0.550-  39 2.09  64 2.09  47 2.09  48 2.09  41 2.10  45 2.12
  14  0.500  0.750  0.550-  47 2.09  63 2.09  48 2.09  40 2.09  42 2.10  46 2.12
  15  0.249  0.750  0.647-  47 2.08  62 2.09  45 2.09  37 2.09  46 2.09
  16  0.499  0.501  0.647-  46 2.08  48 2.08  45 2.09  61 2.09  38 2.09
  17  0.750  0.000  0.353-  36 2.09  51 2.09  52 2.09  59 2.09  49 2.09
  18  0.000  0.250  0.353-  35 2.09  51 2.09  52 2.09  60 2.09  50 2.09
  19  0.750  0.250  0.451-  34 2.09  49 2.09  50 2.09  57 2.09  51 2.09  55 2.09
  20  0.000  0.000  0.451-  33 2.09  49 2.09  50 2.09  58 2.09  52 2.09  56 2.09
  21  0.750  1.000  0.550-  63 2.09  40 2.09  56 2.09  55 2.09  49 2.10  53 2.12
  22  0.000  0.250  0.550-  39 2.09  64 2.09  56 2.09  55 2.09  50 2.10  54 2.12
  23  0.751  0.250  0.647-  55 2.08  54 2.08  53 2.09  61 2.09  38 2.10
  24  1.000  1.000  0.647-  56 2.08  62 2.09  37 2.09  54 2.09  53 2.09
  25  0.750  0.500  0.353-  44 2.09  51 2.09  59 2.09  60 2.09  57 2.09
  26  0.000  0.750  0.353-  43 2.09  52 2.09  59 2.09  60 2.09  58 2.09
  27  0.750  0.750  0.451-  42 2.09  49 2.09  57 2.09  58 2.09  59 2.09  63 2.09
  28  0.000  0.500  0.451-  41 2.09  50 2.09  57 2.09  58 2.09  60 2.09  64 2.09
  29  0.750  0.500  0.550-  63 2.09  48 2.09  64 2.09  55 2.09  57 2.10  61 2.12
  30  1.000  0.750  0.550-  47 2.09  64 2.09  56 2.09  63 2.09  58 2.10  62 2.12
  31  0.750  0.750  0.647-  63 2.08  62 2.09  46 2.09  53 2.09  61 2.09
  32  1.000  0.500  0.647-  64 2.08  62 2.09  45 2.09  54 2.09  61 2.09
  33  0.250  0.000  0.451-   3 2.09   4 2.09  11 2.09  20 2.09   1 2.09   5 2.10
  34  0.500  0.250  0.451-   3 2.09   4 2.09  12 2.09  19 2.09   2 2.09   6 2.10
  35  0.250  0.250  0.353-   1 2.09   2 2.09   9 2.09  18 2.09   3 2.09
  36  0.500  0.000  0.353-   1 2.09   2 2.09  10 2.09  17 2.09   4 2.09
  37  0.250  0.000  0.649-   8 2.09   7 2.09  15 2.09  24 2.09   5 2.12
  38  0.500  0.250  0.649-  16 2.09   8 2.09   7 2.10  23 2.10   6 2.13
  39  0.250  0.250  0.549-   6 2.09   7 2.09  22 2.09   5 2.09  13 2.09   3 2.09
  40  0.500  0.000  0.549-   8 2.08   6 2.09  21 2.09   5 2.09  14 2.09   4 2.09
  41  0.250  0.500  0.451-   3 2.09  11 2.09  12 2.09  28 2.09   9 2.09  13 2.10
  42  0.500  0.750  0.451-   4 2.09  11 2.09  12 2.09  27 2.09  10 2.09  14 2.10
  43  0.250  0.750  0.353-   1 2.09   9 2.09  10 2.09  26 2.09  11 2.09
  44  0.500  0.500  0.353-   2 2.09   9 2.09  10 2.09  25 2.09  12 2.09
  45  0.250  0.500  0.649-  16 2.09   7 2.09  15 2.09  32 2.09  13 2.12
  46  0.500  0.750  0.649-  16 2.08   8 2.08  31 2.09  15 2.09  14 2.12
  47  0.250  0.750  0.549-  15 2.08  14 2.09  30 2.09   5 2.09  13 2.09  11 2.09
  48  0.500  0.500  0.549-  16 2.08   6 2.09  29 2.09  13 2.09  14 2.09  12 2.09
  49  0.750  0.000  0.451-   4 2.09  19 2.09  20 2.09  27 2.09  17 2.09  21 2.10
  50  0.000  0.250  0.451-   3 2.09  19 2.09  20 2.09  28 2.09  18 2.09  22 2.10
  51  0.750  0.250  0.353-   2 2.09  17 2.09  18 2.09  25 2.09  19 2.09
  52  0.000  0.000  0.353-   1 2.09  17 2.09  18 2.09  26 2.09  20 2.09
  53  0.749  0.000  0.649-  23 2.09   8 2.09  24 2.09  31 2.09  21 2.12
  54  1.000  0.250  0.649-  23 2.08   7 2.08  24 2.09  32 2.09  22 2.12
  55  0.750  0.250  0.549-  23 2.08   6 2.09  29 2.09  21 2.09  22 2.09  19 2.09
  56  1.000  0.000  0.549-  24 2.08   5 2.09  22 2.09  21 2.09  30 2.09  20 2.09
  57  0.750  0.500  0.451-  12 2.09  19 2.09  27 2.09  28 2.09  25 2.09  29 2.10
  58  0.000  0.750  0.451-  11 2.09  20 2.09  27 2.09  28 2.09  26 2.09  30 2.10
  59  0.750  0.750  0.353-  10 2.09  17 2.09  25 2.09  26 2.09  27 2.09
  60  0.000  0.500  0.353-   9 2.09  18 2.09  25 2.09  26 2.09  28 2.09
  61  0.749  0.500  0.649-  23 2.09  16 2.09  32 2.09  31 2.09  29 2.12
  62  1.000  0.750  0.649-  24 2.09  32 2.09  15 2.09  31 2.09  30 2.12
  63  0.750  0.750  0.549-  31 2.08  29 2.09  21 2.09  14 2.09  30 2.09  27 2.09
  64  1.000  0.500  0.549-  32 2.08  13 2.09  22 2.09  29 2.09  30 2.09  28 2.09

IMPORTANT INFORMATION: All symmetrisations will be switched off!
NOSYMM: (Re-)initialisation of all symmetry stuff for point group C_1.

                                     Primitive cell

  volume of cell :    1482.1129

  direct lattice vectors                    reciprocal lattice vectors
     8.349111827  0.000000000  0.000000000     0.119773219  0.000000000  0.000000000
     0.000000000  8.349111827  0.000000000     0.000000000  0.119773219  0.000000000
     0.000000000  0.000000000 21.261833870     0.000000000  0.000000000  0.047032632

  length of vectors
     8.349111827  8.349111827 21.261833870     0.119773219  0.119773219  0.047032632

  position of ions in fractional coordinates (direct lattice)
     0.250000000  0.000000000  0.352744737
     0.500000000  0.250000000  0.352744737
     0.250000000  0.250000000  0.450914912
     0.500000000  0.000000000  0.450914912
     0.249731329  0.000036179  0.549677619
     0.499717006  0.250000175  0.549450589
     0.249113738  0.250000033  0.647509634
     0.499446662  0.999191583  0.647284810
     0.250000000  0.500000000  0.352744737
     0.500000000  0.750000000  0.352744737
     0.250000000  0.750000000  0.450914912
     0.500000000  0.500000000  0.450914912
     0.249731266  0.499963771  0.549677599
     0.499714285  0.750000092  0.549609040
     0.249438758  0.749999943  0.647246679
     0.499446591  0.500809392  0.647284041
     0.750000000  0.000000000  0.352744737
     0.000000000  0.250000000  0.352744737
     0.750000000  0.250000000  0.450914912
     0.000000000  0.000000000  0.450914912
     0.749760830  0.999924416  0.549692025
     0.000027863  0.249999989  0.549606963
     0.751230592  0.249999765  0.646894238
     0.999641651  0.999840370  0.647349605
     0.750000000  0.500000000  0.352744737
     0.000000000  0.750000000  0.352744737
     0.750000000  0.750000000  0.450914912
     0.000000000  0.500000000  0.450914912
     0.749760881  0.500075481  0.549692030
     0.999805518  0.749999976  0.549674061
     0.749699184  0.749999944  0.647301769
     0.999641681  0.500159562  0.647349593
     0.250000000  0.000000000  0.450914912
     0.500000000  0.250000000  0.450914912
     0.250000000  0.250000000  0.352744737
     0.500000000  0.000000000  0.352744737
     0.249697809  0.000050347  0.649315606
     0.500129402  0.250002275  0.649484958
     0.249952471  0.249999951  0.549409548
     0.499791764  0.000137190  0.549368732
     0.250000000  0.500000000  0.450914912
     0.500000000  0.750000000  0.450914912
     0.250000000  0.750000000  0.352744737
     0.500000000  0.500000000  0.352744737
     0.249697704  0.499949741  0.649315605
     0.499639283  0.750000056  0.649342039
     0.249795616  0.749999989  0.549302993
     0.499791793  0.499863187  0.549368494
     0.750000000  0.000000000  0.450914912
     0.000000000  0.250000000  0.450914912
     0.750000000  0.250000000  0.352744737
     0.000000000  0.000000000  0.352744737
     0.749477053  0.000189309  0.649377049
     0.999864245  0.249999956  0.649306691
     0.749736683  0.249999967  0.549301954
     0.999754382  0.000022026  0.549336892
     0.750000000  0.500000000  0.450914912
     0.000000000  0.750000000  0.450914912
     0.750000000  0.750000000  0.352744737
     0.000000000  0.500000000  0.352744737
     0.749477105  0.499810467  0.649377342
     0.999591835  0.749999975  0.649413952
     0.749756552  0.749999925  0.549334847
     0.999754333  0.499977944  0.549336886

  ion indices of the primitive-cell ions
   primitive index   ion index
                 1           1
                 2           2
                 3           3
                 4           4
                 5           5
                 6           6
                 7           7
                 8           8
                 9           9
                10          10
                11          11
                12          12
                13          13
                14          14
                15          15
                16          16
                17          17
                18          18
                19          19
                20          20
                21          21
                22          22
                23          23
                24          24
                25          25
                26          26
                27          27
                28          28
                29          29
                30          30
                31          31
                32          32
                33          33
                34          34
                35          35
[...]
   0.50000000  0.75000000  0.45091491
   0.25000000  0.75000000  0.35274474
   0.50000000  0.50000000  0.35274474
   0.24969770  0.49994974  0.64931560
   0.49963928  0.75000006  0.64934204
   0.24979562  0.74999999  0.54930299
   0.49979179  0.49986319  0.54936849
   0.75000000  0.00000000  0.45091491
   0.00000000  0.25000000  0.45091491
   0.75000000  0.25000000  0.35274474
   0.00000000  0.00000000  0.35274474
   0.74947705  0.00018931  0.64937705
   0.99986424  0.24999996  0.64930669
   0.74973668  0.24999997  0.54930195
   0.99975438  0.00002203  0.54933689
   0.75000000  0.50000000  0.45091491
   0.00000000  0.75000000  0.45091491
   0.75000000  0.75000000  0.35274474
   0.00000000  0.50000000  0.35274474
   0.74947711  0.49981047  0.64937734
   0.99959183  0.74999998  0.64941395
   0.74975655  0.74999993  0.54933485
   0.99975433  0.49997794  0.54933689

 position of ions in cartesian coordinates  (Angst):
   2.08727796  0.00000000  7.50000000
   4.17455591  2.08727796  7.50000000
   2.08727796  2.08727796  9.58727796
   4.17455591  0.00000000  9.58727796
   2.08503479  0.00030206 11.68715422
   4.17219316  2.08727942 11.68232714
   2.07987845  2.08727823 13.76724227
   4.16993603  8.34236226 13.76246210
   2.08727796  4.17455591  7.50000000
   4.17455591  6.26183387  7.50000000
   2.08727796  6.26183387  9.58727796
   4.17455591  4.17455591  9.58727796
   2.08503427  4.17425343 11.68715378
   4.17217045  6.26183464 11.68569609
   2.08259208  6.26183340 13.76165135
   4.16993544  4.18131362 13.76244574
   6.26183387  0.00000000  7.50000000
   0.00000000  2.08727796  7.50000000
   6.26183387  2.08727796  9.58727796
   0.00000000  0.00000000  9.58727796
   6.25983701  8.34848077 11.68746052
   0.00023264  2.08727787 11.68565194
   6.27210822  2.08727599 13.75415782
   8.34611993  8.34777906 13.76383975
   6.26183387  4.17455591  7.50000000
   0.00000000  6.26183387  7.50000000
   6.26183387  6.26183387  9.58727796
   0.00000000  4.17455591  9.58727796
   6.25983744  4.17518611 11.68746062
   8.34748807  6.26183367 11.68707856
   6.25932232  6.26183341 13.76282267
   8.34612018  4.17588811 13.76383950
   2.08727796  0.00000000  9.58727796
   4.17455591  2.08727796  9.58727796
   2.08727796  2.08727796  7.50000000
   4.17455591  0.00000000  7.50000000
   2.08475493  0.00042035 13.80564055
   4.17563631  2.08729695 13.80924127
   2.08688114  2.08727755 11.68145453
   4.17281733  0.00114542 11.68058672
   2.08727796  4.17455591  9.58727796
   4.17455591  6.26183387  9.58727796
   2.08727796  6.26183387  7.50000000
   4.17455591  4.17455591  7.50000000
   2.08475405  4.17413629 13.80564052
   4.17154425  6.26183434 13.80620257
   2.08557153  6.26183378 11.67918899
   4.17281757  4.17341365 11.68058166
   6.26183387  0.00000000  9.58727796
   0.00000000  2.08727796  9.58727796
   6.26183387  2.08727796  7.50000000
   0.00000000  0.00000000  7.50000000
   6.25746772  0.00158057 13.80694693
   8.34797839  2.08727759 13.80545099
   6.25963541  2.08727768 11.67916689
   8.34706113  0.00018389 11.67990974
   6.26183387  4.17455591  9.58727796
   0.00000000  6.26183387  9.58727796
   6.26183387  6.26183387  7.50000000
   0.00000000  4.17455591  7.50000000
   6.25746816  4.17297349 13.80695317
   8.34570401  6.26183366 13.80773156
   6.25980129  6.26183324 11.67986626
   8.34706072  4.17437177 11.67990960

--------------------------------------- Iteration      FINAL  ---------------------------------------

--------------------OUTCAR has been truncated-------------------------

[...]

--------------------OUTCAR has been truncated-------------------------

  DFT-D2 method for vdW energy calculation

  Parameters of vdW forcefield:
         C6(Jnm^6/mol)     R0(A)
   Mg       0.630          1.243
   O        0.700          1.342

  vdW correction parametrized for the method A©ý      

  IVDW =   1
  VDW_RADIUS =    50.000 A
  VDW_S6 =     1.050
  VDW_SR =     1.000
  VDW_D =    20.000
  LVDW_EWALD = F

  Number of pair interactions contributing to vdW energy:  742681
  Edisp (eV):   -5.30969

 VOLUME and BASIS-vectors are now :
  energy-cutoff  :      600.00
  volume of cell :     1482.11
      direct lattice vectors                 reciprocal lattice vectors
     8.349111827  0.000000000  0.000000000     0.119773219  0.000000000  0.000000000
     0.000000000  8.349111827  0.000000000     0.000000000  0.119773219  0.000000000
     0.000000000  0.000000000 21.261833870     0.000000000  0.000000000  0.047032632

  length of vectors
     8.349111827  8.349111827 21.261833870     0.119773219  0.119773219  0.047032632

 FORCES acting on ions:
    Electron-Ion                     Ewald-Force                    Non-Local-Force
   0.408E-02 0.840E-02 0.212E+04   -.546E-02 -.901E-02 -.212E+04   0.948E-03 0.377E-03 -.644E+01
   0.227E-02 0.711E-04 0.212E+04   -.200E-02 -.738E-04 -.212E+04   -.912E-04 0.439E-05 -.643E+01
   0.594E-01 0.226E-03 0.703E+03   -.726E-01 -.237E-03 -.703E+03   0.825E-02 0.513E-05 0.415E+00
   -.208E-01 0.133E+00 0.703E+03   0.158E-01 -.141E+00 -.703E+03   0.267E-02 0.467E-02 0.400E+00
   -.279E+00 -.228E+00 -.710E+03   0.316E+00 0.286E+00 0.710E+03   -.202E-01 -.406E-01 -.197E+00
   0.254E-01 0.170E-02 -.710E+03   -.473E-01 -.171E-02 0.710E+03   0.265E-01 0.233E-05 -.222E+00
   -.361E+01 0.118E-02 -.211E+04   0.374E+01 -.105E-02 0.211E+04   -.111E-02 -.795E-04 0.547E+01
   -.423E+00 -.336E+01 -.211E+04   0.479E+00 0.354E+01 0.210E+04   -.194E-01 -.375E-01 0.542E+01
   0.412E-02 -.840E-02 0.212E+04   -.549E-02 0.901E-02 -.212E+04   0.947E-03 -.377E-03 -.644E+01
   -.627E-02 -.707E-04 0.212E+04   0.670E-02 0.736E-04 -.212E+04   -.215E-03 0.480E-06 -.644E+01
   0.966E-02 -.235E-03 0.703E+03   -.248E-01 0.238E-03 -.704E+03   0.926E-02 -.779E-06 0.401E+00
   -.208E-01 -.133E+00 0.703E+03   0.159E-01 0.141E+00 -.703E+03   0.267E-02 -.468E-02 0.400E+00
   -.278E+00 0.228E+00 -.710E+03   0.315E+00 -.286E+00 0.710E+03   -.202E-01 0.406E-01 -.197E+00
   -.184E+00 -.157E-02 -.709E+03   0.189E+00 0.158E-02 0.709E+03   0.192E-02 0.639E-05 -.126E+00
   -.182E+00 -.896E-03 -.211E+04   0.148E+00 0.820E-03 0.210E+04   0.392E-01 0.659E-04 0.543E+01
   -.423E+00 0.335E+01 -.211E+04   0.480E+00 -.354E+01 0.210E+04   -.194E-01 0.379E-01 0.542E+01
   -.666E-02 0.160E-01 0.212E+04   0.695E-02 -.171E-01 -.212E+04   -.131E-03 0.702E-03 -.644E+01
   -.151E-02 0.370E-04 0.212E+04   0.777E-03 -.379E-04 -.212E+04   0.456E-03 0.410E-06 -.644E+01
   -.119E+00 0.220E-03 0.703E+03   0.124E+00 -.215E-03 -.704E+03   -.291E-02 -.540E-05 0.382E+00
   -.898E-04 0.677E-01 0.703E+03   -.174E-01 -.726E-01 -.704E+03   0.106E-01 0.307E-02 0.407E+00
   0.242E+00 -.231E-01 -.710E+03   -.280E+00 0.382E-01 0.710E+03   0.251E-01 -.333E-02 -.194E+00
   -.251E-01 0.196E-03 -.708E+03   0.783E-01 -.201E-03 0.708E+03   -.493E-01 0.947E-06 -.123E+00
   0.451E+01 0.805E-03 -.211E+04   -.470E+01 -.630E-03 0.210E+04   -.954E-02 -.101E-03 0.536E+01
   0.170E+00 0.756E-01 -.211E+04   -.171E+00 -.135E+00 0.210E+04   -.100E-02 0.539E-01 0.545E+01
   -.669E-02 -.160E-01 0.212E+04   0.698E-02 0.171E-01 -.212E+04   -.137E-03 -.703E-03 -.644E+01
   0.520E-02 -.369E-04 0.212E+04   -.661E-02 0.379E-04 -.212E+04   0.961E-03 -.422E-06 -.644E+01
   -.531E-01 -.224E-03 0.703E+03   0.481E-01 0.215E-03 -.704E+03   0.287E-02 0.273E-05 0.407E+00
   -.821E-04 -.677E-01 0.703E+03   -.175E-01 0.726E-01 -.704E+03   0.106E-01 -.306E-02 0.407E+00
   0.241E+00 0.232E-01 -.710E+03   -.279E+00 -.382E-01 0.710E+03   0.250E-01 0.332E-02 -.194E+00
   0.169E+00 -.233E-03 -.710E+03   -.176E+00 0.231E-03 0.710E+03   0.143E-02 0.445E-05 -.130E+00
   0.454E-01 -.340E-03 -.211E+04   -.140E-01 0.270E-03 0.210E+04   -.285E-01 0.448E-04 0.543E+01
   0.171E+00 -.755E-01 -.211E+04   -.171E+00 0.135E+00 0.210E+04   -.982E-03 -.539E-01 0.545E+01
   -.342E-01 -.316E-02 0.527E+03   0.482E-01 -.385E-03 -.527E+03   -.164E-01 0.433E-02 -.947E-01
   -.160E-02 0.338E-03 0.527E+03   0.178E-01 -.344E-03 -.527E+03   -.192E-01 0.372E-05 -.609E-01
   0.812E-02 0.433E-04 0.160E+04   -.894E-02 -.416E-04 -.160E+04   0.100E-02 -.513E-05 0.310E+01
   -.343E-03 0.139E-01 0.160E+04   0.161E-02 -.148E-01 -.160E+04   -.161E-02 0.108E-02 0.310E+01
   -.352E+00 -.479E+00 -.160E+04   0.396E+00 0.553E+00 0.161E+04   -.643E-01 -.917E-01 -.454E+01
   -.465E+00 0.400E-02 -.160E+04   0.617E+00 -.393E-02 0.161E+04   -.172E+00 -.234E-03 -.458E+01
   -.592E+00 0.473E-03 -.528E+03   0.661E+00 -.488E-03 0.527E+03   -.864E-01 0.137E-04 0.171E+00
   0.136E-01 -.397E+00 -.527E+03   -.128E-01 0.465E+00 0.526E+03   -.371E-02 -.918E-01 0.226E+00
   -.340E-01 0.316E-02 0.527E+03   0.480E-01 0.390E-03 -.527E+03   -.165E-01 -.434E-02 -.947E-01
   -.605E-01 -.338E-03 0.527E+03   0.750E-01 0.318E-03 -.527E+03   -.169E-01 0.247E-04 -.771E-01
   0.335E-02 -.404E-04 0.160E+04   -.383E-02 0.415E-04 -.160E+04   0.552E-03 0.320E-05 0.310E+01
   -.345E-03 -.139E-01 0.160E+04   0.161E-02 0.148E-01 -.160E+04   -.161E-02 -.108E-02 0.310E+01
   -.351E+00 0.479E+00 -.160E+04   0.396E+00 -.553E+00 0.161E+04   -.644E-01 0.919E-01 -.454E+01
   -.428E-01 -.144E-02 -.160E+04   0.443E-01 0.151E-02 0.161E+04   -.672E-02 -.372E-04 -.457E+01
   0.339E-01 -.438E-03 -.525E+03   -.290E-01 0.427E-03 0.525E+03   -.837E-02 0.138E-04 0.326E+00
   0.134E-01 0.397E+00 -.527E+03   -.126E-01 -.465E+00 0.526E+03   -.371E-02 0.918E-01 0.226E+00
   -.237E-01 0.373E-01 0.527E+03   0.365E-01 -.324E-01 -.527E+03   -.150E-01 -.575E-02 -.104E+00
   -.309E-02 0.887E-04 0.527E+03   -.222E-02 -.910E-04 -.527E+03   0.612E-02 -.211E-05 -.776E-01
   -.894E-02 0.401E-04 0.160E+04   0.996E-02 -.392E-04 -.160E+04   -.128E-02 -.308E-05 0.310E+01
   0.204E-02 0.840E-02 0.160E+04   -.260E-02 -.914E-02 -.160E+04   0.669E-03 0.907E-03 0.310E+01
   0.761E+00 -.265E+00 -.160E+04   -.915E+00 0.361E+00 0.161E+04   0.185E+00 -.127E+00 -.464E+01
   -.603E+00 0.117E-03 -.160E+04   0.675E+00 -.976E-04 0.161E+04   -.591E-01 -.386E-04 -.456E+01
   0.625E+00 0.349E-03 -.525E+03   -.713E+00 -.352E-03 0.525E+03   0.113E+00 0.722E-05 0.325E+00
   0.772E-01 0.136E+00 -.526E+03   -.969E-01 -.126E+00 0.526E+03   0.216E-01 -.132E-01 0.296E+00
   -.240E-01 -.373E-01 0.527E+03   0.367E-01 0.324E-01 -.527E+03   -.150E-01 0.574E-02 -.104E+00
   0.191E-01 -.935E-04 0.527E+03   -.947E-02 0.967E-04 -.527E+03   -.116E-01 -.910E-07 -.882E-01
   -.282E-02 -.415E-04 0.160E+04   0.390E-02 0.390E-04 -.160E+04   -.134E-02 0.505E-05 0.310E+01
   0.204E-02 -.839E-02 0.160E+04   -.260E-02 0.914E-02 -.160E+04   0.670E-03 -.907E-03 0.310E+01
   0.760E+00 0.265E+00 -.160E+04   -.915E+00 -.361E+00 0.161E+04   0.185E+00 0.127E+00 -.464E+01
   0.195E+00 -.198E-03 -.160E+04   -.225E+00 0.153E-03 0.161E+04   0.335E-01 0.486E-04 -.459E+01
   -.729E-02 -.301E-03 -.526E+03   -.505E-02 0.291E-03 0.526E+03   0.152E-01 0.120E-04 0.304E+00
   0.773E-01 -.136E+00 -.526E+03   -.970E-01 0.126E+00 0.526E+03   0.216E-01 0.132E-01 0.296E+00
   0.223E-02 -.552E-03 0.189E+02   0.328E-12 -.663E-13 0.114E-11   -.587E-02 0.509E-03 -.166E+02

 POSITION                                       TOTAL-FORCE (eV/Angst)
      2.08728      0.00000      7.50000        -0.000249     -0.000179      0.312091
      4.17456      2.08728      7.50000         0.000223      0.000002      0.311028
      2.08728      2.08728      9.58728        -0.003757     -0.000006      0.041882
      4.17456      0.00000      9.58728        -0.001827     -0.002453      0.043942
      2.08503      0.00030     11.68715         0.013880      0.012781      0.008036
      4.17219      2.08728     11.68233         0.006634     -0.000002      0.119329
      2.07988      2.08728     13.76724         0.117846      0.000032      0.057713
      4.16994      8.34236     13.76246         0.032315      0.132744      0.101431
      2.08728      4.17456      7.50000        -0.000251      0.000177      0.312039
      4.17456      6.26183      7.50000         0.000241      0.000003      0.311670
      2.08728      6.26183      9.58728        -0.004522      0.000002      0.036991
      4.17456      4.17456      9.58728        -0.001820      0.002462      0.043935
      2.08503      4.17425     11.68715         0.013872     -0.012771      0.008043
      4.17217      6.26183     11.68570         0.007122      0.000014      0.001113
      2.08259      6.26183     13.76165         0.007865     -0.000005      0.096021
      4.16994      4.18131     13.76245         0.032327     -0.132765      0.101527
      6.26183      0.00000      7.50000         0.000194     -0.000247      0.313008
      0.00000      2.08728      7.50000        -0.000153      0.000000      0.311716
      6.26183      2.08728      9.58728         0.001621     -0.000001      0.043486
      0.00000      0.00000      9.58728        -0.005403     -0.001399      0.039545
      6.25984      8.34848     11.68746        -0.009586      0.010573      0.004950
      0.00023      2.08728     11.68565        -0.000571     -0.000005     -0.005323
      6.27211      2.08728     13.75416        -0.184295      0.000061      0.165480
      8.34612      8.34778     13.76384        -0.001513     -0.000830      0.081948
      6.26183      4.17456      7.50000         0.000194      0.000246      0.313006
      0.00000      6.26183      7.50000        -0.000276      0.000000      0.312278
      6.26183      6.26183      9.58728        -0.001622     -0.000006      0.039426
      0.00000      4.17456      9.58728        -0.005412      0.001400      0.039543
      6.25984      4.17519     11.68746        -0.009586     -0.010570      0.004965
      8.34749      6.26183     11.68708        -0.005236      0.000002     -0.005454
      6.25932      6.26183     13.76282         0.000218     -0.000020      0.092107
      8.34612      4.17589     13.76384        -0.001526      0.000841      0.081966
      2.08728      0.00000      9.58728        -0.004678      0.001477      0.060044
      4.17456      2.08728      9.58728        -0.005577     -0.000002      0.046146
      2.08728      2.08728      7.50000         0.000380     -0.000005     -0.590783
      4.17456      0.00000      7.50000        -0.000504      0.000343     -0.591004
      2.08475      0.00042     13.80564        -0.029192     -0.030344      0.069671
      4.17564      2.08730     13.80924        -0.043772     -0.000211      0.024738
      2.08688      2.08728     11.68145        -0.029937      0.000001     -0.003141
      4.17282      0.00115     11.68059        -0.003399     -0.036559     -0.002971
      2.08728      4.17456      9.58728        -0.004679     -0.001477      0.060042
      4.17456      6.26183      9.58728        -0.004694      0.000008      0.058620
      2.08728      6.26183      7.50000         0.000217      0.000005     -0.591177
      4.17456      4.17456      7.50000        -0.000502     -0.000343     -0.590998
      2.08475      4.17414     13.80564        -0.029230      0.030382      0.069637
      4.17154      6.26183     13.80620        -0.006286      0.000026      0.055780
      2.08557      6.26183     11.67919        -0.004578      0.000004      0.035632
      4.17282      4.17341     11.68058        -0.003395      0.036566     -0.002973
      6.26183      0.00000      9.58728        -0.004409     -0.001654      0.058317
      0.00000      2.08728      9.58728         0.001748     -0.000005      0.058162
      6.26183      2.08728      7.50000        -0.000370     -0.000003     -0.591235
      0.00000      0.00000      7.50000         0.000274      0.000286     -0.591449
      6.25747      0.00158     13.80695         0.056658     -0.049175      0.041380
      8.34798      2.08728     13.80545         0.006680     -0.000025      0.062530
      6.25964      2.08728     11.67917         0.040897      0.000005     -0.003098
      8.34706      0.00018     11.67991         0.004746     -0.005489      0.030741
      6.26183      4.17456      9.58728        -0.004407      0.001650      0.058312
      0.00000      6.26183      9.58728        -0.003577      0.000003      0.061656
      6.26183      6.26183      7.50000        -0.000391      0.000004     -0.591755
      0.00000      4.17456      7.50000         0.000271     -0.000284     -0.591440
      6.25747      4.17297     13.80695         0.056697      0.049231      0.041296
      8.34570      6.26183     13.80773         0.008330      0.000010      0.050563
      6.25980      6.26183     11.67987         0.004982      0.000003      0.028591
      8.34706      4.17437     11.67991         0.004751      0.005487      0.030728
    total drift:                               -0.004108      0.000001      0.016573

  FREE ENERGIE OF THE ION-ELECTRON SYSTEM (eV)
  free  energy   TOTEN  =      -438.96396844 eV

  energy  without entropy=     -438.96396844  energy(sigma->0) =     -438.96396844