 vasp.6.3.0 20Jan22 (build Apr  1 2022 16:44:48) complex
 executed on        HPECrayEX_GCC date 2022.11.03  19:51:57

 INCAR:
   SYSTEM = MgO-rocksalt
   ISMEAR = 0
   SIGMA = 0.05
   EDIFF = 1E-9
   ALGO = ALL
   ISTART = 0
   IBRION = 2
   NSW = 1000
   ISYM = 0
   ISIF = 2
   EDIFFG = -0.03
   DIPOL = 0.5 0.5 0.5
   IDIPOL = 3
   LDIPOL = .TRUE.
   GGA = RE
   IVDW = 13
   VDW_S8 = 1.7468
   VDW_A1 = 0.5363
   VDW_A2 = 3.0726
   ENCUT = 600
   PREC = Accurate
   LASPH = .TRUE.
   LREAL = .FALSE.
   ISPIN = 2
   MAGMOM = 1.0 0.0 0.0 0.0 0.0 0.0 0.0 0.0 0.0 0.0 0.0 0.0 0.0 0.0 0.0 0.0 0.0 0.0 0.0 0.0 0.0 0.0 0.0 0.0 0.0 0.0 0.0 0.0 0.0 0.0 0.0 0.0 0.0 0.0 0.0 0.0 0.0 0.0 0.0 0.0 0.0 0.0 0.0 0.0 0.0 0.0 0.0 0.0 0.0 0.0 0.0 0.0 0.0 0.0 0.0 0.0 0.0 0.0 0.0 0.0 0.0 0.0 0.0 0.0 0.0 0.0
   NELM = 200
   NELMIN = 8
   NCORE = 8
   KPAR = 1
   LWAVE = .FALSE.
   LCHARG = .FALSE.

 POTCAR:    PAW_PBE N 08Apr2002
 POTCAR:    PAW_PBE O 08Apr2002
 POTCAR:    PAW_PBE Mg_pv 13Apr2007
 POTCAR:    PAW_PBE O 08Apr2002
 POTCAR:    PAW_PBE N 08Apr2002
   VRHFIN =N: s2p3

   TITEL  = PAW_PBE N 08Apr2002
   POMASS =   14.001; ZVAL   =    5.000    mass and valenz
   ENMAX  =  400.000; ENMIN  =  300.000 eV

[...]

   TITEL  = PAW_PBE Mg_pv 13Apr2007
   POMASS =   24.305; ZVAL   =    8.000    mass and valenz
   ENMAX  =  403.929; ENMIN  =  302.947 eV

   TITEL  = PAW_PBE O 08Apr2002
   POMASS =   16.000; ZVAL   =    6.000    mass and valenz
   ENMAX  =  400.000; ENMIN  =  300.000 eV

  PAW_PBE N 08Apr2002                   :
  PAW_PBE O 08Apr2002                   :
  PAW_PBE Mg_pv 13Apr2007               :
  PAW_PBE O 08Apr2002                   :

 POSCAR:  N  O Mg  O
  positions in direct lattice
|           W    W    AA    RRRRR   N    N  II  N    N   GGGG   !!!           |
|           W    W   A  A   R    R  NN   N  II  NN   N  G    G  !!!           |
|           W    W  A    A  R    R  N N  N  II  N N  N  G       !!!           |
|           W WW W  AAAAAA  RRRRR   N  N N  II  N  N N  G  GGG   !            |
|           WW  WW  A    A  R   R   N   NN  II  N   NN  G    G                |
|           W    W  A    A  R    R  N    N  II  N    N   GGGG   !!!           |
|     Specifying the vdW parameters                                           |
|     VDW_S8 = 1.747                                                          |
|     VDW_A1 = 0.536                                                          |
|     VDW_A2 = 3.073                                                          |
|     in the INCAR file will overwrite the defaults for revpbe. Please        |
|     make sure that is what you intended.                                    |

 ion  position               nearest neighbor table
   1  0.496  0.750  0.758-   2 1.19
   2  0.630  0.750  0.776-   1 1.19
   3  0.000  0.750  0.352-  35 2.11  37 2.11  38 2.11  45 2.11  54 2.11
   4  0.250  0.000  0.352-  36 2.11  37 2.11  38 2.11  46 2.11  53 2.11
   5  0.000  0.000  0.451-  37 2.11  36 2.11  35 2.11  43 2.11  52 2.11  41 2.12
   6  0.250  0.750  0.451-  38 2.11  36 2.11  35 2.11  44 2.11  51 2.11  42 2.12
   7  0.000  0.750  0.550-  41 2.11  42 2.11  49 2.11  58 2.11  35 2.13  39 2.15
   8  0.250  0.000  0.550-  41 2.11  42 2.11  50 2.11  57 2.11  36 2.13  40 2.15
   9  0.000  0.000  0.649-  39 2.11  40 2.11  47 2.11  56 2.11  41 2.11
  10  0.250  0.750  0.649-  39 2.11  40 2.11  48 2.11  55 2.11  42 2.11
  11  0.000  0.250  0.352-  43 2.11  37 2.11  45 2.11  46 2.11  62 2.11
  12  0.250  0.500  0.352-  44 2.11  38 2.11  45 2.11  46 2.11  61 2.11
  13  0.000  0.500  0.451-  45 2.11  43 2.11  44 2.11  35 2.11  60 2.11  49 2.12
  14  0.250  0.250  0.451-  46 2.11  43 2.11  44 2.11  36 2.11  59 2.11  50 2.12
  15  0.000  0.250  0.550-  41 2.11  49 2.11  50 2.11  66 2.11  43 2.13  47 2.15
  16  0.250  0.500  0.550-  42 2.11  49 2.11  50 2.11  65 2.11  44 2.13  48 2.15
  17  0.000  0.500  0.649-  39 2.11  47 2.11  48 2.11  64 2.11  49 2.11
  18  0.250  0.250  0.649-  40 2.11  47 2.11  48 2.11  63 2.11  50 2.11
  19  0.500  0.750  0.352-  51 2.11  38 2.11  53 2.11  54 2.11  61 2.11
  20  0.750  0.000  0.352-  52 2.11  37 2.11  53 2.11  54 2.11  62 2.11
  21  0.500  0.000  0.451-  53 2.11  51 2.11  52 2.11  36 2.11  59 2.11  57 2.12
  22  0.750  0.750  0.451-  54 2.11  51 2.11  52 2.11  35 2.11  60 2.11  58 2.12
  23  0.500  0.750  0.550-  42 2.11  57 2.11  58 2.11  65 2.11  51 2.13  55 2.15
  24  0.750  0.000  0.550-  41 2.11  57 2.11  58 2.11  66 2.11  52 2.13  56 2.15
  25  0.500  0.000  0.649-  40 2.11  55 2.11  56 2.11  63 2.11  57 2.11
  26  0.750  0.750  0.649-  39 2.11  55 2.11  56 2.11  64 2.11  58 2.11
  27  0.500  0.250  0.352-  59 2.11  53 2.11  46 2.11  61 2.11  62 2.11
  28  0.750  0.500  0.352-  60 2.11  54 2.11  45 2.11  61 2.11  62 2.11
  29  0.500  0.500  0.451-  61 2.11  51 2.11  59 2.11  60 2.11  44 2.11  65 2.12
  30  0.750  0.250  0.451-  62 2.11  52 2.11  59 2.11  60 2.11  43 2.11  66 2.12
  31  0.500  0.250  0.550-  50 2.11  57 2.11  65 2.11  66 2.11  59 2.13  63 2.15
  32  0.750  0.500  0.550-  49 2.11  58 2.11  65 2.11  66 2.11  60 2.13  64 2.15
  33  0.500  0.500  0.649-  48 2.11  55 2.11  63 2.11  64 2.11  65 2.11
  34  0.750  0.250  0.649-  47 2.11  56 2.11  63 2.11  64 2.11  66 2.11
  35  0.000  0.750  0.451-   3 2.11   5 2.11   6 2.11  13 2.11  22 2.11   7 2.13
  36  0.250  0.000  0.451-   4 2.11   5 2.11   6 2.11  14 2.11  21 2.11   8 2.13
  37  0.000  0.000  0.352-   5 2.11   4 2.11   3 2.11  11 2.11  20 2.11
  38  0.250  0.750  0.352-   6 2.11   4 2.11   3 2.11  12 2.11  19 2.11
  39  0.000  0.750  0.651-   9 2.11  10 2.11  17 2.11  26 2.11   7 2.15
  40  0.250  0.000  0.651-   9 2.11  10 2.11  18 2.11  25 2.11   8 2.15
  41  0.000  0.000  0.550-   7 2.11   8 2.11  15 2.11  24 2.11   9 2.11   5 2.12
  42  0.250  0.750  0.550-   7 2.11   8 2.11  16 2.11  23 2.11  10 2.11   6 2.12
  43  0.000  0.250  0.451-  11 2.11   5 2.11  13 2.11  14 2.11  30 2.11  15 2.13
  44  0.250  0.500  0.451-  12 2.11   6 2.11  13 2.11  14 2.11  29 2.11  16 2.13
  45  0.000  0.500  0.352-  13 2.11  11 2.11  12 2.11   3 2.11  28 2.11
  46  0.250  0.250  0.352-  14 2.11  11 2.11  12 2.11   4 2.11  27 2.11
  47  0.000  0.250  0.651-   9 2.11  17 2.11  18 2.11  34 2.11  15 2.15
  48  0.250  0.500  0.651-  10 2.11  17 2.11  18 2.11  33 2.11  16 2.15
  49  0.000  0.500  0.550-   7 2.11  15 2.11  16 2.11  32 2.11  17 2.11  13 2.12
  50  0.250  0.250  0.550-   8 2.11  15 2.11  16 2.11  31 2.11  18 2.11  14 2.12
  51  0.500  0.750  0.451-  19 2.11   6 2.11  21 2.11  22 2.11  29 2.11  23 2.13
  52  0.750  0.000  0.451-  20 2.11   5 2.11  21 2.11  22 2.11  30 2.11  24 2.13
  53  0.500  0.000  0.352-  21 2.11  19 2.11  20 2.11   4 2.11  27 2.11
  54  0.750  0.750  0.352-  22 2.11  19 2.11  20 2.11   3 2.11  28 2.11
  55  0.500  0.750  0.651-  10 2.11  25 2.11  26 2.11  33 2.11  23 2.15
  56  0.750  0.000  0.651-   9 2.11  25 2.11  26 2.11  34 2.11  24 2.15
  57  0.500  0.000  0.550-   8 2.11  23 2.11  24 2.11  31 2.11  25 2.11  21 2.12
  58  0.750  0.750  0.550-   7 2.11  23 2.11  24 2.11  32 2.11  26 2.11  22 2.12
  59  0.500  0.250  0.451-  27 2.11  21 2.11  14 2.11  29 2.11  30 2.11  31 2.13
  60  0.750  0.500  0.451-  28 2.11  22 2.11  13 2.11  29 2.11  30 2.11  32 2.13
  61  0.500  0.500  0.352-  29 2.11  19 2.11  27 2.11  28 2.11  12 2.11
  62  0.750  0.250  0.352-  30 2.11  20 2.11  27 2.11  28 2.11  11 2.11
  63  0.500  0.250  0.651-  18 2.11  25 2.11  33 2.11  34 2.11  31 2.15
  64  0.750  0.500  0.651-  17 2.11  26 2.11  33 2.11  34 2.11  32 2.15
  65  0.500  0.500  0.550-  16 2.11  23 2.11  31 2.11  32 2.11  33 2.11  29 2.12
  66  0.750  0.250  0.550-  15 2.11  24 2.11  31 2.11  32 2.11  34 2.11  30 2.12

IMPORTANT INFORMATION: All symmetrisations will be switched off!
NOSYMM: (Re-)initialisation of all symmetry stuff for point group C_1.

                                     Primitive cell

  volume of cell :    1519.8199

  direct lattice vectors                    reciprocal lattice vectors
     8.440984654  0.000000000  0.000000000     0.118469591  0.000000000  0.000000000
     0.000000000  8.440984654  0.000000000     0.000000000  0.118469591  0.000000000
     0.000000000  0.000000000 21.330738491     0.000000000  0.000000000  0.046880702

  length of vectors
     8.440984654  8.440984654 21.330738491     0.118469591  0.118469591  0.046880702

  position of ions in fractional coordinates (direct lattice)
     0.496225559  0.750000000  0.758087942
     0.629700508  0.750000000  0.775784000
     0.000000000  0.750000000  0.351605267
     0.250000000  0.000000000  0.351605267
     0.000000000  0.000000000  0.450535089
     0.250000000  0.750000000  0.450535089
     0.000000000  0.750000000  0.550171424
     0.250000000  0.000000000  0.550171424
     0.000000000  0.000000000  0.648861363
     0.250000000  0.750000000  0.648861363
     0.000000000  0.250000000  0.351605267
     0.250000000  0.500000000  0.351605267
     0.000000000  0.500000000  0.450535089
     0.250000000  0.250000000  0.450535089
     0.000000000  0.250000000  0.550171424
     0.250000000  0.500000000  0.550171424
     0.000000000  0.500000000  0.648861363
     0.250000000  0.250000000  0.648861363
     0.500000000  0.750000000  0.351605267
     0.750000000  0.000000000  0.351605267
     0.500000000  0.000000000  0.450535089
     0.750000000  0.750000000  0.450535089
     0.500000000  0.750000000  0.550171424
     0.750000000  0.000000000  0.550171424
     0.500000000  0.000000000  0.648861363
     0.750000000  0.750000000  0.648861363
     0.500000000  0.250000000  0.351605267
     0.750000000  0.500000000  0.351605267
     0.500000000  0.500000000  0.450535089
     0.750000000  0.250000000  0.450535089
     0.500000000  0.250000000  0.550171424
     0.750000000  0.500000000  0.550171424
     0.500000000  0.500000000  0.648861363
     0.750000000  0.250000000  0.648861363
     0.000000000  0.750000000  0.450535089
     0.250000000  0.000000000  0.450535089
     0.000000000  0.000000000  0.351605267
     0.250000000  0.750000000  0.351605267
     0.000000000  0.750000000  0.651006323
     0.250000000  0.000000000  0.651006323
     0.000000000  0.000000000  0.549890244
     0.250000000  0.750000000  0.549890244
     0.000000000  0.250000000  0.450535089
     0.250000000  0.500000000  0.450535089
     0.000000000  0.500000000  0.351605267
     0.250000000  0.250000000  0.351605267
     0.000000000  0.250000000  0.651006323
     0.250000000  0.500000000  0.651006323
     0.000000000  0.500000000  0.549890244
     0.250000000  0.250000000  0.549890244
     0.500000000  0.750000000  0.450535089
     0.750000000  0.000000000  0.450535089
     0.500000000  0.000000000  0.351605267
     0.750000000  0.750000000  0.351605267
     0.500000000  0.750000000  0.651006323
     0.750000000  0.000000000  0.651006323
     0.500000000  0.000000000  0.549890244
     0.750000000  0.750000000  0.549890244
     0.500000000  0.250000000  0.450535089
     0.750000000  0.500000000  0.450535089
     0.500000000  0.500000000  0.351605267
     0.750000000  0.250000000  0.351605267
     0.500000000  0.250000000  0.651006323
     0.750000000  0.500000000  0.651006323
[...]
   0.00000000  2.11024616  7.50000000
   2.11024616  4.22049233  7.50000000
   0.00000000  4.22049233  9.61024616
   2.11024616  2.11024616  9.61024616
   0.00000000  2.11024616 11.73556278
   2.11024616  4.22049233 11.73556278
   0.00000000  4.22049233 13.84069205
   2.11024616  2.11024616 13.84069205
   4.22049233  6.33073849  7.50000000
   6.33073849  0.00000000  7.50000000
   4.22049233  0.00000000  9.61024616
   6.33073849  6.33073849  9.61024616
   4.22049233  6.33073849 11.73556278
   6.33073849  0.00000000 11.73556278
   4.22049233  0.00000000 13.84069205
   6.33073849  6.33073849 13.84069205
   4.22049233  2.11024616  7.50000000
   6.33073849  4.22049233  7.50000000
   4.22049233  4.22049233  9.61024616
   6.33073849  2.11024616  9.61024616
   4.22049233  2.11024616 11.73556278
   6.33073849  4.22049233 11.73556278
   4.22049233  4.22049233 13.84069205
   6.33073849  2.11024616 13.84069205
   0.00000000  6.33073849  9.61024616
   2.11024616  0.00000000  9.61024616
   0.00000000  0.00000000  7.50000000
   2.11024616  6.33073849  7.50000000
   0.00000000  6.33073849 13.88644563
   2.11024616  0.00000000 13.88644563
   0.00000000  0.00000000 11.72956500
   2.11024616  6.33073849 11.72956500
   0.00000000  2.11024616  9.61024616
   2.11024616  4.22049233  9.61024616
   0.00000000  4.22049233  7.50000000
   2.11024616  2.11024616  7.50000000
   0.00000000  2.11024616 13.88644563
   2.11024616  4.22049233 13.88644563
   0.00000000  4.22049233 11.72956500
   2.11024616  2.11024616 11.72956500
   4.22049233  6.33073849  9.61024616
   6.33073849  0.00000000  9.61024616
   4.22049233  0.00000000  7.50000000
   6.33073849  6.33073849  7.50000000
   4.22049233  6.33073849 13.88644563
   6.33073849  0.00000000 13.88644563
   4.22049233  0.00000000 11.72956500
   6.33073849  6.33073849 11.72956500
   4.22049233  2.11024616  9.61024616
   6.33073849  4.22049233  9.61024616
   4.22049233  4.22049233  7.50000000
   6.33073849  2.11024616  7.50000000
   4.22049233  2.11024616 13.88644563
   6.33073849  4.22049233 13.88644563
   4.22049233  4.22049233 11.72956500
   6.33073849  2.11024616 11.72956500

--------------------------------------- Iteration      FINAL  ---------------------------------------

--------------------OUTCAR has been truncated-------------------------

[...]

--------------------OUTCAR has been truncated-------------------------

  FORCE on cell =-STRESS in cart. coord.  units (eV):
  Direction    XX          YY          ZZ          XY          YZ          ZX
  Alpha Z   910.25235   910.25235   910.25235
  Ewald  159215.96145158884.78888************     0.00007     0.00014   106.27207
  Hartree169424.53714169288.03506************     0.00004     0.00010    44.57523
  E(xc)   -2515.32662 -2516.64470 -2524.34045     0.00000     0.00000     0.48713
  Local  ************************338081.72060    -0.00010    -0.00024  -142.70508
  n-local -2831.16679 -2828.02872 -2843.19758     0.00000    -0.00000    -3.20171
  augment  1053.05289  1054.73637  1043.26993    -0.00000     0.00000    -0.07664
  Kinetic  7518.52446  7555.05104  7568.33459    -0.00001     0.00000    -5.42401
  Fock        0.00000     0.00000     0.00000     0.00000     0.00000     0.00000
  vdW       -21.67553   -21.66979   -16.70565    -0.00000     0.00000    -0.01145
  Total     -26.17398   -26.28526    -1.55197    -0.00000    -0.00000    -0.08444
  in kB     -27.59232   -27.70963    -1.63607    -0.00000    -0.00000    -0.08902

 VOLUME and BASIS-vectors are now :
  energy-cutoff  :      600.00
  volume of cell :     1519.82
      direct lattice vectors                 reciprocal lattice vectors
     8.440984654  0.000000000  0.000000000     0.118469591  0.000000000  0.000000000
     0.000000000  8.440984654  0.000000000     0.000000000  0.118469591  0.000000000
     0.000000000  0.000000000 21.330738491     0.000000000  0.000000000  0.046880702

  length of vectors
     8.440984654  8.440984654 21.330738491     0.118469591  0.118469591  0.046880702

 FORCES acting on ions:
    Electron-Ion                     Ewald-Force                    Non-Local-Force
   0.244E+03 -.125E-04 -.128E+04   -.284E+03 0.845E-05 0.127E+04   0.401E+02 0.366E-05 0.975E+01
   -.230E+03 -.666E-04 -.161E+04   0.282E+03 0.748E-04 0.163E+04   -.523E+02 -.796E-05 -.193E+02
   -.967E-01 0.157E-05 0.209E+04   0.975E-01 -.152E-05 -.208E+04   -.590E-03 -.372E-07 -.715E+01
   0.302E+00 -.386E+00 0.209E+04   -.308E+00 0.392E+00 -.208E+04   0.421E-02 -.429E-02 -.717E+01
   -.395E+00 -.128E+01 0.722E+03   0.391E+00 0.129E+01 -.723E+03   0.214E-02 -.135E-01 0.494E+00
   0.207E+01 0.374E-05 0.725E+03   -.213E+01 -.307E-05 -.725E+03   0.361E-01 -.467E-06 0.539E+00
   -.260E+01 0.217E-04 -.626E+03   0.266E+01 -.251E-04 0.626E+03   -.654E-01 0.332E-05 -.268E+00
   0.511E+01 -.591E+01 -.631E+03   -.510E+01 0.589E+01 0.631E+03   -.851E-02 0.201E-01 -.421E+00
   -.856E+01 -.165E+02 -.199E+04   0.860E+01 0.166E+02 0.199E+04   -.362E-01 -.138E+00 0.612E+01
   0.351E+02 0.247E-05 -.196E+04   -.361E+02 -.124E-05 0.196E+04   0.107E+01 -.135E-05 0.632E+01
   -.882E-01 -.158E-05 0.209E+04   0.879E-01 0.153E-05 -.208E+04   0.176E-03 0.380E-07 -.717E+01
   0.302E+00 0.386E+00 0.209E+04   -.308E+00 -.392E+00 -.208E+04   0.421E-02 0.429E-02 -.717E+01
   -.395E+00 0.128E+01 0.722E+03   0.391E+00 -.129E+01 -.723E+03   0.214E-02 0.135E-01 0.494E+00
   0.881E+00 -.444E-05 0.722E+03   -.894E+00 0.379E-05 -.722E+03   0.955E-02 0.456E-06 0.496E+00
   -.140E+01 -.226E-04 -.636E+03   0.140E+01 0.260E-04 0.636E+03   -.308E-02 -.327E-05 -.213E+00
   0.511E+01 0.591E+01 -.631E+03   -.510E+01 -.589E+01 0.631E+03   -.851E-02 -.201E-01 -.421E+00
   -.856E+01 0.165E+02 -.199E+04   0.860E+01 -.166E+02 0.199E+04   -.362E-01 0.138E+00 0.612E+01
   0.116E+02 -.685E-05 -.200E+04   -.117E+02 0.560E-05 0.199E+04   0.112E+00 0.145E-05 0.611E+01
   0.100E+00 0.404E-06 0.209E+04   -.100E+00 -.414E-06 -.208E+04   -.960E-04 0.121E-07 -.712E+01
   -.304E+00 -.397E+00 0.209E+04   0.309E+00 0.403E+00 -.208E+04   -.384E-02 -.454E-02 -.717E+01
   0.415E+00 -.250E+01 0.725E+03   -.420E+00 0.256E+01 -.725E+03   0.265E-02 -.439E-01 0.547E+00
   -.211E+01 0.737E-05 0.726E+03   0.218E+01 -.715E-05 -.726E+03   -.457E-01 -.152E-06 0.536E+00
   0.276E+01 -.122E-04 -.608E+03   -.281E+01 0.723E-05 0.607E+03   0.564E-01 0.590E-05 0.653E+00
   -.522E+01 -.738E+01 -.627E+03   0.521E+01 0.739E+01 0.627E+03   0.437E-02 -.677E-02 -.434E+00
   0.110E+02 -.433E+02 -.195E+04   -.111E+02 0.443E+02 0.194E+04   0.528E-01 -.940E+00 0.622E+01
   -.426E+02 0.723E-05 -.192E+04   0.438E+02 -.603E-05 0.191E+04   -.123E+01 -.147E-05 0.636E+01
   0.887E-01 -.385E-06 0.209E+04   -.887E-01 0.404E-06 -.208E+04   0.371E-04 -.183E-07 -.716E+01
   -.304E+00 0.397E+00 0.209E+04   0.309E+00 -.403E+00 -.208E+04   -.384E-02 0.454E-02 -.717E+01
   0.415E+00 0.250E+01 0.725E+03   -.420E+00 -.256E+01 -.725E+03   0.264E-02 0.439E-01 0.547E+00
   -.904E+00 -.668E-05 0.722E+03   0.913E+00 0.645E-05 -.723E+03   -.663E-02 0.151E-06 0.502E+00
   0.148E+01 0.161E-04 -.629E+03   -.149E+01 -.110E-04 0.630E+03   0.272E-02 -.599E-05 -.237E+00
   -.522E+01 0.738E+01 -.627E+03   0.521E+01 -.739E+01 0.627E+03   0.437E-02 0.677E-02 -.434E+00
   0.110E+02 0.433E+02 -.195E+04   -.111E+02 -.443E+02 0.194E+04   0.528E-01 0.940E+00 0.622E+01
   -.121E+02 -.779E-05 -.199E+04   0.122E+02 0.668E-05 0.199E+04   -.116E+00 0.138E-05 0.612E+01
   -.282E+00 0.492E-05 0.542E+03   0.266E+00 -.463E-05 -.542E+03   0.196E-01 -.331E-06 -.701E-01
   0.939E+00 -.122E+01 0.541E+03   -.951E+00 0.124E+01 -.541E+03   0.178E-01 -.266E-01 -.163E+00
   -.695E-01 -.245E+00 0.157E+04   0.697E-01 0.250E+00 -.157E+04   -.353E-03 -.675E-02 0.340E+01
   0.282E+00 0.685E-06 0.157E+04   -.291E+00 -.606E-06 -.157E+04   0.131E-01 -.110E-06 0.341E+01
   -.120E+02 -.321E-05 -.150E+04   0.121E+02 0.393E-05 0.151E+04   -.148E+00 -.645E-06 -.499E+01
   0.177E+02 -.181E+02 -.150E+04   -.177E+02 0.181E+02 0.151E+04   0.254E-01 -.120E-02 -.505E+01
   -.145E+01 -.379E+01 -.469E+03   0.142E+01 0.379E+01 0.469E+03   0.278E-01 0.448E-03 0.205E+00
   0.511E+01 0.188E-04 -.465E+03   -.511E+01 -.177E-04 0.465E+03   -.300E-02 -.151E-05 0.552E-01
   -.266E+00 -.507E-05 0.541E+03   0.269E+00 0.477E-05 -.541E+03   -.455E-02 0.346E-06 -.109E+00
   0.939E+00 0.122E+01 0.541E+03   -.951E+00 -.124E+01 -.541E+03   0.178E-01 0.266E-01 -.163E+00
   -.695E-01 0.245E+00 0.157E+04   0.697E-01 -.250E+00 -.157E+04   -.353E-03 0.675E-02 0.340E+01
   0.179E+00 -.699E-06 0.157E+04   -.183E+00 0.622E-06 -.157E+04   0.561E-02 0.109E-06 0.340E+01
   -.343E+01 0.365E-05 -.152E+04   0.341E+01 -.422E-05 0.153E+04   0.230E-01 0.383E-06 -.499E+01
   0.177E+02 0.181E+02 -.150E+04   -.177E+02 -.181E+02 0.151E+04   0.254E-01 0.120E-02 -.505E+01
   -.145E+01 0.379E+01 -.469E+03   0.142E+01 -.379E+01 0.469E+03   0.278E-01 -.448E-03 0.205E+00
   0.276E+01 -.234E-04 -.471E+03   -.277E+01 0.227E-04 0.470E+03   0.783E-02 0.124E-05 0.237E+00
   0.340E+00 -.377E-05 0.547E+03   -.344E+00 0.485E-05 -.547E+03   0.646E-02 -.133E-05 0.940E-01
   -.971E+00 -.129E+01 0.542E+03   0.994E+00 0.130E+01 -.542E+03   -.316E-01 -.222E-01 -.162E+00
   0.713E-01 -.350E+00 0.157E+04   -.711E-01 0.359E+00 -.157E+04   -.294E-03 -.135E-01 0.341E+01
   -.285E+00 0.962E-06 0.157E+04   0.293E+00 -.931E-06 -.157E+04   -.120E-01 -.439E-07 0.341E+01
   0.169E+02 -.262E-04 -.140E+04   -.168E+02 0.262E-04 0.140E+04   -.117E+00 0.113E-06 -.365E+01
   -.193E+02 -.283E+02 -.149E+04   0.193E+02 0.283E+02 0.150E+04   0.405E-01 -.190E-02 -.509E+01
   0.164E+01 -.640E+01 -.463E+03   -.164E+01 0.642E+01 0.463E+03   0.278E-02 -.169E-01 0.112E+00
   -.524E+01 0.232E-04 -.458E+03   0.525E+01 -.227E-04 0.458E+03   -.748E-02 -.976E-06 0.197E+00
   0.266E+00 0.406E-05 0.542E+03   -.263E+00 -.523E-05 -.542E+03   -.292E-02 0.146E-05 -.837E-01
   -.971E+00 0.129E+01 0.542E+03   0.994E+00 -.130E+01 -.542E+03   -.316E-01 0.222E-01 -.162E+00
   0.713E-01 0.350E+00 0.157E+04   -.711E-01 -.359E+00 -.157E+04   -.294E-03 0.135E-01 0.341E+01
   -.179E+00 -.950E-06 0.157E+04   0.183E+00 0.916E-06 -.157E+04   -.583E-02 0.431E-07 0.340E+01
   0.379E+01 0.333E-04 -.151E+04   -.380E+01 -.350E-04 0.151E+04   0.841E-02 0.132E-05 -.496E+01
   -.193E+02 0.283E+02 -.149E+04   0.193E+02 -.283E+02 0.150E+04   0.405E-01 0.190E-02 -.509E+01
   0.164E+01 0.640E+01 -.463E+03   -.164E+01 -.642E+01 0.463E+03   0.278E-02 0.169E-01 0.111E+00
   -.283E+01 -.197E-04 -.469E+03   0.284E+01 0.190E-04 0.469E+03   -.116E-01 0.119E-05 0.220E+00
   0.124E+02 0.109E-05 0.259E+02   -.441E-12 0.128E-12 0.625E-12   -.124E+02 -.121E-05 -.259E+02

 POSITION                                       TOTAL-FORCE (eV/Angst)
      4.18320      6.33074     16.18034        -0.018694     -0.000000      0.011806
      5.31003      6.33074     16.56757        -0.007400      0.000000      0.024940
      0.00000      6.33074      7.50000         0.000211      0.000000      0.337887
      2.11025      0.00000      7.50000        -0.001600      0.001664      0.340525
      0.00000      0.00000      9.61025        -0.001785      0.005124      0.087155
      2.11025      6.33074      9.61025        -0.016226      0.000000      0.072252
      0.00311      6.33074     11.73283        -0.004296     -0.000000      0.006017
      2.10959     -0.00052     11.73881         0.006881     -0.001336     -0.005255
      0.00022      0.00366     13.84277         0.000199     -0.004183      0.015436
      2.09683      6.33074     13.85267         0.010350     -0.000000      0.000927
      0.00000      2.11025      7.50000         0.000003     -0.000000      0.340839
      2.11025      4.22049      7.50000        -0.001600     -0.001664      0.340524
      0.00000      4.22049      9.61025        -0.001785     -0.005124      0.087155
      2.11025      2.11025      9.61025        -0.003698     -0.000000      0.088087
     -0.00039      2.11025     11.73378        -0.001274      0.000000      0.009369
      2.10959      4.22101     11.73881         0.006880      0.001336     -0.005253
      0.00022      4.21683     13.84277         0.000199      0.004183      0.015436
      2.10631      2.11025     13.84147         0.004915      0.000000      0.018473
      4.22049      6.33074      7.50000         0.000073      0.000000      0.329163
      6.33074      0.00000      7.50000         0.001539      0.001742      0.340466
      4.22049      0.00000      9.61025        -0.001462      0.020826      0.075668
      6.33074      6.33074      9.61025         0.022388      0.000000      0.075058
      4.22010      6.33074     11.71799         0.000960      0.000001      0.003655
      6.32997      0.00021     11.73894        -0.000622     -0.002077     -0.006280
      4.21819      0.01621     13.84938         0.003867     -0.009997      0.003697
      6.35972      6.33074     13.84207        -0.018598     -0.000000      0.006574
      4.22049      2.11025      7.50000         0.000037      0.000000      0.338413
      6.33074      4.22049      7.50000         0.001539     -0.001742      0.340466
      4.22049      4.22049      9.61025        -0.001462     -0.020826      0.075667
      6.33074      2.11025      9.61025         0.002504     -0.000000      0.087431
      4.21995      2.11025     11.73425        -0.000366     -0.000001      0.004001
      6.32997      4.22028     11.73894        -0.000621      0.002077     -0.006278
      4.21819      4.20429     13.84938         0.003867      0.009997      0.003696
      6.33266      2.11025     13.84240         0.001392      0.000000      0.015247
      0.00000      6.33074      9.61025         0.003974     -0.000000      0.080031
      2.11025      0.00000      9.61025         0.005293     -0.007132      0.079921
      0.00000      0.00000      7.50000        -0.000070     -0.001898     -0.502728
      2.11025      6.33074      7.50000         0.003817     -0.000000     -0.498863
      0.00422      6.33074     13.88023        -0.006054      0.000000     -0.013721
      2.11136     -0.00180     13.88182         0.004189     -0.001048     -0.010625
     -0.00046     -0.00010     11.72916         0.002963     -0.001568     -0.002108
      2.11421      6.33074     11.73076        -0.008586     -0.000000      0.004494
      0.00000      2.11025      9.61025        -0.001211      0.000000      0.071922
      2.11025      4.22049      9.61025         0.005293      0.007132      0.079921
      0.00000      4.22049      7.50000        -0.000070      0.001898     -0.502728
      2.11025      2.11025      7.50000         0.001591      0.000000     -0.502943
     -0.00082      2.11025     13.88529         0.003266     -0.000000     -0.020729
      2.11136      4.22230     13.88183         0.004189      0.001048     -0.010624
     -0.00046      4.22059     11.72916         0.002964      0.001568     -0.002108
      2.11036      2.11025     11.72921         0.000350      0.000001     -0.000332
      4.22049      6.33074      9.61025         0.002340     -0.000000      0.051330
      6.33074      0.00000      9.61025        -0.008593     -0.006230      0.080846
      4.22049      0.00000      7.50000        -0.000060     -0.003888     -0.498937
      6.33074      6.33074      7.50000        -0.003421     -0.000000     -0.498684
      4.22627      6.33074     13.86807        -0.000263      0.000000      0.009285
      6.32820     -0.00281     13.88173        -0.000687     -0.001068     -0.011056
      4.21980     -0.00312     11.73117         0.002478      0.007052      0.003740
      6.32874      6.33074     11.73007         0.006472     -0.000001      0.003290
      4.22049      2.11025      9.61025        -0.000546      0.000000      0.083109
      6.33074      4.22049      9.61025        -0.008594      0.006230      0.080846
      4.22049      4.22049      7.50000        -0.000060      0.003888     -0.498937
      6.33074      2.11025      7.50000        -0.001596      0.000000     -0.502934
      4.21957      2.11025     13.88402         0.003180     -0.000000     -0.013365
      6.32820      4.22330     13.88173        -0.000686      0.001068     -0.011055
      4.21980      4.22362     11.73117         0.002478     -0.007052      0.003739
      6.32966      2.11025     11.72952        -0.000660      0.000000     -0.002956
    total drift:                               -0.002070     -0.000000      0.002682

  FREE ENERGIE OF THE ION-ELECTRON SYSTEM (eV)
  free  energy   TOTEN  =      -383.58969913 eV

  energy  without entropy=     -383.58969913  energy(sigma->0) =     -383.58969913

 d Force = 0.2356175E-04[ 0.167E-04, 0.304E-04]  d Energy = 0.2372507E-04-0.163E-06
 d Force = 0.1096428E+01[ 0.110E+01, 0.110E+01]  d Ewald  = 0.1096428E+01 0.225E-07

 reached required accuracy - stopping structural energy minimisation