 vasp.6.3.0 20Jan22 (build Apr  1 2022 16:44:48) complex
 executed on        HPECrayEX_GCC date 2022.11.13  09:15:05

 INCAR:
   SYSTEM = MgO-rocksalt
   ISMEAR = 0
   SIGMA = 0.05
   EDIFF = 1E-6
   ALGO = ALL
   ISTART = 0
   IBRION = -1
   NSW = 0
   ISYM = 0
   DIPOL = 0.5 0.5 0.5
   IDIPOL = 3
   LDIPOL = .TRUE.
   LHFCALC = .TRUE.
   GGA = B5
   AEXX = 0.2
   AGGAX = 0.72
   AGGAC = 0.81
   ALDAC = 0.19
   IVDW = 1
   VDW_S6 = 1.05
   VDW_C6 = 1.75 0.70 0.14 0.63 0.70
   VDW_R0 = 1.452 1.342 1.001 1.243 1.342
   ENCUT = 600
   PREC = Accurate
   LASPH = .TRUE.
   LREAL = .FALSE.
   ISPIN = 1
   NELM = 200
   NELMIN = 8
   NCORE = 8
   KPAR = 1
   LWAVE = .FALSE.
   LCHARG = .FALSE.

 POTCAR:    PAW_PBE C 08Apr2002
 POTCAR:    PAW_PBE O 08Apr2002
 POTCAR:    PAW_PBE H 15Jun2001
 POTCAR:    PAW_PBE Mg_pv 13Apr2007
 POTCAR:    PAW_PBE O 08Apr2002
 POTCAR:    PAW_PBE C 08Apr2002
   VRHFIN =C: s2p2

   TITEL  = PAW_PBE C 08Apr2002
   POMASS =   12.011; ZVAL   =    4.000    mass and valenz
   ENMAX  =  400.000; ENMIN  =  300.000 eV

[...]

   TITEL  = PAW_PBE H 15Jun2001
   POMASS =    1.000; ZVAL   =    1.000    mass and valenz
   ENMAX  =  250.000; ENMIN  =  200.000 eV

   TITEL  = PAW_PBE Mg_pv 13Apr2007
   POMASS =   24.305; ZVAL   =    8.000    mass and valenz
   ENMAX  =  403.929; ENMIN  =  302.947 eV

   TITEL  = PAW_PBE O 08Apr2002
   POMASS =   16.000; ZVAL   =    6.000    mass and valenz
   ENMAX  =  400.000; ENMIN  =  300.000 eV

  PAW_PBE C 08Apr2002                   :
  PAW_PBE O 08Apr2002                   :
  PAW_PBE H 15Jun2001                   :
  PAW_PBE Mg_pv 13Apr2007               :
  PAW_PBE O 08Apr2002                   :

 POSCAR:  C  O  H Mg  O
  positions in direct lattice
 exchange correlation table for  LEXCH =       12
   RHO(1)=    0.500       N(1)  =     2000
   RHO(2)=  100.500       N(2)  =     4000

 ion  position               nearest neighbor table
   1  0.416  0.627  0.796-   3 1.10   6 1.10   5 1.10   2 1.44
   2  0.416  0.494  0.754-   4 1.02   1 1.44
   3  0.519  0.615  0.827-   1 1.10
   4  0.320  0.499  0.725-   2 1.02
   5  0.425  0.740  0.770-   1 1.10
   6  0.308  0.627  0.825-   1 1.10
   7  0.000  0.750  0.352-  39 2.11  41 2.11  42 2.11  49 2.11  58 2.11
   8  0.250  0.000  0.352-  40 2.11  41 2.11  42 2.11  50 2.11  57 2.11
   9  0.000  0.000  0.451-  41 2.11  40 2.11  39 2.11  47 2.11  56 2.11  45 2.12
  10  0.250  0.750  0.451-  42 2.11  40 2.11  39 2.11  48 2.11  55 2.11  46 2.12
  11  1.000  0.750  0.550-  62 2.10  53 2.11  46 2.11  45 2.11  39 2.12  43 2.15
  12  0.250  0.000  0.550-  61 2.11  45 2.11  54 2.11  46 2.12  40 2.12  44 2.15
  13  0.999  1.000  0.649-  60 2.10  51 2.10  43 2.11  45 2.11  44 2.11
  14  0.249  0.753  0.648-  46 2.09  44 2.09  43 2.11  59 2.11  52 2.14
  15  0.000  0.250  0.352-  47 2.11  41 2.11  49 2.11  50 2.11  66 2.11
  16  0.250  0.500  0.352-  48 2.11  42 2.11  49 2.11  50 2.11  65 2.11
  17  0.000  0.500  0.451-  49 2.11  47 2.11  48 2.11  39 2.11  64 2.11  53 2.12
  18  0.250  0.250  0.451-  50 2.11  47 2.11  48 2.11  40 2.11  63 2.11  54 2.12
  19  1.000  0.250  0.550-  70 2.10  54 2.11  53 2.11  45 2.11  47 2.12  51 2.15
  20  0.251  0.500  0.550-  69 2.10  54 2.10  46 2.11  53 2.12  48 2.13  52 2.19
  21  0.997  0.500  0.649-  68 2.07  52 2.09  53 2.10  51 2.12  43 2.12
  22  0.250  0.247  0.648-  44 2.09  54 2.10  67 2.11  51 2.11  52 2.14
  23  0.500  0.750  0.352-  55 2.11  42 2.11  57 2.11  58 2.11  65 2.11
  24  0.750  0.000  0.352-  56 2.11  41 2.11  57 2.11  58 2.11  66 2.11
  25  0.500  0.000  0.451-  57 2.11  55 2.11  56 2.11  40 2.11  63 2.11  61 2.11
  26  0.750  0.750  0.451-  58 2.11  55 2.11  56 2.11  39 2.11  64 2.11  62 2.12
  27  0.500  0.749  0.551-  69 2.10  62 2.11  46 2.12  61 2.12  59 2.13  55 2.13
  28  0.750  1.000  0.550-  61 2.11  70 2.11  62 2.11  45 2.11  56 2.12  60 2.15
  29  0.500  0.000  0.648-  67 2.09  59 2.10  61 2.11  60 2.11  44 2.12
  30  0.750  0.751  0.649-  60 2.10  62 2.11  43 2.11  59 2.11  68 2.12
  31  0.500  0.250  0.352-  63 2.11  57 2.11  50 2.11  65 2.11  66 2.11
  32  0.750  0.500  0.352-  64 2.11  58 2.11  49 2.11  65 2.11  66 2.11
  33  0.500  0.500  0.451-  65 2.11  55 2.11  63 2.11  64 2.11  48 2.11  69 2.14
  34  0.750  0.250  0.451-  66 2.11  56 2.11  63 2.11  64 2.11  47 2.11  70 2.12
  35  0.500  0.251  0.551-  69 2.10  70 2.11  54 2.12  67 2.12  61 2.12  63 2.13
  36  0.749  0.500  0.550-  69 2.11  70 2.11  62 2.11  53 2.12  64 2.13  68 2.15
  37  0.507  0.499  0.654-  68 2.07  67 2.12  59 2.13  69 2.20  52 2.21
  38  0.750  0.249  0.649-  60 2.10  67 2.11  70 2.11  51 2.11  68 2.12
  39  0.000  0.750  0.451-   7 2.11   9 2.11  10 2.11  17 2.11  26 2.11  11 2.12
  40  0.250  0.000  0.451-   8 2.11   9 2.11  10 2.11  18 2.11  25 2.11  12 2.12
  41  0.000  0.000  0.352-   9 2.11   8 2.11   7 2.11  15 2.11  24 2.11
  42  0.250  0.750  0.352-  10 2.11   8 2.11   7 2.11  16 2.11  23 2.11
  43  1.000  0.750  0.651-  13 2.11  14 2.11  30 2.11  21 2.12  11 2.15
  44  0.250  1.000  0.651-  14 2.09  22 2.09  13 2.11  29 2.12  12 2.15
  45  0.000  1.000  0.550-  13 2.11  12 2.11  11 2.11  19 2.11  28 2.11   9 2.12
  46  0.250  0.749  0.550-  14 2.09  20 2.11  11 2.11  27 2.12  12 2.12  10 2.12
  47  0.000  0.250  0.451-  15 2.11   9 2.11  17 2.11  18 2.11  34 2.11  19 2.12
  48  0.250  0.500  0.451-  16 2.11  10 2.11  17 2.11  18 2.11  33 2.11  20 2.13
  49  0.000  0.500  0.352-  17 2.11  15 2.11  16 2.11   7 2.11  32 2.11
  50  0.250  0.250  0.352-  18 2.11  15 2.11  16 2.11   8 2.11  31 2.11
  51  1.000  0.249  0.651-  13 2.10  22 2.11  38 2.11  21 2.12  19 2.15
  52  0.245  0.500  0.653-  21 2.09  14 2.14  22 2.14  20 2.19  37 2.21
  53  0.000  0.500  0.550-  21 2.10  11 2.11  19 2.11  20 2.12  17 2.12  36 2.12
  54  0.250  0.250  0.550-  22 2.10  20 2.10  19 2.11  12 2.11  35 2.12  18 2.12
  55  0.500  0.750  0.451-  23 2.11  10 2.11  25 2.11  26 2.11  33 2.11  27 2.13
  56  0.750  0.000  0.451-  24 2.11   9 2.11  25 2.11  26 2.11  34 2.11  28 2.12
  57  0.500  0.000  0.352-  25 2.11  23 2.11  24 2.11   8 2.11  31 2.11
  58  0.750  0.750  0.352-  26 2.11  23 2.11  24 2.11   7 2.11  32 2.11
  59  0.500  0.751  0.650-  29 2.10  14 2.11  30 2.11  37 2.13  27 2.13
  60  0.750  1.000  0.651-  30 2.10  13 2.10  38 2.10  29 2.11  28 2.15
  61  0.500  1.000  0.550-  29 2.11  12 2.11  28 2.11  25 2.11  27 2.12  35 2.12
  62  0.750  0.750  0.550-  11 2.10  30 2.11  27 2.11  36 2.11  28 2.11  26 2.12
  63  0.500  0.250  0.451-  31 2.11  25 2.11  18 2.11  33 2.11  34 2.11  35 2.13
  64  0.750  0.500  0.451-  32 2.11  26 2.11  17 2.11  33 2.11  34 2.11  36 2.13
  65  0.500  0.500  0.352-  33 2.11  23 2.11  31 2.11  32 2.11  16 2.11
  66  0.750  0.250  0.352-  34 2.11  24 2.11  31 2.11  32 2.11  15 2.11
  67  0.500  0.248  0.650-  29 2.09  22 2.11  38 2.11  35 2.12  37 2.12
  68  0.752  0.500  0.651-  37 2.07  21 2.07  30 2.12  38 2.12  36 2.15
  69  0.499  0.500  0.551-  20 2.10  27 2.10  35 2.10  36 2.11  33 2.14  37 2.20
  70  0.750  0.250  0.550-  19 2.10  36 2.11  28 2.11  38 2.11  35 2.11  34 2.12

IMPORTANT INFORMATION: All symmetrisations will be switched off!
NOSYMM: (Re-)initialisation of all symmetry stuff for point group C_1.

                                     Primitive cell

  volume of cell :    1519.8199

  direct lattice vectors                    reciprocal lattice vectors
     8.440984654  0.000000000  0.000000000     0.118469591  0.000000000  0.000000000
     0.000000000  8.440984654  0.000000000     0.000000000  0.118469591  0.000000000
     0.000000000  0.000000000 21.330738491     0.000000000  0.000000000  0.046880702

  length of vectors
     8.440984654  8.440984654 21.330738491     0.118469591  0.118469591  0.046880702

  position of ions in fractional coordinates (direct lattice)
     0.415525303  0.626509350  0.795741410
     0.416324820  0.493575868  0.753701086
     0.519002017  0.615382953  0.826623592
     0.319614120  0.499271265  0.725393517
     0.424857174  0.739555082  0.769959126
     0.307740400  0.627118317  0.824959915
     0.000000000  0.750000000  0.351605267
     0.250000000  0.000000000  0.351605267
     0.000000000  0.000000000  0.450535089
     0.250000000  0.750000000  0.450535089
     0.999563908  0.749764684  0.549986305
     0.250127956  0.000116730  0.549798927
     0.999362416  0.999984282  0.648653567
     0.249374068  0.752659422  0.647733904
     0.000000000  0.250000000  0.351605267
     0.250000000  0.500000000  0.351605267
     0.000000000  0.500000000  0.450535089
     0.250000000  0.250000000  0.450535089
     0.999710421  0.250051069  0.550099330
     0.251023676  0.499723648  0.550406439
     0.997370222  0.499714498  0.648632417
     0.250017857  0.247088788  0.648499312
     0.500000000  0.750000000  0.351605267
     0.750000000  0.000000000  0.351605267
     0.500000000  0.000000000  0.450535089
     0.750000000  0.750000000  0.450535089
     0.500213365  0.748833867  0.550505281
     0.749707933  0.999999257  0.549909484
     0.500355013  0.000239253  0.648324023
     0.750054991  0.750771690  0.648584595
     0.500000000  0.250000000  0.351605267
     0.750000000  0.500000000  0.351605267
     0.500000000  0.500000000  0.450535089
     0.750000000  0.250000000  0.450535089
     0.500136856  0.250960236  0.550501652
     0.749039920  0.499813896  0.550375482
     0.506611541  0.499259346  0.654114457
     0.749717086  0.248977173  0.648821437
     0.000000000  0.750000000  0.450535089
     0.250000000  0.000000000  0.450535089
     0.000000000  0.000000000  0.351605267
     0.250000000  0.750000000  0.351605267
     0.999931378  0.750499252  0.650945361
     0.249589581  0.999642836  0.650687451
     0.000097463  0.999854923  0.549722538
     0.249615975  0.749330324  0.549963429
     0.000000000  0.250000000  0.450535089
     0.250000000  0.500000000  0.450535089
     0.000000000  0.500000000  0.351605267
     0.250000000  0.250000000  0.351605267
     0.999904773  0.249193479  0.650954252
     0.244735580  0.500114000  0.653183369
     0.000447101  0.499963904  0.549981854
     0.249531303  0.250491217  0.550060919
     0.500000000  0.750000000  0.450535089
     0.750000000  0.000000000  0.450535089
     0.500000000  0.000000000  0.351605267
     0.750000000  0.750000000  0.351605267
     0.499630408  0.751353426  0.650399591
     0.750176024  0.999735778  0.650791269
     0.499796986  0.999712707  0.549547722
     0.750205742  0.749878658  0.549833611
     0.500000000  0.250000000  0.450535089
     0.750000000  0.500000000  0.450535089
     0.500000000  0.500000000  0.351605267
     0.750000000  0.250000000  0.351605267
     0.499715350  0.248309506  0.649697871
     0.751933680  0.500038256  0.650935875
     0.499375294  0.500055573  0.550792249
     0.750335547  0.249943409  0.549821171

  ion indices of the primitive-cell ions
   primitive index   ion index
                 1           1
                 2           2
                 3           3
                 4           4
                 5           5
                 6           6
                 7           7
                 8           8
                 9           9
                10          10
[...]
   2.10496268  6.35318663 13.81664252
   0.00000000  2.11024616  7.50000000
   2.11024616  4.22049233  7.50000000
   0.00000000  4.22049233  9.61024616
   2.11024616  2.11024616  9.61024616
   8.43854032  2.11067723 11.73402494
   2.11888700  4.21815964 11.74057582
   8.41878674  4.21808241 13.83580847
   2.11039690  2.08567266 13.83296923
   4.22049233  6.33073849  7.50000000
   6.33073849  0.00000000  7.50000000
   4.22049233  0.00000000  9.61024616
   6.33073849  6.33073849  9.61024616
   4.22229334  6.32089518 11.74268419
   6.32827316  8.44097838 11.72997539
   4.22348899  0.00201953 13.82923018
   6.33120267  6.33725231 13.83478837
   4.22049233  2.11024616  7.50000000
   6.33073849  4.22049233  7.50000000
   4.22049233  4.22049233  9.61024616
   6.33073849  2.11024616  9.61024616
   4.22164752  2.11835150 11.74260678
   6.32263447  4.21892142 11.73991548
   4.27630024  4.21424048 13.95274443
   6.32835042  2.10161250 13.83984039
   0.00000000  6.33073849  9.61024616
   2.11024616  0.00000000  9.61024616
   0.00000000  0.00000000  7.50000000
   2.11024616  6.33073849  7.50000000
   8.44040542  6.33495267 13.88514527
   2.10678182  8.43796984 13.87964385
   0.00082269  8.43976006 11.72598771
   2.10700461  6.32508577 11.73112607
   0.00000000  2.11024616  9.61024616
   2.11024616  4.22049233  9.61024616
   0.00000000  4.22049233  7.50000000
   2.11024616  2.11024616  7.50000000
   8.44018084  2.10343834 13.88533492
   2.06580928  4.22145460 13.93288363
   0.00377397  4.22018764 11.73151910
   2.10628990  2.11439252 11.73320563
   4.22049233  6.33073849  9.61024616
   6.33073849  0.00000000  9.61024616
   4.22049233  0.00000000  7.50000000
   6.33073849  6.33073849  7.50000000
   4.21737261  6.34216274 13.87350359
   6.33222431  8.43875436 13.88185837
   4.21877869  8.43855962 11.72225875
   6.33247516  6.32971424 11.72835697
   4.22049233  2.11024616  9.61024616
   6.33073849  4.22049233  9.61024616
   4.22049233  4.22049233  7.50000000
   6.33073849  2.11024616  7.50000000
   4.21808960  2.09597673 13.85853539
   6.34706066  4.22081524 13.88494293
   4.21521920  4.22096142 11.74880543
   6.33357083  2.10976848 11.72809162

--------------------------------------- Iteration      FINAL  ---------------------------------------

--------------------OUTCAR has been truncated-------------------------

[...]

--------------------OUTCAR has been truncated-------------------------

  DFT-D2 method for vdW energy calculation

  Parameters of vdW forcefield:
         C6(Jnm^6/mol)     R0(A)
   C        1.750          1.452
   O        0.700          1.342
   H        0.140          1.001
   Mg       0.630          1.243
   O        0.700          1.342

  vdW correction parametrized for the method        ìxS

  IVDW =   1
  VDW_RADIUS =    50.000 A
  VDW_S6 =     1.050
  VDW_SR =     1.000
  VDW_D =    20.000
  LVDW_EWALD = F

  Number of pair interactions contributing to vdW energy:  862569
  Edisp (eV):   -5.32570

 VOLUME and BASIS-vectors are now :
  energy-cutoff  :      600.00
  volume of cell :     1519.82
      direct lattice vectors                 reciprocal lattice vectors
     8.440984654  0.000000000  0.000000000     0.118469591  0.000000000  0.000000000
     0.000000000  8.440984654  0.000000000     0.000000000  0.118469591  0.000000000
     0.000000000  0.000000000 21.330738491     0.000000000  0.000000000  0.046880702

  length of vectors
     8.440984654  8.440984654 21.330738491     0.118469591  0.118469591  0.046880702

 FORCES acting on ions:
    Electron-Ion                     Ewald-Force                    Non-Local-Force
   -.947E+00 -.950E+02 -.101E+04   0.119E+01 0.997E+02 0.102E+04   -.165E+00 -.449E+01 -.333E+01
   -.314E+02 0.138E+03 -.160E+04   0.561E+02 -.169E+03 0.160E+04   -.223E+02 0.283E+02 -.769E+00
   -.483E+02 -.392E+01 -.245E+03   0.527E+02 0.344E+01 0.248E+03   -.451E+01 0.478E+00 -.341E+01
   0.669E+02 0.655E+01 -.251E+03   -.721E+02 -.652E+01 0.247E+03   0.542E+01 -.111E+00 0.401E+01
   -.444E+01 -.603E+02 -.239E+03   0.493E+01 0.650E+02 0.237E+03   -.489E+00 -.481E+01 0.278E+01
   0.490E+02 -.916E+01 -.244E+03   -.535E+02 0.918E+01 0.247E+03   0.456E+01 -.407E-01 -.318E+01
   0.105E+00 -.202E-03 0.209E+04   -.109E+00 -.279E-02 -.208E+04   0.254E-02 0.195E-02 -.638E+01
   0.113E+00 -.117E+00 0.209E+04   -.108E+00 0.118E+00 -.208E+04   -.334E-02 -.757E-03 -.637E+01
   0.488E+00 -.493E+00 0.732E+03   -.527E+00 0.504E+00 -.732E+03   0.248E-01 -.746E-02 0.407E+00
   0.317E+00 -.155E+00 0.733E+03   -.277E+00 0.706E-01 -.734E+03   -.247E-01 0.554E-01 0.539E+00
   0.276E+01 -.340E+01 -.614E+03   -.286E+01 0.335E+01 0.614E+03   0.957E-01 0.419E-01 -.515E-01
   0.443E+01 -.208E+01 -.610E+03   -.435E+01 0.215E+01 0.610E+03   -.636E-01 -.593E-01 -.362E-03
   0.829E+01 -.497E+01 -.198E+04   -.849E+01 0.503E+01 0.198E+04   0.178E+00 -.504E-01 0.531E+01
   0.342E+02 -.331E+02 -.191E+04   -.344E+02 0.344E+02 0.190E+04   0.202E+00 -.109E+01 0.566E+01
   0.958E-01 -.562E-03 0.209E+04   -.991E-01 0.316E-02 -.208E+04   0.217E-02 -.167E-02 -.639E+01
   0.100E+00 0.117E+00 0.209E+04   -.916E-01 -.119E+00 -.208E+04   -.585E-02 0.102E-02 -.640E+01
   0.599E+00 0.480E+00 0.732E+03   -.573E+00 -.499E+00 -.732E+03   -.176E-01 0.122E-01 0.463E+00
   0.304E+00 0.130E+00 0.732E+03   -.289E+00 -.516E-01 -.733E+03   -.807E-02 -.515E-01 0.545E+00
   0.224E+01 0.339E+01 -.618E+03   -.231E+01 -.334E+01 0.618E+03   0.651E-01 -.427E-01 -.123E+00
   0.500E+01 0.218E+01 -.612E+03   -.470E+01 -.224E+01 0.611E+03   -.278E+00 0.566E-01 0.894E+00
   0.183E+02 0.538E+01 -.196E+04   -.188E+02 -.543E+01 0.195E+04   0.442E+00 0.434E-01 0.525E+01
   0.273E+02 0.318E+02 -.194E+04   -.273E+02 -.330E+02 0.193E+04   -.323E-01 0.108E+01 0.554E+01
   -.107E+00 0.132E-01 0.209E+04   0.110E+00 -.197E-01 -.208E+04   -.223E-02 0.448E-02 -.641E+01
   -.113E+00 -.108E+00 0.209E+04   0.108E+00 0.109E+00 -.208E+04   0.355E-02 -.426E-03 -.639E+01
   -.491E+00 -.515E+00 0.734E+03   0.524E+00 0.498E+00 -.734E+03   -.217E-01 0.112E-01 0.276E+00
   -.306E+00 0.435E-01 0.733E+03   0.257E+00 -.588E-01 -.733E+03   0.304E-01 0.888E-02 0.446E+00
   -.289E+01 -.489E+01 -.605E+03   0.298E+01 0.458E+01 0.605E+03   -.843E-01 0.274E+00 -.593E+00
   -.447E+01 -.156E+01 -.617E+03   0.439E+01 0.159E+01 0.617E+03   0.742E-01 -.311E-01 -.328E-01
   -.993E+01 -.104E+02 -.196E+04   0.101E+02 0.106E+02 0.196E+04   -.163E+00 -.183E+00 0.542E+01
   -.282E+02 -.204E+02 -.196E+04   0.283E+02 0.208E+02 0.195E+04   -.116E+00 -.316E+00 0.543E+01
   -.972E-01 -.138E-01 0.209E+04   0.100E+00 0.198E-01 -.208E+04   -.195E-02 -.413E-02 -.641E+01
   -.982E-01 0.108E+00 0.209E+04   0.894E-01 -.109E+00 -.208E+04   0.592E-02 0.689E-03 -.639E+01
   -.668E+00 0.485E+00 0.731E+03   0.640E+00 -.479E+00 -.732E+03   0.192E-01 -.511E-02 0.630E+00
   -.299E+00 -.575E-01 0.732E+03   0.278E+00 0.656E-01 -.732E+03   0.117E-01 -.451E-02 0.419E+00
   -.231E+01 0.490E+01 -.606E+03   0.237E+01 -.460E+01 0.608E+03   -.564E-01 -.273E+00 -.950E+00
   -.567E+01 0.158E+01 -.611E+03   0.542E+01 -.161E+01 0.611E+03   0.226E+00 0.291E-01 -.276E+00
   -.420E+02 0.141E+02 -.186E+04   0.442E+02 -.143E+02 0.186E+04   -.203E+01 0.156E+00 0.252E+01
   -.232E+02 0.199E+02 -.197E+04   0.232E+02 -.202E+02 0.197E+04   0.386E-01 0.321E+00 0.541E+01
   0.246E+00 -.579E-01 0.549E+03   -.248E+00 0.626E-01 -.549E+03   0.523E-02 -.639E-02 -.693E-01
   0.476E+00 -.343E+00 0.550E+03   -.448E+00 0.342E+00 -.550E+03   -.355E-01 0.618E-03 0.110E-01
   0.746E-01 -.851E-01 0.157E+04   -.809E-01 0.876E-01 -.157E+04   0.768E-02 -.309E-02 0.313E+01
   0.753E-01 -.499E-03 0.157E+04   -.673E-01 -.758E-02 -.157E+04   -.993E-02 0.101E-01 0.313E+01
   0.124E+02 -.115E+02 -.150E+04   -.124E+02 0.113E+02 0.151E+04   -.123E-01 0.211E+00 -.462E+01
   0.122E+02 -.803E+01 -.150E+04   -.121E+02 0.808E+01 0.150E+04   -.742E-01 -.467E-01 -.462E+01
   0.205E+01 -.125E+01 -.460E+03   -.208E+01 0.126E+01 0.459E+03   0.257E-01 -.822E-02 0.216E+00
   0.367E+01 -.284E+01 -.447E+03   -.361E+01 0.291E+01 0.446E+03   -.543E-01 -.615E-01 0.657E+00
   0.201E+00 0.398E-01 0.548E+03   -.213E+00 -.348E-01 -.548E+03   0.171E-01 -.498E-02 -.108E+00
   0.463E+00 0.336E+00 0.549E+03   -.503E+00 -.328E+00 -.549E+03   0.459E-01 -.994E-02 -.139E+00
   0.839E-01 0.856E-01 0.157E+04   -.836E-01 -.878E-01 -.157E+04   -.424E-03 0.275E-02 0.313E+01
   0.752E-01 0.526E-03 0.157E+04   -.700E-01 0.773E-02 -.157E+04   -.651E-02 -.103E-01 0.313E+01
   0.936E+01 0.112E+02 -.151E+04   -.931E+01 -.110E+02 0.151E+04   -.490E-01 -.201E+00 -.461E+01
   0.461E+02 0.937E+01 -.142E+04   -.461E+02 -.942E+01 0.142E+04   -.952E-01 0.495E-01 -.126E+01
   0.179E+01 0.128E+01 -.454E+03   -.181E+01 -.130E+01 0.454E+03   0.665E-02 0.121E-01 0.378E+00
   0.345E+01 0.281E+01 -.453E+03   -.338E+01 -.289E+01 0.452E+03   -.707E-01 0.679E-01 0.429E+00
   -.283E+00 -.379E-01 0.549E+03   0.296E+00 0.112E+00 -.549E+03   -.189E-01 -.891E-01 -.192E+00
   -.496E+00 -.296E+00 0.549E+03   0.474E+00 0.304E+00 -.549E+03   0.275E-01 -.927E-02 -.760E-01
   -.745E-01 -.851E-01 0.157E+04   0.809E-01 0.849E-01 -.157E+04   -.789E-02 0.213E-03 0.312E+01
   -.739E-01 0.101E-01 0.157E+04   0.663E-01 -.115E-01 -.157E+04   0.953E-02 0.174E-02 0.312E+01
   -.176E+02 -.362E+02 -.144E+04   0.175E+02 0.358E+02 0.145E+04   0.751E-01 0.416E+00 -.446E+01
   -.110E+02 -.481E+01 -.151E+04   0.109E+02 0.484E+01 0.151E+04   0.695E-01 -.291E-01 -.457E+01
   -.203E+01 -.151E+01 -.450E+03   0.205E+01 0.154E+01 0.450E+03   -.234E-01 -.298E-01 0.259E+00
   -.356E+01 -.287E+01 -.454E+03   0.349E+01 0.288E+01 0.453E+03   0.651E-01 -.135E-01 0.314E+00
   -.225E+00 0.274E-01 0.548E+03   0.245E+00 -.897E-01 -.548E+03   -.260E-01 0.748E-01 -.181E+00
   -.419E+00 0.279E+00 0.548E+03   0.460E+00 -.277E+00 -.548E+03   -.480E-01 -.122E-02 -.114E+00
   -.854E-01 0.854E-01 0.157E+04   0.852E-01 -.849E-01 -.157E+04   0.303E-03 -.659E-03 0.312E+01
   -.743E-01 -.972E-02 0.157E+04   0.692E-01 0.113E-01 -.157E+04   0.626E-02 -.203E-02 0.312E+01
   -.125E+02 0.339E+02 -.146E+04   0.124E+02 -.335E+02 0.147E+04   0.876E-01 -.434E+00 -.477E+01
   -.323E+02 0.517E+01 -.148E+04   0.324E+02 -.521E+01 0.148E+04   -.632E-01 0.388E-01 -.447E+01
   -.134E+01 0.156E+01 -.460E+03   0.137E+01 -.159E+01 0.461E+03   -.273E-01 0.349E-01 -.849E+00
   -.338E+01 0.287E+01 -.456E+03   0.330E+01 -.289E+01 0.456E+03   0.794E-01 0.217E-01 0.226E+00
   0.219E+02 -.225E+02 0.219E+02   -.355E-14 0.469E-12 0.313E-11   -.191E+02 0.193E+02 -.195E+02

 POSITION                                       TOTAL-FORCE (eV/Angst)
      3.50744      5.28836     16.97375         0.076658      0.026433      0.085945
      3.51419      4.16627     16.07700        -0.433173      0.345833     -0.168177
      4.38089      5.19444     17.63249        -0.204223      0.008543     -0.160993
      2.69786      4.21434     15.47318         0.385561     -0.069868      0.295946
      3.58621      6.24257     16.42380        -0.024233     -0.281636      0.108497
      2.59763      5.29350     17.59700         0.220435     -0.032796     -0.176225
      0.00000      6.33074      7.50000        -0.000978     -0.000779      0.464861
      2.11025      0.00000      7.50000         0.001530      0.000351      0.460806
      0.00000      0.00000      9.61025        -0.010672      0.003146      0.034017
      2.11025      6.33074      9.61025         0.011758     -0.022178      0.039481
      8.43730      6.32875     11.73161         0.002656     -0.003318      0.021427
      2.11133      0.00099     11.72762         0.006698      0.002658      0.014894
      8.43560      8.44085     13.83626        -0.005429      0.003352     -0.086791
      2.10496      6.35319     13.81664        -0.015895      0.021158     -0.115372
      0.00000      2.11025      7.50000        -0.000880      0.000741      0.467543
      2.11025      4.22049      7.50000         0.002187     -0.000320      0.469368
      0.00000      4.22049      9.61025         0.006259     -0.005651      0.063674
      2.11025      2.11025      9.61025         0.005264      0.020226      0.042845
      8.43854      2.11068     11.73402         0.001723      0.003648      0.022813
      2.11889      4.21816     11.74058        -0.002926     -0.001268      0.001294
      8.41879      4.21808     13.83581        -0.004661     -0.003083     -0.093872
      2.11040      2.08567     13.83297         0.002058     -0.014342     -0.093718
      4.22049      6.33074      7.50000         0.000955     -0.001459      0.471924
      6.33074      0.00000      7.50000        -0.001446      0.000261      0.468536
      4.22049      0.00000      9.61025         0.009046     -0.004254      0.065190
      6.33074      6.33074      9.61025        -0.015104     -0.004948      0.042151
      4.22229      6.32090     11.74268        -0.001987     -0.001582      0.027288
      6.32827      8.44098     11.72998        -0.004549      0.003574      0.022553
      4.22349      0.00202     13.82923         0.007434      0.017173     -0.102069
      6.33120      6.33725     13.83479         0.013891      0.014092     -0.099365
      4.22049      2.11025      7.50000         0.000880      0.001431      0.470439
      6.33074      4.22049      7.50000        -0.002098     -0.000231      0.466812
      4.22049      4.22049      9.61025        -0.006129      0.001190      0.072946
      6.33074      2.11025      9.61025        -0.007439      0.002706      0.048479
      4.22165      2.11835     11.74261        -0.001932      0.002088      0.041924
      6.32263      4.21892     11.73992        -0.003366     -0.001353      0.016428
      4.27630      4.21424     13.95274         0.066261     -0.025678     -0.009751
      6.32835      2.10161     13.83984        -0.000190     -0.012057     -0.088862
      0.00000      6.33074      9.61025         0.004104     -0.002462      0.055870
      2.11025      0.00000      9.61025        -0.012358     -0.000321      0.065577
      0.00000      0.00000      7.50000         0.002578     -0.000983     -0.432404
      2.11025      6.33074      7.50000        -0.003251      0.003417     -0.432482
      8.44041      6.33495     13.88515        -0.002473      0.007942     -0.114376
      2.10678      8.43797     13.87964        -0.001438     -0.004791     -0.109815
      0.00082      8.43976     11.72599         0.001392     -0.000976      0.030189
      2.10700      6.32509     11.73113        -0.001413      0.000669      0.034273
      0.00000      2.11025      9.61025         0.007566     -0.000807      0.054304
      2.11025      4.22049      9.61025         0.012276     -0.002434      0.074882
      0.00000      4.22049      7.50000        -0.000159      0.000942     -0.433638
      2.11025      2.11025      7.50000        -0.002099     -0.003455     -0.433296
      8.44018      2.10344     13.88533        -0.003660     -0.004217     -0.115329
      2.06581      4.22145     13.93288        -0.048340      0.013753     -0.075533
      0.00377      4.22019     11.73152        -0.005556      0.001745      0.028849
      2.10629      2.11439     11.73321        -0.003699      0.000885      0.023192
      4.22049      6.33074      9.61025        -0.007797     -0.027570      0.067898
      6.33074      0.00000      9.61025         0.010298     -0.003246      0.045517
      4.22049      0.00000      7.50000        -0.002556      0.000120     -0.435521
      6.33074      6.33074      7.50000         0.003208      0.000618     -0.435023
      4.21737      6.34216     13.87350        -0.006074      0.009766     -0.077562
      6.33222      8.43875     13.88186        -0.003277     -0.002915     -0.107237
      4.21878      8.43856     11.72226        -0.004506     -0.003099      0.024460
      6.33248      6.32971     11.72836         0.001650     -0.004246      0.026988
      4.22049      2.11025      9.61025        -0.009954      0.023253      0.072502
      6.33074      4.22049      9.61025        -0.013579      0.000252      0.083315
      4.22049      4.22049      7.50000         0.000194     -0.000204     -0.437900
      6.33074      2.11025      7.50000         0.002134     -0.000657     -0.435687
      4.21809      2.09598     13.85854         0.003050     -0.009712     -0.117615
      6.34706      4.22082     13.88494        -0.000905      0.006401     -0.113528
      4.21522      4.22096     11.74881         0.006992      0.004352     -0.015516
      6.33357      2.10977     11.72809         0.003712      0.006170      0.021761
    total drift:                               -0.003556     -0.002603      0.003844

  FREE ENERGIE OF THE ION-ELECTRON SYSTEM (eV)
  free  energy   TOTEN  =      -474.57459762 eV

  energy  without entropy=     -474.57459762  energy(sigma->0) =     -474.57459762