 vasp.6.3.0 20Jan22 (build Mar 11 2022 13:48:16) complex

 executed on             LinuxIFC date 2024.01.22  12:53:13

 INCAR:
   SYSTEM = TiO2
   ISMEAR = 0
   SIGMA = 0.05
   EDIFF = 1E-5
   ALGO = ALL
   ISTART = 0
   IBRION = -1
   NSW = 0
   ISYM = 0
   ISIF = 2
   EDIFFG = -0.01
   DIPOL = 0.5 0.5 0.5
   IDIPOL = 3
   LDIPOL = .TRUE.
   GGA = PE
   IVDW = 21
   LDAU = .TRUE.
   LDAUTYPE = 2
   LDAUL = 2 -1
   LDAUU = 4.2 0.0
   LDAUPRINT = 1
   LMAXMIX = 4
   ENCUT = 600
   PREC = Accurate
   LASPH = .TRUE.
   LREAL = .FALSE.
   ISPIN = 1
   NELM = 200
   NELMIN = 8
   NCORE = 2
   KPAR = 1
   LWAVE = .FALSE.
   LCHARG = .FALSE.

 POTCAR:    PAW_PBE Ti_pv 07Sep2000
 POTCAR:    PAW_PBE O 08Apr2002
|           W    W    AA    RRRRR   N    N  II  N    N   GGGG   !!!           |
|           W    W   A  A   R    R  NN   N  II  NN   N  G    G  !!!           |
|           W    W  A    A  R    R  N N  N  II  N N  N  G       !!!           |
|           W WW W  AAAAAA  RRRRR   N  N N  II  N  N N  G  GGG   !            |
|           WW  WW  A    A  R   R   N   NN  II  N   NN  G    G                |
|           W    W  A    A  R    R  N    N  II  N    N   GGGG   !!!           |
|     For optimal performance we recommend to set                             |
|       NCORE = 2 up to number-of-cores-per-socket                            |
|     This setting can greatly improve the performance of VASP for DFT.       |
|     The default, NCORE=1 might be grossly inefficient on modern             |
|     multi-core architectures or massively parallel machines. Do your        |
|     Unfortunately you need to use the default for GW and RPA                |
|     calculations (for HF NCORE is supported but not extensively tested      |
|     yet).                                                                   |

   TITEL  = PAW_PBE Ti_pv 07Sep2000
   POMASS =   47.880; ZVAL   =   10.000    mass and valenz
   ENMAX  =  222.335; ENMIN  =  166.751 eV

   TITEL  = PAW_PBE O 08Apr2002
   POMASS =   16.000; ZVAL   =    6.000    mass and valenz
   ENMAX  =  400.000; ENMIN  =  300.000 eV

  PAW_PBE Ti_pv 07Sep2000               :
  PAW_PBE O 08Apr2002                   :

 POSCAR: Ti  O
  positions in direct lattice
 exchange correlation table for  LEXCH =        8
   RHO(1)=    0.500       N(1)  =     2000
   RHO(2)=  100.500       N(2)  =     4000

 ion  position               nearest neighbor table
   1  0.810  0.833  0.295-  51 1.94  85 1.94  53 1.94  52 2.00  50 2.00   4 3.06  18 3.06   2 3.06

   2  0.594  0.667  0.326-  54 1.94 116 1.94  49 1.94  52 1.94  55 2.00  53 2.00   3 3.06  33 3.06
                             1 3.06   7 3.09
   3  0.310  0.667  0.295-  55 1.94 121 1.94  57 1.94  56 2.00  49 2.00   2 3.06  36 3.06   4 3.06

   4  0.094  0.833  0.326-  58 1.94  88 1.94  50 1.94  56 1.94  51 2.00  57 2.00   1 3.06  19 3.06
                             3 3.06   5 3.09
   5  0.946  0.833  0.422-  59 1.93  93 1.94  61 1.94  51 1.98  60 1.99  58 2.00   8 3.01  22 3.06
                             6 3.06   4 3.09
   6  0.728  0.666  0.451-  54 1.90 124 1.94  60 1.95  62 1.96  63 1.99  61 2.00   7 3.02   5 3.06
                            37 3.06  11 3.11
   7  0.446  0.666  0.422-  63 1.93 129 1.94  65 1.94  55 1.98  64 1.99  54 2.01   6 3.02   8 3.06
                            40 3.06   2 3.09
   8  0.227  0.833  0.451-  58 1.90  96 1.94  64 1.94  66 1.97  59 1.98  65 2.01   5 3.01  23 3.06
                             7 3.06   9 3.11
   9  0.087  0.833  0.550-  67 1.93 101 1.93  69 1.94  68 1.98  59 2.01  66 2.01  12 2.96  10 3.05
                            26 3.06   8 3.11
  10  0.866  0.666  0.575-  62 1.87 132 1.94  68 1.95  71 1.96  70 2.01  69 2.01  11 2.98   9 3.05
                            41 3.06
  11  0.585  0.666  0.549- 137 1.93  73 1.94  71 1.94  72 1.98  63 1.98  62 2.01  10 2.98  12 3.06
                            44 3.07   6 3.11
  12  0.365  0.833  0.576-  66 1.87 104 1.94  72 1.95  67 1.96  74 2.00  73 2.02   9 2.96  11 3.06
                            27 3.06
  13  0.232  0.833  0.680-  75 1.87  77 1.93 109 1.94  76 2.00  67 2.09  74 2.09  16 2.86  30 3.08
                            14 3.09
  14  0.002  0.666  0.700-  70 1.78  78 1.84 140 1.97  76 1.99  77 2.06  15 2.87  13 3.09  45 3.11

[...]

  17  0.810  0.167  0.295-  83 1.94  85 1.94 117 1.94  84 2.00  82 2.00  20 3.06  18 3.06  34 3.06

[...]

  36  0.094  0.500  0.326- 122 1.94 120 1.94  56 1.94 114 1.94 115 2.00 121 2.00  33 3.06   3 3.06
                            35 3.06  37 3.08
  37  0.948  0.500  0.422- 123 1.93 125 1.94  61 1.94 115 1.98 122 1.99 124 2.00  40 3.01   6 3.06
                            38 3.06  36 3.08
  38  0.728  0.334  0.451- 118 1.90 124 1.94  92 1.95 126 1.96 127 1.99 125 2.00  39 3.02  21 3.06
                            37 3.06  43 3.11
  39  0.446  0.334  0.422- 127 1.93 129 1.94  97 1.94 119 1.98 128 1.99 118 2.01  38 3.02  24 3.06
                            40 3.06  34 3.09
  40  0.227  0.500  0.453- 122 1.93  64 1.94 128 1.94 123 1.97 130 1.97 129 2.01  37 3.01   7 3.06
                            39 3.06  41 3.08
  41  0.090  0.500  0.550- 131 1.92 133 1.94  69 1.94 130 1.98 132 2.01 123 2.01  44 2.97  10 3.06
                            42 3.06  40 3.08
  42  0.866  0.334  0.575- 126 1.87 132 1.94 100 1.95 135 1.96 134 2.01 133 2.01  43 2.98  25 3.05
                            41 3.06
  43  0.585  0.334  0.549- 137 1.93 105 1.94 135 1.94 136 1.98 127 1.98 126 2.01  42 2.98  28 3.06
                            44 3.07  38 3.11
  44  0.367  0.500  0.579- 130 1.93 136 1.95  72 1.95 131 1.95 138 1.97 137 2.03  41 2.97  43 3.07
                            11 3.07  45 3.14
  45  0.236  0.500  0.681- 139 1.86 141 1.94  77 1.94 140 2.03 138 2.04 131 2.10  48 2.89  14 3.11
                            46 3.11  44 3.14
  46  0.002  0.334  0.700- 134 1.78 142 1.84 140 1.97 108 1.99 141 2.06  47 2.87  29 3.09  45 3.11

  47  0.731  0.333  0.678- 142 1.89 144 1.94 112 1.94 143 1.99 135 2.04 134 2.09  46 2.87  32 3.08
                            48 3.09
  48  0.507  0.500  0.706- 139 1.84 138 1.88 143 1.99  79 1.99 144 2.06  45 2.89  47 3.09  15 3.09

  49  0.490  0.667  0.268-   2 1.94   3 2.00
  50  0.990  0.833  0.268-   4 1.94   1 2.00
  51  0.914  0.833  0.353-   1 1.94   5 1.98   4 2.00
  52  0.630  0.833  0.321-  18 1.94   2 1.94   1 2.00
  53  0.773  0.667  0.300-  33 1.94   1 1.94   2 2.00
  54  0.625  0.667  0.395-   6 1.90   2 1.94   7 2.01
  55  0.414  0.667  0.353-   3 1.94   7 1.98   2 2.00
  56  0.130  0.667  0.321-  36 1.94   4 1.94   3 2.00
  57  0.273  0.833  0.300-  19 1.94   3 1.94   4 2.00
  58  0.125  0.833  0.395-   8 1.90   4 1.94   5 2.00
  59  0.051  0.834  0.480-   5 1.93   8 1.98   9 2.01
  60  0.766  0.833  0.447-  22 1.94   6 1.95   5 1.99
  61  0.910  0.667  0.427-   5 1.94  37 1.94   6 2.00
  62  0.764  0.666  0.520-  10 1.87   6 1.96  11 2.01
  63  0.551  0.666  0.480-   7 1.93  11 1.98   6 1.99
  64  0.266  0.667  0.448-  40 1.94   8 1.94   7 1.99
  65  0.409  0.833  0.427-  23 1.94   7 1.94   8 2.01
  66  0.264  0.833  0.521-  12 1.87   8 1.97   9 2.01
  67  0.194  0.833  0.607-   9 1.93  12 1.96  13 2.09
  68  0.905  0.833  0.573-  26 1.94  10 1.95   9 1.98
  69  0.051  0.667  0.553-   9 1.94  41 1.94  10 2.01
  70  0.913  0.667  0.645-  14 1.78  10 2.01  15 2.09
  71  0.695  0.668  0.606-  11 1.94  10 1.96  15 2.04
  72  0.405  0.667  0.574-  44 1.95  12 1.95  11 1.98
  73  0.550  0.833  0.553-  27 1.94  11 1.94  12 2.02
  74  0.412  0.836  0.646-  16 1.78  12 2.00  13 2.09
  75  0.348  0.833  0.731-  16 1.84  13 1.87
  76  0.053  0.833  0.708-  30 1.98  14 1.99  13 2.00
  77  0.195  0.666  0.681-  13 1.93  45 1.94  14 2.06
  78  0.844  0.664  0.730-  14 1.84  15 1.89
  79  0.554  0.669  0.707-  16 1.96  48 1.99  15 1.99
  80  0.696  0.834  0.679-  31 1.93  15 1.94  16 2.06
  81  0.490  0.000  0.268-  18 1.94  19 2.00
  82  0.990  0.167  0.268-  20 1.94  17 2.00
  83  0.914  0.167  0.353-  17 1.94  21 1.98  20 2.00
  84  0.630  0.167  0.321-  18 1.94  34 1.94  17 2.00
  85  0.773  0.000  0.300-   1 1.94  17 1.94  18 2.00
  86  0.625  0.000  0.395-  22 1.90  18 1.94  23 2.00
  87  0.414  0.000  0.353-  19 1.94  23 1.98  18 2.00
  88  0.130  0.000  0.321-   4 1.94  20 1.94  19 2.00
  89  0.273  0.167  0.300-  19 1.94  35 1.94  20 2.00
  90  0.125  0.167  0.395-  24 1.90  20 1.94  21 2.00
  91  0.051  0.166  0.480-  21 1.93  24 1.98  25 2.01
  92  0.766  0.167  0.447-  22 1.94  38 1.95  21 1.99
  93  0.910  0.000  0.426-   5 1.94  21 1.94  22 2.00
  94  0.764  0.000  0.520-  26 1.87  22 1.97  27 2.01
  95  0.551  0.000  0.479-  23 1.93  22 1.99  27 2.00
  96  0.266  0.000  0.448-   8 1.94  24 1.94  23 1.99
  97  0.409  0.167  0.427-  23 1.94  39 1.94  24 2.01
  98  0.264  0.167  0.521-  28 1.87  24 1.97  25 2.01
  99  0.194  0.167  0.607-  25 1.93  28 1.96  29 2.09
 100  0.905  0.167  0.573-  26 1.94  42 1.95  25 1.98
 101  0.051  1.000  0.553-   9 1.93  25 1.93  26 2.02
 102  0.913  0.000  0.645-  30 1.79  26 2.01  31 2.08
 103  0.694  1.000  0.606-  27 1.93  26 1.95  31 2.10
 104  0.405  0.000  0.573-  28 1.94  12 1.94  27 1.98
 105  0.550  0.167  0.553-  27 1.94  43 1.94  28 2.02
 106  0.412  0.164  0.646-  32 1.78  28 2.00  29 2.09
 107  0.348  0.167  0.731-  32 1.84  29 1.87
 108  0.053  0.167  0.708-  30 1.98  46 1.99  29 2.00
[...]
 130  0.265  0.500  0.522-  44 1.93  40 1.97  41 1.98
 131  0.193  0.500  0.607-  41 1.92  44 1.95  45 2.10
 132  0.905  0.500  0.573-  10 1.94  42 1.94  41 2.01
 133  0.051  0.333  0.553-  25 1.94  41 1.94  42 2.01
 134  0.913  0.333  0.645-  46 1.78  42 2.01  47 2.09
 135  0.695  0.332  0.606-  43 1.94  42 1.96  47 2.04
 136  0.405  0.333  0.574-  44 1.95  28 1.95  43 1.98
 137  0.550  0.500  0.554-  11 1.93  43 1.93  44 2.03
 138  0.412  0.500  0.648-  48 1.88  44 1.97  45 2.04
 139  0.346  0.500  0.734-  48 1.84  45 1.86
 140  0.052  0.500  0.708-  14 1.97  46 1.97  45 2.03
 141  0.195  0.334  0.681-  29 1.93  45 1.94  46 2.06
 142  0.844  0.336  0.730-  46 1.84  47 1.89
 143  0.554  0.331  0.707-  32 1.96  48 1.99  47 1.99
 144  0.693  0.500  0.678-  15 1.94  47 1.94  48 2.06

IMPORTANT INFORMATION: All symmetrisations will be switched off!
NOSYMM: (Re-)initialisation of all symmetry stuff for point group C_1.

                                     Primitive cell

  volume of cell :    3284.6826

  direct lattice vectors                    reciprocal lattice vectors
    10.317568932  0.000000000  0.000000000     0.096922057 -0.000000000  0.000000000
     0.000000000 11.392502081  0.000000000     0.000000000  0.087777030  0.000000000
     0.000000000  0.000000000 27.944536660     0.000000000  0.000000000  0.035785170

  length of vectors
    10.317568932 11.392502081 27.944536660     0.096922057  0.087777030  0.035785170

  position of ions in fractional coordinates (direct lattice)
     0.809724695  0.833333333  0.294673730
     0.593592026  0.666666667  0.326262387
     0.309724695  0.666666667  0.294673730
     0.093592026  0.833333333  0.326262387
     0.946073033  0.833349367  0.422401734
     0.727775274  0.666264773  0.451114060
     0.445592035  0.666426381  0.422285514
[...]
   O          54.443          3.933         10.088          1.86812497
   O          56.627          3.959         10.288          1.90523367
   O          56.302          3.955         10.259          1.89975370
   O          54.314          3.932         10.076          1.86591313
   O          38.206          3.708          8.451          1.56495471
   O          54.505          3.934         10.094          1.86918936
   O          58.402          3.980         10.448          1.93486333
   O          38.533          3.713          8.487          1.57164706
   O          55.487          3.946         10.184          1.88595839
   O          58.154          3.977         10.426          1.93075596

  vdW correction parametrized for the method pbe

  IVDW =  21
  VDW_RADIUS =    50.000 A
  VDW_IDAMPF =  0
  VDW_S6 =     1.000
  VDW_SR =     0.950
  VDW_D =    20.000
  LVDW_ONECELL = F F F
  LVDW_SAMETYPE T T
  LVDW_EWALD = F

  Number of pair interactions contributing to vdW energy: 1654915
  Edisp (eV):  -17.84513

  FORCE on cell =-STRESS in cart. coord.  units (eV):
  Direction    XX          YY          ZZ          XY          YZ          ZX
  Alpha Z  2397.61609  2397.61609  2397.61609
  Ewald  486312.29204479611.08831************     0.00028     0.00020 -1943.01830
  Hartree507005.16141503013.18453************     0.00015     0.00010 -1287.42119
  E(xc)   -5142.46257 -5146.44161 -5153.09911     0.00000     0.00000    -1.52683
  Local  ************************************    -0.00044    -0.00031  3234.19157
  n-local -3107.28238 -3090.12755 -3139.58045     0.00000     0.00000     3.27851
  augment  3157.86017  3155.80249  3145.65735     0.00000     0.00001    -0.28476
  Kinetic 16950.32171 17068.43385 17108.33147    -0.00001     0.00002    -3.06721
  Fock        0.00000     0.00000     0.00000     0.00000     0.00000     0.00000
  vdW       -21.42420   -26.44623   -21.56382     0.00000    -0.00000    -0.35290
  Total      47.83165    80.62754    66.36482    -0.00002     0.00002     1.79889
  in kB      23.33095    39.32789    32.37092    -0.00001     0.00001     0.87745

 VOLUME and BASIS-vectors are now :
  energy-cutoff  :      600.00
  volume of cell :     3284.68
      direct lattice vectors                 reciprocal lattice vectors
    10.317568932  0.000000000  0.000000000     0.096922057 -0.000000000  0.000000000
     0.000000000 11.392502081  0.000000000     0.000000000  0.087777030  0.000000000
     0.000000000  0.000000000 27.944536660     0.000000000  0.000000000  0.035785170

  length of vectors
    10.317568932 11.392502081 27.944536660     0.096922057  0.087777030  0.035785170

 FORCES acting on ions:
    Electron-Ion                     Ewald-Force                    Non-Local-Force
   0.606E+01 0.106E+00 0.335E+04   -.895E+00 -.104E+00 -.334E+04   -.155E+01 -.587E-03 -.434E+01
   0.454E+01 0.268E-01 0.275E+04   -.628E+01 -.234E-01 -.275E+04   0.907E-01 -.111E-02 0.129E+00
   0.594E+01 0.252E+00 0.335E+04   -.806E+00 -.257E+00 -.334E+04   -.154E+01 0.128E-02 -.434E+01
   0.335E+01 0.224E+00 0.275E+04   -.512E+01 -.230E+00 -.275E+04   0.993E-01 0.138E-02 0.127E+00
   -.251E+00 0.625E+00 0.124E+04   0.660E-01 -.614E+00 -.124E+04   0.137E+00 -.627E-02 -.149E+00
   0.125E+01 -.771E+00 0.775E+03   -.116E+01 0.760E+00 -.775E+03   0.592E-01 0.408E-01 0.395E-01
   0.769E+00 0.239E+00 0.124E+04   -.936E+00 -.239E+00 -.124E+04   0.141E+00 0.213E-01 -.150E+00
   -.453E+01 0.770E+00 0.770E+03   0.460E+01 -.763E+00 -.770E+03   0.123E+00 0.242E-03 0.361E-01
   -.551E+01 -.656E-01 -.804E+03   0.521E+01 0.762E-01 0.804E+03   0.258E+00 -.392E-02 -.576E-01
   -.436E+01 0.216E-01 -.120E+04   0.458E+01 0.128E-01 0.120E+04   0.186E+00 0.282E-01 0.639E-01
   0.172E-01 0.176E+01 -.788E+03   -.192E+00 -.171E+01 0.788E+03   0.235E+00 0.590E-02 -.240E-01
   -.238E+01 0.317E+01 -.122E+04   0.257E+01 -.308E+01 0.122E+04   0.193E+00 -.372E-01 0.255E-01
   0.210E+02 0.305E+00 -.280E+04   -.219E+02 -.233E+00 0.280E+04   0.748E+00 0.208E-01 -.688E+00
   -.664E+02 -.483E+01 -.319E+04   0.663E+02 0.471E+01 0.319E+04   0.113E+01 0.169E+00 0.153E+01
   0.128E+02 -.991E+00 -.277E+04   -.131E+02 0.118E+01 0.277E+04   0.668E+00 -.417E-01 -.473E+00
   -.710E+02 -.256E+01 -.318E+04   0.711E+02 0.278E+01 0.318E+04   0.114E+01 -.185E-01 0.149E+01
   0.606E+01 -.106E+00 0.335E+04   -.895E+00 0.104E+00 -.334E+04   -.155E+01 0.588E-03 -.434E+01
   0.455E+01 -.993E-05 0.275E+04   -.631E+01 0.264E-05 -.275E+04   0.967E-01 -.162E-05 0.124E+00
   0.584E+01 -.813E-06 0.335E+04   -.686E+00 0.131E-05 -.334E+04   -.155E+01 0.145E-05 -.434E+01
   0.335E+01 -.224E+00 0.275E+04   -.512E+01 0.230E+00 -.275E+04   0.993E-01 -.138E-02 0.127E+00
   -.251E+00 -.625E+00 0.124E+04   0.660E-01 0.614E+00 -.124E+04   0.137E+00 0.628E-02 -.149E+00
   -.743E+00 -.956E-05 0.774E+03   0.794E+00 0.527E-05 -.773E+03   0.115E+00 -.198E-05 0.366E-01
   0.881E+00 -.656E-05 0.124E+04   -.104E+01 0.139E-05 -.124E+04   0.124E+00 0.261E-05 -.166E+00
   -.453E+01 -.770E+00 0.770E+03   0.460E+01 0.763E+00 -.770E+03   0.123E+00 -.245E-03 0.361E-01
   -.551E+01 0.656E-01 -.804E+03   0.521E+01 -.762E-01 0.804E+03   0.258E+00 0.393E-02 -.576E-01
   -.575E+01 0.241E-04 -.121E+04   0.595E+01 -.231E-04 0.121E+04   0.256E+00 0.207E-05 0.646E-01
   -.376E+01 0.191E-04 -.797E+03   0.349E+01 -.306E-04 0.797E+03   0.257E+00 0.226E-06 -.949E-03
   -.238E+01 -.317E+01 -.122E+04   0.257E+01 0.309E+01 0.122E+04   0.193E+00 0.372E-01 0.255E-01
   0.210E+02 -.305E+00 -.280E+04   -.219E+02 0.233E+00 0.280E+04   0.748E+00 -.208E-01 -.688E+00
   -.690E+02 0.805E-05 -.319E+04   0.691E+02 -.379E-05 0.319E+04   0.107E+01 -.235E-05 0.153E+01
   0.166E+02 0.108E-03 -.280E+04   -.173E+02 -.131E-03 0.280E+04   0.641E+00 0.368E-05 -.629E+00
   -.710E+02 0.256E+01 -.318E+04   0.711E+02 -.278E+01 0.318E+04   0.114E+01 0.185E-01 0.149E+01
   0.606E+01 0.922E-05 0.335E+04   -.891E+00 -.242E-05 -.334E+04   -.155E+01 0.289E-05 -.434E+01
   0.454E+01 -.268E-01 0.275E+04   -.628E+01 0.234E-01 -.275E+04   0.907E-01 0.111E-02 0.129E+00
   0.594E+01 -.252E+00 0.335E+04   -.806E+00 0.257E+00 -.334E+04   -.154E+01 -.128E-02 -.434E+01
   0.247E+01 0.557E-05 0.275E+04   -.420E+01 -.772E-06 -.275E+04   0.835E-01 0.753E-06 0.125E+00
   0.211E+01 -.179E-04 0.124E+04   -.232E+01 0.622E-05 -.124E+04   0.624E-01 -.191E-05 -.743E-01
   0.125E+01 0.771E+00 0.775E+03   -.116E+01 -.760E+00 -.775E+03   0.592E-01 -.408E-01 0.395E-01
   0.769E+00 -.239E+00 0.124E+04   -.936E+00 0.239E+00 -.124E+04   0.141E+00 -.213E-01 -.150E+00
   -.798E+01 0.127E-04 0.751E+03   0.806E+01 -.182E-04 -.751E+03   0.119E+00 -.179E-05 0.541E-01
   -.145E+01 0.251E-04 -.810E+03   0.106E+01 -.374E-04 0.810E+03   0.913E-01 -.226E-05 -.731E-02
   -.436E+01 -.216E-01 -.120E+04   0.458E+01 -.128E-01 0.120E+04   0.186E+00 -.282E-01 0.639E-01
   0.172E-01 -.176E+01 -.788E+03   -.192E+00 0.171E+01 0.788E+03   0.235E+00 -.590E-02 -.240E-01
   -.572E+01 0.131E-04 -.127E+04   0.583E+01 -.434E-05 0.127E+04   0.137E+00 -.756E-06 0.117E+00
   0.269E+02 0.439E-04 -.281E+04   -.282E+02 -.541E-04 0.281E+04   0.501E+00 -.366E-05 -.535E+00
   -.664E+02 0.483E+01 -.319E+04   0.663E+02 -.471E+01 0.319E+04   0.113E+01 -.169E+00 0.153E+01
   0.128E+02 0.991E+00 -.277E+04   -.131E+02 -.118E+01 0.277E+04   0.668E+00 0.417E-01 -.473E+00
   -.715E+02 -.114E-03 -.328E+04   0.702E+02 0.139E-03 0.328E+04   0.151E+01 -.523E-05 0.303E+01
   -.324E+02 0.447E-01 0.226E+04   0.375E+02 -.444E-01 -.228E+04   -.684E+01 -.299E-03 0.178E+02
   -.326E+02 0.457E-01 0.226E+04   0.377E+02 -.468E-01 -.228E+04   -.683E+01 0.151E-02 0.178E+02
   0.815E+02 0.234E+00 0.137E+04   -.862E+02 -.228E+00 -.137E+04   0.379E+01 -.968E-02 -.428E+01
   0.745E+02 0.834E-01 0.167E+04   -.816E+02 -.812E-01 -.167E+04   0.737E+01 -.441E-02 -.260E+01
   -.861E+02 0.330E-01 0.193E+04   0.933E+02 -.332E-01 -.193E+04   -.680E+01 -.413E-03 -.366E+00
   -.696E+02 -.559E+00 0.104E+04   0.751E+02 0.618E+00 -.105E+04   -.554E+01 -.566E-01 0.424E+01
   0.820E+02 0.199E+00 0.137E+04   -.867E+02 -.177E+00 -.137E+04   0.377E+01 -.241E-01 -.416E+01
   0.737E+02 0.193E+00 0.167E+04   -.808E+02 -.201E+00 -.167E+04   0.738E+01 0.179E-01 -.262E+01
   -.863E+02 0.103E+00 0.193E+04   0.935E+02 -.102E+00 -.193E+04   -.678E+01 -.416E-02 -.369E+00
   -.727E+02 0.305E+00 0.104E+04   0.784E+02 -.300E+00 -.105E+04   -.563E+01 -.771E-02 0.433E+01
   0.781E+02 -.542E+00 0.146E+03   -.844E+02 0.624E+00 -.141E+03   0.629E+01 -.853E-01 -.487E+01
   0.804E+02 0.769E+00 0.470E+03   -.870E+02 -.844E+00 -.467E+03   0.649E+01 0.619E-01 -.302E+01
[...]
   0.846E+02 0.293E-04 -.109E+04   -.916E+02 -.284E-04 0.110E+04   0.703E+01 -.234E-05 -.734E+01
   0.738E+02 0.511E-04 -.730E+03   -.798E+02 -.467E-04 0.734E+03   0.587E+01 -.468E-05 -.303E+01
   -.814E+02 -.103E+01 -.476E+03   0.878E+02 0.104E+01 0.473E+03   -.622E+01 0.195E-01 0.268E+01
   -.583E+02 0.276E+01 -.130E+04   0.603E+02 -.314E+01 0.129E+04   -.241E+01 0.385E+00 0.933E+01
   0.829E+02 0.262E+01 -.107E+04   -.891E+02 -.297E+01 0.107E+04   0.604E+01 0.363E+00 -.591E+01
   0.779E+02 -.222E+01 -.744E+03   -.844E+02 0.213E+01 0.748E+03   0.630E+01 0.150E+00 -.306E+01
   -.742E+02 0.700E-05 -.485E+03   0.802E+02 -.123E-04 0.483E+03   -.599E+01 -.156E-05 0.242E+01
   -.759E+02 -.592E-04 -.134E+04   0.806E+02 0.655E-04 0.134E+04   -.432E+01 -.166E-04 0.763E+01
   0.521E+02 -.569E-04 -.229E+04   -.585E+02 0.604E-04 0.231E+04   0.676E+01 -.101E-04 -.208E+02
   0.568E+02 0.991E-04 -.201E+04   -.608E+02 -.101E-03 0.202E+04   0.407E+01 -.426E-05 -.777E+01
   -.573E+02 -.683E+00 -.167E+04   0.621E+02 0.831E+00 0.167E+04   -.471E+01 -.246E-01 0.276E+01
   0.496E+02 -.195E+01 -.228E+04   -.557E+02 0.246E+01 0.230E+04   0.594E+01 -.554E+00 -.216E+02
   0.615E+02 -.224E+01 -.200E+04   -.666E+02 0.208E+01 0.200E+04   0.487E+01 0.802E+00 -.599E+01
   -.537E+02 0.534E-04 -.163E+04   0.585E+02 -.531E-04 0.163E+04   -.515E+01 -.153E-04 0.494E+01
   -.186E+02 -.522E-04 0.722E+02   0.256E-12 0.692E-12 0.102E-10   0.186E+02 0.217E-04 -.721E+02

 POSITION                                       TOTAL-FORCE (eV/Angst)
      8.35439      9.49375      8.23452         3.644105      0.001370      1.112429
      6.12443      7.59500      9.11725        -1.651125      0.002218     -1.806730
      3.19561      7.59500      8.23452         3.619877     -0.003284      1.099069
      0.96564      9.49375      9.11725        -1.677544     -0.004077     -1.809476
      9.76117      9.49393     11.80382        -0.058318      0.004973     -0.195122
      7.50887      7.59042     12.60617         0.130648      0.022625      0.247922
      4.59743      7.59226     11.80057        -0.037044      0.017877     -0.177404
      2.34235      9.49327     12.61446         0.175097      0.007651      0.248781
      0.89309      9.49495     15.37121        -0.068423      0.009403     -0.249387
      8.93464      7.58854     16.07866         0.368892      0.053065      0.492646
      6.04004      7.59179     15.35138         0.033345      0.051797     -0.200989
      3.76468      9.49394     16.10244         0.351961      0.045528      0.446407
      2.39242      9.48667     19.00805        -0.187677      0.083184     -0.470203
      0.01980      7.58351     19.55485         0.884239      0.032005      0.976290
      7.53701      7.59477     18.93722         0.316991      0.146579     -0.151399
      5.19832      9.50902     19.55032         1.042781      0.197029      0.848035
      8.35439      1.89875      8.23452         3.644118     -0.001363      1.112383
      6.12443      0.00000      9.11725        -1.666911     -0.000009     -1.804089
      3.19561      0.00000      8.23452         3.638140      0.000002      1.107659
      0.96564      1.89875      9.11725        -1.677549      0.004077     -1.809509
      9.76117      1.89857     11.80382        -0.058316     -0.004954     -0.195135
      7.50545     11.39250     12.60777         0.146814     -0.000006      0.263169
      4.59948     11.39250     11.80355        -0.047615     -0.000002     -0.189966
      2.34235      1.89924     12.61446         0.175107     -0.007644      0.248786
      0.89309      1.89755     15.37121        -0.068452     -0.009388     -0.249378
      8.92331      0.00000     16.09066         0.408867      0.000003      0.491440
      6.04651      0.00000     15.36077        -0.035033     -0.000011     -0.228389
      3.76468      1.89856     16.10244         0.351961     -0.045532      0.446416
      2.39242      1.90583     19.00805        -0.187673     -0.083193     -0.470201
      0.04104     11.39250     19.55555         1.048913      0.000002      0.861454
      7.56701      0.00000     18.99159        -0.097400     -0.000019     -0.467039
      5.19832      1.88348     19.55032         1.042753     -0.197060      0.848035
      8.35439      5.69625      8.23452         3.651252      0.000010      1.107493
      6.12443      3.79750      9.11725        -1.651154     -0.002214     -1.806681
      3.19561      3.79750      8.23452         3.619868      0.003287      1.099072
      0.96564      5.69625      9.11725        -1.646133      0.000006     -1.759698
      9.77654      5.69625     11.79899        -0.156945     -0.000014     -0.168937
      7.50887      3.80208     12.60617         0.130641     -0.022620      0.247935
      4.59743      3.80024     11.80057        -0.037032     -0.017863     -0.177423
      2.34553      5.69625     12.64499         0.189710     -0.000007      0.054620
      0.92354      5.69625     15.37752        -0.308372     -0.000014     -0.286999
      8.93464      3.80397     16.07866         0.368882     -0.053065      0.492639
      6.04004      3.80072     15.35138         0.033352     -0.051804     -0.200996
      3.78203      5.69625     16.19260         0.230051      0.000008     -0.220856
      2.43097      5.69625     19.02822        -0.776087     -0.000014     -0.539013
      0.01980      3.80899     19.55485         0.884275     -0.032011      0.976302
      7.53701      3.79773     18.93723         0.317012     -0.146569     -0.151412
      5.23361      5.69625     19.71813        -0.003581      0.000020     -1.171850
      5.05116      7.59500      7.50000        -1.754483      0.000035      0.460503
     10.20995      9.49375      7.50000        -1.751154      0.000374      0.456330
      9.42766      9.49375      9.85177        -0.984554     -0.003764      0.022517
      6.49884      9.49375      8.96904         0.274569     -0.002210     -0.018184
      7.97998      7.59500      8.38273         0.363045     -0.000644     -1.159757
      6.44888      7.59500     11.03092        -0.047183      0.002750      0.219099
      4.26887      7.59500      9.85177        -0.992234     -0.001925      0.023409
      1.34005      7.59500      8.96904         0.282863      0.009518     -0.024891
      2.82120      9.49375      8.38273         0.370743     -0.002544     -1.161461
      1.29009      9.49375     11.03092         0.020305     -0.002618      0.252916
      0.52459      9.49712     13.40034        -0.087364     -0.002562      0.253209
      7.90041      9.49305     12.49697        -0.150138     -0.013258      0.063949
[...]
      2.73448      5.69625     14.57668         0.160919      0.000004     -0.084527
      1.99471      5.69625     16.97163         0.020376     -0.000001      0.543561
      9.33890      5.69625     16.01148        -0.082384     -0.000000      0.038766
      0.52689      3.79888     15.45527         0.104349      0.029546     -0.075614
      9.42040      3.79254     18.02448        -0.453794      0.004311     -0.818483
      7.16932      3.78621     16.92808        -0.203634      0.012320      0.258233
      4.18341      3.79842     16.04577        -0.174140      0.060841      0.098336
      5.67964      5.69625     15.47763         0.007303     -0.000007     -0.006704
      4.24867      5.69625     18.11098         0.409304     -0.000010      0.528483
      3.56765      5.69625     20.49840         0.407318     -0.000006      1.000461
      0.54167      5.69625     19.78266         0.061428     -0.000006      0.137035
      2.01185      3.80080     19.03413         0.049413      0.123811     -0.061779
      8.71008      3.82921     20.41337        -0.188514     -0.043779      0.470304
      5.71526      3.76887     19.74754        -0.243128      0.643802      0.516326
      7.15052      5.69625     18.95207        -0.357839     -0.000015      0.261664
    total drift:                               -0.007442     -0.000031      0.052694

  FREE ENERGIE OF THE ION-ELECTRON SYSTEM (eV)
  free  energy   TOTEN  =     -1143.37635958 eV

  energy  without entropy=    -1143.37635958  energy(sigma->0) =    -1143.37635958