 vasp.6.3.0 20Jan22 (build Apr  1 2022 16:44:48) complex
 executed on        HPECrayEX_GCC date 2022.10.15  15:56:05

 INCAR:
   SYSTEM = MgO-rocksalt
   ISMEAR = 0
   SIGMA = 0.05
   EDIFF = 1E-7
   ALGO = ALL
   ISTART = 0
   IBRION = 2
   NSW = 1000
   ISYM = 0
   ISIF = 2
   EDIFFG = -0.01
   DIPOL = 0.5 0.5 0.5
   IDIPOL = 3
   LDIPOL = .TRUE.
   GGA = RE
   AGGAC = 0.0
   LUSE_VDW = .TRUE.
   LASPH = .TRUE.
   ENCUT = 600
   PREC = Accurate
   LASPH = .TRUE.
   LREAL = .FALSE.
   ISPIN = 1
   NELM = 200
   NELMIN = 8
   NCORE = 8
   KPAR = 1
   LWAVE = .FALSE.
   LCHARG = .FALSE.

 POTCAR:    PAW_PBE C 08Apr2002
 POTCAR:    PAW_PBE H 15Jun2001
 POTCAR:    PAW_PBE Mg_pv 13Apr2007
 POTCAR:    PAW_PBE O 08Apr2002
|               ----> ADVICE to this user running VASP <----                  |
|     You have switched on vdW-DFT.                                           |
|     This routine was written and supplied by Jiri Klimes. We recommend      |
|     that you carefully read and cite the following publications:            |
|       J. Klimes, D.R. Bowler, A. Michelides                                 |
|          J. Phys.: Cond Matt. 22 022201 (2010)                              |
|       J. Klimes, D.R. Bowler, A. Michelides                                 |
|          Phys. Rev. B. 83, 195131 (2011)                                    |
|     and references therein.                                                 |

   TITEL  = PAW_PBE C 08Apr2002
   POMASS =   12.011; ZVAL   =    4.000    mass and valenz
   ENMAX  =  400.000; ENMIN  =  300.000 eV

   TITEL  = PAW_PBE H 15Jun2001
   POMASS =    1.000; ZVAL   =    1.000    mass and valenz
   ENMAX  =  250.000; ENMIN  =  200.000 eV

   TITEL  = PAW_PBE Mg_pv 13Apr2007
   POMASS =   24.305; ZVAL   =    8.000    mass and valenz
   ENMAX  =  403.929; ENMIN  =  302.947 eV

   TITEL  = PAW_PBE O 08Apr2002
   POMASS =   16.000; ZVAL   =    6.000    mass and valenz
   ENMAX  =  400.000; ENMIN  =  300.000 eV

  PAW_PBE C 08Apr2002                   :
  PAW_PBE H 15Jun2001                   :
  PAW_PBE Mg_pv 13Apr2007               :
  PAW_PBE O 08Apr2002                   :

 POSCAR:  C  H Mg  O
  positions in direct lattice
 exchange correlation table for  LEXCH =       40
   RHO(1)=    0.500       N(1)  =     2000
   RHO(2)=  100.500       N(2)  =     4000

 ion  position               nearest neighbor table
   1  0.500  0.500  0.791-   5 1.09   2 1.09   3 1.09   4 1.09
   2  0.500  0.605  0.820-   1 1.09
   3  0.500  0.395  0.820-   1 1.09
   4  0.605  0.500  0.761-   1 1.09
   5  0.395  0.500  0.761-   1 1.09
   6  0.000  0.750  0.350-  38 2.14  40 2.14  41 2.14  48 2.14  57 2.14
   7  0.250  0.000  0.350-  39 2.14  40 2.14  41 2.14  49 2.14  56 2.14
   8  0.000  0.000  0.450-  40 2.14  39 2.14  38 2.14  46 2.14  55 2.14  44 2.14
   9  0.250  0.750  0.450-  41 2.14  39 2.14  38 2.14  47 2.14  54 2.14  45 2.14
  10  0.000  0.750  0.550-  44 2.14  45 2.14  52 2.14  61 2.14  38 2.15  42 2.16
  11  0.250  0.000  0.550-  44 2.14  45 2.14  53 2.14  60 2.14  39 2.15  43 2.16
  12  0.000  0.000  0.650-  44 2.13  43 2.14  42 2.14  50 2.14  59 2.14
  13  0.250  0.750  0.650-  45 2.13  43 2.14  42 2.14  51 2.14  58 2.14
  14  0.000  0.250  0.350-  46 2.14  40 2.14  48 2.14  49 2.14  65 2.14
  15  0.250  0.500  0.350-  47 2.14  41 2.14  48 2.14  49 2.14  64 2.14
  16  0.000  0.500  0.450-  48 2.14  46 2.14  47 2.14  38 2.14  63 2.14  52 2.14
  17  0.250  0.250  0.450-  49 2.14  46 2.14  47 2.14  39 2.14  62 2.14  53 2.14
  18  0.000  0.250  0.550-  44 2.14  52 2.14  53 2.14  69 2.14  46 2.15  50 2.16
  19  0.250  0.500  0.550-  45 2.14  52 2.14  53 2.14  68 2.14  47 2.15  51 2.16
  20  0.000  0.500  0.650-  52 2.13  50 2.14  51 2.14  42 2.14  67 2.14
  21  0.250  0.250  0.650-  53 2.13  50 2.14  51 2.14  43 2.14  66 2.14
  22  0.500  0.750  0.350-  54 2.14  41 2.14  56 2.14  57 2.14  64 2.14
  23  0.750  0.000  0.350-  55 2.14  40 2.14  56 2.14  57 2.14  65 2.14
  24  0.500  0.000  0.450-  56 2.14  54 2.14  55 2.14  39 2.14  62 2.14  60 2.14
  25  0.750  0.750  0.450-  57 2.14  54 2.14  55 2.14  38 2.14  63 2.14  61 2.14
  26  0.500  0.750  0.550-  45 2.14  60 2.14  61 2.14  68 2.14  54 2.15  58 2.16
  27  0.750  0.000  0.550-  44 2.14  60 2.14  61 2.14  69 2.14  55 2.15  59 2.16
  28  0.500  0.000  0.650-  60 2.13  58 2.14  59 2.14  43 2.14  66 2.14
  29  0.750  0.750  0.650-  61 2.13  58 2.14  59 2.14  42 2.14  67 2.14
  30  0.500  0.250  0.350-  62 2.14  56 2.14  49 2.14  64 2.14  65 2.14
  31  0.750  0.500  0.350-  63 2.14  57 2.14  48 2.14  64 2.14  65 2.14
  32  0.500  0.500  0.450-  64 2.14  54 2.14  62 2.14  63 2.14  47 2.14  68 2.14
  33  0.750  0.250  0.450-  65 2.14  55 2.14  62 2.14  63 2.14  46 2.14  69 2.14
  34  0.500  0.250  0.550-  53 2.14  60 2.14  68 2.14  69 2.14  62 2.15  66 2.16
  35  0.750  0.500  0.550-  52 2.14  61 2.14  68 2.14  69 2.14  63 2.15  67 2.16
  36  0.500  0.500  0.650-  68 2.13  58 2.14  66 2.14  67 2.14  51 2.14
  37  0.750  0.250  0.650-  69 2.13  59 2.14  66 2.14  67 2.14  50 2.14
  38  0.000  0.750  0.450-   6 2.14   8 2.14   9 2.14  16 2.14  25 2.14  10 2.15
  39  0.250  0.000  0.450-   7 2.14   8 2.14   9 2.14  17 2.14  24 2.14  11 2.15
  40  0.000  0.000  0.350-   8 2.14   7 2.14   6 2.14  14 2.14  23 2.14
  41  0.250  0.750  0.350-   9 2.14   7 2.14   6 2.14  15 2.14  22 2.14
  42  0.000  0.750  0.651-  12 2.14  13 2.14  20 2.14  29 2.14  10 2.16
  43  0.250  0.000  0.651-  12 2.14  13 2.14  21 2.14  28 2.14  11 2.16
  44  0.000  0.000  0.550-  12 2.13  11 2.14  10 2.14  18 2.14  27 2.14   8 2.14
  45  0.250  0.750  0.550-  13 2.13  11 2.14  10 2.14  19 2.14  26 2.14   9 2.14
  46  0.000  0.250  0.450-  14 2.14   8 2.14  16 2.14  17 2.14  33 2.14  18 2.15
  47  0.250  0.500  0.450-  15 2.14   9 2.14  16 2.14  17 2.14  32 2.14  19 2.15
  48  0.000  0.500  0.350-  16 2.14  14 2.14  15 2.14   6 2.14  31 2.14
  49  0.250  0.250  0.350-  17 2.14  14 2.14  15 2.14   7 2.14  30 2.14
  50  0.000  0.250  0.651-  12 2.14  20 2.14  21 2.14  37 2.14  18 2.16
  51  0.250  0.500  0.651-  13 2.14  20 2.14  21 2.14  36 2.14  19 2.16
  52  0.000  0.500  0.550-  20 2.13  18 2.14  19 2.14  10 2.14  35 2.14  16 2.14
  53  0.250  0.250  0.550-  21 2.13  18 2.14  19 2.14  11 2.14  34 2.14  17 2.14
  54  0.500  0.750  0.450-  22 2.14   9 2.14  24 2.14  25 2.14  32 2.14  26 2.15
  55  0.750  0.000  0.450-  23 2.14   8 2.14  24 2.14  25 2.14  33 2.14  27 2.15
  56  0.500  0.000  0.350-  24 2.14  22 2.14  23 2.14   7 2.14  30 2.14
  57  0.750  0.750  0.350-  25 2.14  22 2.14  23 2.14   6 2.14  31 2.14
  58  0.500  0.750  0.651-  13 2.14  28 2.14  29 2.14  36 2.14  26 2.16
  59  0.750  0.000  0.651-  12 2.14  28 2.14  29 2.14  37 2.14  27 2.16
  60  0.500  0.000  0.550-  28 2.13  26 2.14  27 2.14  11 2.14  34 2.14  24 2.14
  61  0.750  0.750  0.550-  29 2.13  26 2.14  27 2.14  10 2.14  35 2.14  25 2.14
  62  0.500  0.250  0.450-  30 2.14  24 2.14  17 2.14  32 2.14  33 2.14  34 2.15
  63  0.750  0.500  0.450-  31 2.14  25 2.14  16 2.14  32 2.14  33 2.14  35 2.15
  64  0.500  0.500  0.350-  32 2.14  22 2.14  30 2.14  31 2.14  15 2.14
  65  0.750  0.250  0.350-  33 2.14  23 2.14  30 2.14  31 2.14  14 2.14
  66  0.500  0.250  0.651-  21 2.14  28 2.14  36 2.14  37 2.14  34 2.16
  67  0.750  0.500  0.651-  20 2.14  29 2.14  36 2.14  37 2.14  35 2.16
  68  0.500  0.500  0.550-  36 2.13  26 2.14  34 2.14  35 2.14  19 2.14  32 2.14
  69  0.750  0.250  0.550-  37 2.13  27 2.14  34 2.14  35 2.14  18 2.14  33 2.14

IMPORTANT INFORMATION: All symmetrisations will be switched off!
NOSYMM: (Re-)initialisation of all symmetry stuff for point group C_1.

                                     Primitive cell

  volume of cell :    1563.6717

  direct lattice vectors                    reciprocal lattice vectors
     8.546113626  0.000000000  0.000000000     0.117012252  0.000000000  0.000000000
     0.000000000  8.546113626  0.000000000     0.000000000  0.117012252  0.000000000
     0.000000000  0.000000000 21.409585219     0.000000000  0.000000000  0.046708051

  length of vectors
     8.546113626  8.546113626 21.409585219     0.117012252  0.117012252  0.046708051

  position of ions in fractional coordinates (direct lattice)
     0.500000000  0.500000000  0.790736555
     0.500000000  0.604507065  0.820234453
     0.500000000  0.395492935  0.820234453
     0.604507065  0.500000000  0.761238658
     0.395492935  0.500000000  0.761238658
     0.000000000  0.750000000  0.350310383
     0.250000000  0.000000000  0.350310383
     0.000000000  0.000000000  0.450103461
     0.250000000  0.750000000  0.450103461
     0.000000000  0.750000000  0.550423065
     0.250000000  0.000000000  0.550423065
     0.000000000  0.000000000  0.649678241
     0.250000000  0.750000000  0.649678241
     0.000000000  0.250000000  0.350310383
     0.250000000  0.500000000  0.350310383
     0.000000000  0.500000000  0.450103461
     0.250000000  0.250000000  0.450103461
     0.000000000  0.250000000  0.550423065
     0.250000000  0.500000000  0.550423065
     0.000000000  0.500000000  0.649678241
     0.250000000  0.250000000  0.649678241
     0.500000000  0.750000000  0.350310383
     0.750000000  0.000000000  0.350310383
     0.500000000  0.000000000  0.450103461
     0.750000000  0.750000000  0.450103461
     0.500000000  0.750000000  0.550423065
     0.750000000  0.000000000  0.550423065
     0.500000000  0.000000000  0.649678241
     0.750000000  0.750000000  0.649678241
     0.500000000  0.250000000  0.350310383
     0.750000000  0.500000000  0.350310383
     0.500000000  0.500000000  0.450103461
     0.750000000  0.250000000  0.450103461
     0.500000000  0.250000000  0.550423065
     0.750000000  0.500000000  0.550423065
     0.500000000  0.500000000  0.649678241
     0.750000000  0.250000000  0.649678241
     0.000000000  0.750000000  0.450103461
     0.250000000  0.000000000  0.450103461
     0.000000000  0.000000000  0.350310383
     0.250000000  0.750000000  0.350310383
     0.000000000  0.750000000  0.651489980
     0.250000000  0.000000000  0.651489980
     0.000000000  0.000000000  0.550159231
     0.250000000  0.750000000  0.550159231
     0.000000000  0.250000000  0.450103461
     0.250000000  0.500000000  0.450103461
     0.000000000  0.500000000  0.350310383
     0.250000000  0.250000000  0.350310383
     0.000000000  0.250000000  0.651489980
     0.250000000  0.500000000  0.651489980
     0.000000000  0.500000000  0.550159231
     0.250000000  0.250000000  0.550159231
     0.500000000  0.750000000  0.450103461
     0.750000000  0.000000000  0.450103461
     0.500000000  0.000000000  0.350310383
     0.750000000  0.750000000  0.350310383
     0.500000000  0.750000000  0.651489980
     0.750000000  0.000000000  0.651489980
     0.500000000  0.000000000  0.550159231
     0.750000000  0.750000000  0.550159231
     0.500000000  0.250000000  0.450103461
     0.750000000  0.500000000  0.450103461
     0.500000000  0.500000000  0.350310383
     0.750000000  0.250000000  0.350310383
     0.500000000  0.250000000  0.651489980
     0.750000000  0.500000000  0.651489980
     0.500000000  0.500000000  0.550159231
     0.750000000  0.250000000  0.550159231

[...]
   4.27305681  6.40958522 11.78432951
   6.40958522  0.00000000 11.78432951
   4.27305681  0.00000000 13.90934166
   6.40958522  6.40958522 13.90934166
   4.27305681  2.13652841  7.50000000
   6.40958522  4.27305681  7.50000000
   4.27305681  4.27305681  9.63652841
   6.40958522  2.13652841  9.63652841
   4.27305681  2.13652841 11.78432951
   6.40958522  4.27305681 11.78432951
   4.27305681  4.27305681 13.90934166
   6.40958522  2.13652841 13.90934166
   0.00000000  6.40958522  9.63652841
   2.13652841  0.00000000  9.63652841
   0.00000000  0.00000000  7.50000000
   2.13652841  6.40958522  7.50000000
   0.00000000  6.40958522 13.94813025
   2.13652841  0.00000000 13.94813025
   0.00000000  0.00000000 11.77868095
   2.13652841  6.40958522 11.77868095
   0.00000000  2.13652841  9.63652841
   2.13652841  4.27305681  9.63652841
   0.00000000  4.27305681  7.50000000
   2.13652841  2.13652841  7.50000000
   0.00000000  2.13652841 13.94813025
   2.13652841  4.27305681 13.94813025
   0.00000000  4.27305681 11.77868095
   2.13652841  2.13652841 11.77868095
   4.27305681  6.40958522  9.63652841
   6.40958522  0.00000000  9.63652841
   4.27305681  0.00000000  7.50000000
   6.40958522  6.40958522  7.50000000
   4.27305681  6.40958522 13.94813025
   6.40958522  0.00000000 13.94813025
   4.27305681  0.00000000 11.77868095
   6.40958522  6.40958522 11.77868095
   4.27305681  2.13652841  9.63652841
   6.40958522  4.27305681  9.63652841
   4.27305681  4.27305681  7.50000000
   6.40958522  2.13652841  7.50000000
   4.27305681  2.13652841 13.94813025
   6.40958522  4.27305681 13.94813025
   4.27305681  4.27305681 11.77868095
   6.40958522  2.13652841 11.77868095

--------------------------------------- Iteration      FINAL  ---------------------------------------

--------------------OUTCAR has been truncated-------------------------

[...]

--------------------OUTCAR has been truncated-------------------------

  FORCE on cell =-STRESS in cart. coord.  units (eV):
  Direction    XX          YY          ZZ          XY          YZ          ZX
  Alpha Z   874.73537   874.73537   874.73537
  Ewald  153229.25304153228.07210************    -0.00000    -0.00056     0.00009
  Hartree163474.68560163473.97541************    -0.00000     0.00001     0.00002
  E(xc)   -2546.63006 -2546.65492 -2549.32792    -0.00000    -0.00000     0.00000
  Local  ************************326272.19574     0.00000     0.00034    -0.00008
  n-local -2831.67015 -2831.66604 -2850.30539    -0.00000     0.00002    -0.00000
  augment  1078.59559  1078.59645  1070.02530    -0.00000     0.00000     0.00000
  Kinetic  7408.19006  7408.21274  7446.59678     0.00000     0.00002    -0.00000
  Fock        0.00000     0.00000     0.00000     0.00000     0.00000     0.00000
  Total     -30.68516   -30.67711    -2.42702     0.00000    -0.00016     0.00002
  in kB     -31.44079   -31.43254    -2.48679     0.00000    -0.00017     0.00002

 VOLUME and BASIS-vectors are now :
  energy-cutoff  :      600.00
  volume of cell :     1563.67
      direct lattice vectors                 reciprocal lattice vectors
     8.546113626  0.000000000  0.000000000     0.117012252  0.000000000  0.000000000
     0.000000000  8.546113626  0.000000000     0.000000000  0.117012252  0.000000000
     0.000000000  0.000000000 21.409585219     0.000000000  0.000000000  0.046708051

  length of vectors
     8.546113626  8.546113626 21.409585219     0.117012252  0.117012252  0.046708051

 FORCES acting on ions:
    Electron-Ion                     Ewald-Force                    Non-Local-Force
   -.230E-04 -.209E-03 -.856E+03   0.371E-04 0.342E-03 0.856E+03   0.210E-04 0.197E-03 -.636E-01
   -.286E-04 -.430E+02 -.212E+03   0.308E-04 0.476E+02 0.216E+03   -.394E-05 -.466E+01 -.327E+01
   -.121E-04 0.430E+02 -.212E+03   0.125E-04 -.476E+02 0.216E+03   -.214E-05 0.466E+01 -.327E+01
   -.430E+02 -.193E-03 -.215E+03   0.477E+02 0.206E-03 0.212E+03   -.470E+01 -.284E-04 0.320E+01
   0.430E+02 -.209E-03 -.215E+03   -.477E+02 0.224E-03 0.212E+03   0.470E+01 -.302E-04 0.320E+01
   -.106E-05 -.149E+00 0.201E+04   0.120E-05 0.149E+00 -.201E+04   -.113E-06 -.194E-03 -.640E+01
   0.153E+00 -.537E-05 0.201E+04   -.153E+00 0.548E-05 -.201E+04   -.434E-04 -.871E-07 -.640E+01
   -.757E-05 -.295E-04 0.686E+03   0.896E-05 0.314E-04 -.686E+03   -.973E-06 -.134E-05 0.469E+00
   0.577E+00 -.595E+00 0.687E+03   -.578E+00 0.596E+00 -.687E+03   0.741E-03 -.915E-03 0.450E+00
   0.286E-04 -.217E+01 -.634E+03   -.287E-04 0.218E+01 0.634E+03   -.792E-06 -.831E-02 -.254E+00
   0.221E+01 -.127E-04 -.634E+03   -.221E+01 0.143E-04 0.634E+03   -.152E-04 -.214E-05 -.251E+00
   -.770E-05 -.197E-06 -.196E+04   0.634E-05 -.101E-05 0.195E+04   0.157E-05 0.132E-05 0.560E+01
   0.124E+02 -.127E+02 -.194E+04   -.124E+02 0.127E+02 0.194E+04   -.334E-01 -.128E-01 0.561E+01
   -.108E-05 0.149E+00 0.201E+04   0.121E-05 -.149E+00 -.201E+04   -.105E-06 0.194E-03 -.640E+01
   0.160E+00 0.536E-05 0.201E+04   -.160E+00 -.548E-05 -.201E+04   -.204E-03 0.930E-07 -.640E+01
   -.267E-05 0.285E-04 0.687E+03   0.344E-05 -.307E-04 -.687E+03   -.599E-06 0.152E-05 0.449E+00
   0.577E+00 0.595E+00 0.687E+03   -.578E+00 -.596E+00 -.687E+03   0.742E-03 0.915E-03 0.450E+00
   0.183E-04 0.217E+01 -.634E+03   -.186E-04 -.218E+01 0.634E+03   -.369E-06 0.831E-02 -.254E+00
   0.314E+01 0.123E-04 -.628E+03   -.315E+01 -.140E-04 0.628E+03   0.152E-01 0.197E-05 -.280E+00
   0.482E-04 -.231E-05 -.195E+04   -.497E-04 0.396E-05 0.194E+04   0.414E-06 -.158E-05 0.560E+01
   0.124E+02 0.127E+02 -.194E+04   -.124E+02 -.127E+02 0.194E+04   -.334E-01 0.128E-01 0.561E+01
   0.109E-05 -.157E+00 0.201E+04   -.121E-05 0.156E+00 -.201E+04   0.981E-07 0.570E-04 -.641E+01
   -.153E+00 -.537E-05 0.201E+04   0.153E+00 0.550E-05 -.201E+04   0.434E-04 -.959E-07 -.640E+01
   0.783E-05 -.154E-04 0.687E+03   -.922E-05 0.158E-04 -.687E+03   0.964E-06 -.312E-06 0.432E+00
   -.577E+00 -.595E+00 0.687E+03   0.578E+00 0.596E+00 -.687E+03   -.741E-03 -.914E-03 0.450E+00
   -.254E-04 -.326E+01 -.627E+03   0.255E-04 0.326E+01 0.628E+03   0.116E-05 -.686E-02 -.346E+00
   -.221E+01 -.129E-04 -.634E+03   0.221E+01 0.142E-04 0.634E+03   0.149E-04 -.172E-05 -.251E+00
   -.478E-05 0.872E-05 -.195E+04   0.491E-05 -.999E-05 0.194E+04   -.448E-06 0.180E-05 0.559E+01
   -.124E+02 -.127E+02 -.194E+04   0.124E+02 0.127E+02 0.194E+04   0.334E-01 -.128E-01 0.561E+01
   0.108E-05 0.157E+00 0.201E+04   -.120E-05 -.156E+00 -.201E+04   0.981E-07 -.570E-04 -.641E+01
   -.160E+00 0.534E-05 0.201E+04   0.160E+00 -.547E-05 -.201E+04   0.204E-03 0.935E-07 -.640E+01
   0.266E-05 0.148E-04 0.688E+03   -.338E-05 -.154E-04 -.689E+03   0.564E-06 0.421E-06 0.437E+00
   -.577E+00 0.595E+00 0.687E+03   0.578E+00 -.596E+00 -.687E+03   -.742E-03 0.914E-03 0.450E+00
   -.251E-04 0.326E+01 -.627E+03   0.250E-04 -.326E+01 0.628E+03   0.866E-06 0.686E-02 -.346E+00
   -.314E+01 0.371E-05 -.628E+03   0.315E+01 -.585E-05 0.628E+03   -.152E-01 0.250E-05 -.280E+00
   -.314E-04 -.244E-04 -.190E+04   0.343E-04 0.255E-04 0.189E+04   -.189E-05 -.199E-05 0.571E+01
   -.124E+02 0.127E+02 -.194E+04   0.124E+02 -.127E+02 0.194E+04   0.334E-01 0.128E-01 0.561E+01
   -.654E-06 -.418E+00 0.514E+03   0.356E-06 0.414E+00 -.514E+03   0.359E-06 0.521E-02 -.784E-01
   0.443E+00 -.162E-04 0.514E+03   -.438E+00 0.156E-04 -.514E+03   -.691E-02 0.735E-06 -.771E-01
   -.109E-05 -.468E-05 0.151E+04   0.129E-05 0.490E-05 -.152E+04   -.272E-06 -.314E-06 0.358E+01
   0.117E+00 -.115E+00 0.151E+04   -.117E+00 0.115E+00 -.152E+04   -.301E-03 -.103E-03 0.358E+01
   0.232E-04 -.559E+01 -.148E+04   -.242E-04 0.558E+01 0.149E+04   0.917E-06 0.169E-01 -.491E+01
   0.533E+01 -.719E-06 -.148E+04   -.533E+01 0.207E-05 0.149E+04   0.216E-02 -.895E-06 -.491E+01
   0.106E-04 -.175E-04 -.472E+03   -.112E-04 0.154E-04 0.472E+03   0.513E-06 0.224E-05 0.264E+00
   0.201E+01 -.204E+01 -.468E+03   -.200E+01 0.203E+01 0.467E+03   -.126E-01 0.123E-01 0.303E+00
   -.121E-05 0.418E+00 0.514E+03   0.103E-05 -.414E+00 -.514E+03   0.209E-06 -.521E-02 -.785E-01
   0.468E+00 0.159E-04 0.515E+03   -.465E+00 -.152E-04 -.515E+03   -.392E-02 -.979E-06 -.742E-01
   -.673E-06 0.468E-05 0.151E+04   0.789E-06 -.489E-05 -.152E+04   -.168E-06 0.294E-06 0.358E+01
   0.117E+00 0.115E+00 0.151E+04   -.117E+00 -.115E+00 -.152E+04   -.301E-03 0.103E-03 0.358E+01
   0.204E-05 0.559E+01 -.148E+04   -.234E-05 -.558E+01 0.149E+04   0.816E-06 -.169E-01 -.491E+01
   0.151E+02 -.104E-04 -.146E+04   -.151E+02 0.896E-05 0.147E+04   -.146E-01 0.144E-05 -.492E+01
   0.175E-04 0.157E-04 -.468E+03   -.192E-04 -.142E-04 0.468E+03   0.169E-05 -.141E-05 0.279E+00
   0.201E+01 0.204E+01 -.468E+03   -.200E+01 -.203E+01 0.467E+03   -.126E-01 -.123E-01 0.303E+00
   0.121E-05 -.459E+00 0.515E+03   -.109E-05 0.459E+00 -.515E+03   -.508E-07 -.284E-03 -.799E-01
   -.443E+00 -.165E-04 0.514E+03   0.438E+00 0.159E-04 -.514E+03   0.691E-02 0.918E-06 -.771E-01
   0.111E-05 -.338E-05 0.151E+04   -.129E-05 0.345E-05 -.152E+04   0.269E-06 -.102E-06 0.357E+01
   -.117E+00 -.115E+00 0.151E+04   0.117E+00 0.115E+00 -.152E+04   0.301E-03 -.103E-03 0.358E+01
   -.109E-04 -.152E+02 -.146E+04   0.108E-04 0.152E+02 0.147E+04   -.210E-06 0.284E-01 -.497E+01
   -.533E+01 0.661E-05 -.148E+04   0.533E+01 -.485E-05 0.149E+04   -.216E-02 -.163E-05 -.491E+01
   -.993E-05 -.714E-05 -.468E+03   0.100E-04 0.569E-05 0.468E+03   0.187E-06 0.138E-05 0.271E+00
   -.201E+01 -.204E+01 -.468E+03   0.200E+01 0.203E+01 0.467E+03   0.126E-01 0.123E-01 0.303E+00
   0.836E-06 0.459E+00 0.515E+03   -.773E-06 -.459E+00 -.515E+03   -.208E-07 0.284E-03 -.799E-01
   -.468E+00 0.156E-04 0.515E+03   0.465E+00 -.149E-04 -.515E+03   0.392E-02 -.934E-06 -.742E-01
   0.681E-06 0.338E-05 0.151E+04   -.783E-06 -.344E-05 -.152E+04   0.174E-06 0.837E-07 0.357E+01
   -.117E+00 0.115E+00 0.151E+04   0.117E+00 -.115E+00 -.152E+04   0.301E-03 0.103E-03 0.358E+01
   -.134E-04 0.152E+02 -.146E+04   0.142E-04 -.152E+02 0.147E+04   -.121E-05 -.284E-01 -.497E+01
   -.151E+02 -.207E-04 -.146E+04   0.151E+02 0.194E-04 0.147E+04   0.146E-01 0.168E-05 -.492E+01
   -.163E-04 0.760E-05 -.463E+03   0.178E-04 -.652E-05 0.463E+03   -.137E-05 -.893E-06 0.271E+00
   -.201E+01 0.204E+01 -.468E+03   0.200E+01 -.203E+01 0.467E+03   0.126E-01 -.123E-01 0.303E+00
   -.291E-04 -.270E-03 0.143E+02   -.242E-12 0.302E-12 0.193E-11   0.292E-04 0.270E-03 -.143E+02

 POSITION                                       TOTAL-FORCE (eV/Angst)
      4.27306      4.27305     17.28927         0.000035      0.000328     -0.009557
      4.27306      5.16892     17.91815        -0.000002      0.000362      0.009077
      4.27306      3.37720     17.91814        -0.000002     -0.000658      0.009264
      5.17135      4.27306     16.66166         0.004400     -0.000016      0.008275
      3.37476      4.27306     16.66166        -0.004432     -0.000016      0.008255
      0.00000      6.40959      7.50000         0.000000      0.000037      0.323604
      2.13653      0.00000      7.50000         0.000046      0.000000      0.323662
      0.00000      0.00000      9.63653         0.000000      0.000001      0.025299
      2.13653      6.40959      9.63653        -0.000139      0.000373      0.024063
      0.00000      6.41000     11.78469        -0.000001     -0.002111     -0.002301
      2.13659      0.00000     11.78469        -0.001179     -0.000000     -0.005784
     -0.00000     -0.00000     13.91023         0.000000      0.000000     -0.006076
      2.13763      6.40998     13.90585        -0.006899      0.002686     -0.000328
      0.00000      2.13653      7.50000         0.000000     -0.000037      0.323604
      2.13653      4.27306      7.50000         0.000082     -0.000000      0.323414
      0.00000      4.27306      9.63653         0.000000     -0.000001      0.025517
      2.13653      2.13653      9.63653        -0.000139     -0.000373      0.024064
      0.00000      2.13611     11.78469        -0.000001      0.002111     -0.002303
      2.13612      4.27306     11.78419         0.001821      0.000000      0.001545
      0.00000      4.27306     13.90674        -0.000001      0.000000     -0.002343
      2.13763      2.13613     13.90585        -0.006900     -0.002686     -0.000328
      4.27306      6.40959      7.50000        -0.000000     -0.000020      0.323709
      6.40959      0.00000      7.50000        -0.000046      0.000000      0.323661
      4.27306      0.00000      9.63653        -0.000000      0.000000      0.024903
      6.40959      6.40959      9.63653         0.000139      0.000372      0.024063
      4.27306      6.40979     11.78451         0.000001     -0.001450     -0.001624
      6.40953      0.00000     11.78469         0.001179     -0.000000     -0.005782
      4.27306     -0.00000     13.90742        -0.000000      0.000001     -0.002116
      6.40848      6.40998     13.90585         0.006900      0.002685     -0.000327
      4.27306      2.13653      7.50000        -0.000000      0.000020      0.323709
      6.40959      4.27306      7.50000        -0.000082     -0.000000      0.323414
      4.27306      4.27306      9.63653        -0.000000     -0.000000      0.025527
      6.40959      2.13653      9.63653         0.000139     -0.000372      0.024064
      4.27306      2.13632     11.78451         0.000001      0.001451     -0.001623
      6.40999      4.27306     11.78419        -0.001821      0.000000      0.001546
      4.27306      4.27306     13.90874         0.000001     -0.000001      0.002611
      6.40848      2.13613     13.90585         0.006900     -0.002685     -0.000327
      0.00000      6.40959      9.63653         0.000000      0.001368      0.053107
      2.13653      0.00000      9.63653        -0.002181      0.000000      0.053509
      0.00000      0.00000      7.50000        -0.000000     -0.000000     -0.396786
      2.13653      6.40959      7.50000        -0.000080     -0.000027     -0.396825
      0.00000      6.40945     13.94920        -0.000000      0.004027     -0.000963
      2.13658     -0.00000     13.94889         0.000043      0.000000     -0.002110
      0.00000      0.00000     11.77961        -0.000000      0.000000     -0.003748
      2.13596      6.40964     11.77820         0.000449      0.002127     -0.001387
      0.00000      2.13653      9.63653         0.000000     -0.001369      0.053108
      2.13653      4.27306      9.63653        -0.000968     -0.000000      0.052145
      0.00000      4.27306      7.50000        -0.000000      0.000000     -0.396700
      2.13653      2.13653      7.50000        -0.000080      0.000027     -0.396825
     -0.00000      2.13666     13.94920         0.000001     -0.004027     -0.000966
      2.13486      4.27306     13.94796         0.008229      0.000000     -0.003916
      0.00000      4.27306     11.77851         0.000000      0.000000     -0.007068
      2.13596      2.13647     11.77820         0.000449     -0.002127     -0.001388
      4.27306      6.40959      9.63653         0.000000     -0.000237      0.051950
      6.40959      0.00000      9.63653         0.002181      0.000000      0.053509
      4.27306      0.00000      7.50000         0.000000     -0.000000     -0.397032
      6.40959      6.40959      7.50000         0.000080     -0.000027     -0.396825
      4.27306      6.41025     13.94491        -0.000000     -0.000679     -0.004293
      6.40953     -0.00000     13.94889        -0.000043      0.000000     -0.002110
      4.27306      0.00000     11.77757         0.000000     -0.000000      0.000194
      6.41016      6.40964     11.77820        -0.000450      0.002127     -0.001388
      4.27306      2.13653      9.63653         0.000000      0.000237      0.051951
      6.40959      4.27306      9.63653         0.000968     -0.000000      0.052145
      4.27306      4.27306      7.50000         0.000000      0.000000     -0.397061
      6.40959      2.13653      7.50000         0.000080      0.000027     -0.396825
      4.27306      2.13586     13.94491        -0.000000      0.000678     -0.004296
      6.41126      4.27306     13.94796        -0.008229      0.000000     -0.003916
      4.27306      4.27306     11.77791         0.000000      0.000000      0.006164
      6.41016      2.13647     11.77820        -0.000449     -0.002128     -0.001389
    total drift:                                0.000000     -0.000000      0.020633

  FREE ENERGIE OF THE ION-ELECTRON SYSTEM (eV)
  free  energy   TOTEN  =      -249.89429717 eV

  energy  without entropy=     -249.89429717  energy(sigma->0) =     -249.89429717

 d Force = 0.1578082E-05[-0.284E-06, 0.344E-05]  d Energy = 0.1216205E-05 0.362E-06
 d Force =-0.6884013E+00[-0.688E+00,-0.688E+00]  d Ewald  =-0.6884013E+00 0.171E-08

 reached required accuracy - stopping structural energy minimisation