 vasp.6.3.0 20Jan22 (build Mar 11 2022 13:48:16) complex

 executed on             LinuxIFC date 2024.02.12  03:32:55

 INCAR:
   SYSTEM = Oxide-Surface
   ISMEAR = 0
   SIGMA = 0.05
   EDIFF = 1E-5
   ALGO = ALL
   ISTART = 0
   IBRION = -1
   NSW = 0
   ISYM = 2
   DIPOL = 0.5 0.5 0.5
   IDIPOL = 3
   LDIPOL = .TRUE.
   GGA = PE
   IVDW = 11
   ENCUT = 600
   PREC = Accurate
   LASPH = .TRUE.
   LREAL = .FALSE.
   ISPIN = 1
   NELM = 200
   NELMIN = 8
   NCORE = 19
   KPAR = 1
   LWAVE = .FALSE.
   LCHARG = .FALSE.

 POTCAR:    PAW_PBE Mg_pv 13Apr2007
 POTCAR:    PAW_PBE O 08Apr2002
 POTCAR:    PAW_PBE Mg_pv 13Apr2007
   VRHFIN =Mg: p6s2

   TITEL  = PAW_PBE Mg_pv 13Apr2007
   POMASS =   24.305; ZVAL   =    8.000    mass and valenz
   ENMAX  =  403.929; ENMIN  =  302.947 eV

   TITEL  = PAW_PBE O 08Apr2002
   POMASS =   16.000; ZVAL   =    6.000    mass and valenz
   ENMAX  =  400.000; ENMIN  =  300.000 eV

  PAW_PBE Mg_pv 13Apr2007               :
  PAW_PBE O 08Apr2002                   :

 POSCAR: Mg  O
  positions in direct lattice
 exchange correlation table for  LEXCH =        8
   RHO(1)=    0.500       N(1)  =     2000
   RHO(2)=  100.500       N(2)  =     4000

 ion  position               nearest neighbor table
   1  0.000  0.750  0.352-  33 2.11  35 2.11  36 2.11  43 2.11  52 2.11
   2  0.250  0.000  0.352-  34 2.11  35 2.11  36 2.11  44 2.11  51 2.11
   3  0.000  0.000  0.451-  35 2.11  34 2.11  33 2.11  41 2.11  50 2.11  39 2.12
   4  0.250  0.750  0.451-  36 2.11  34 2.11  33 2.11  42 2.11  49 2.11  40 2.12
   5  0.000  0.750  0.550-  47 2.11  40 2.11  56 2.11  39 2.11  33 2.12  37 2.15
   6  0.250  0.000  0.550-  55 2.11  48 2.11  40 2.11  39 2.11  34 2.12  38 2.15
   7  0.000  0.000  0.649-  37 2.11  38 2.11  45 2.11  54 2.11  39 2.11
   8  0.250  0.750  0.649-  40 2.11  38 2.11  37 2.11  46 2.11  53 2.11
   9  0.000  0.250  0.352-  41 2.11  35 2.11  43 2.11  44 2.11  60 2.11
  10  0.250  0.500  0.352-  42 2.11  36 2.11  43 2.11  44 2.11  59 2.11
  11  0.000  0.500  0.451-  43 2.11  41 2.11  42 2.11  33 2.11  58 2.11  47 2.12
  12  0.250  0.250  0.451-  44 2.11  41 2.11  42 2.11  34 2.11  57 2.11  48 2.12
  13  0.000  0.250  0.550-  47 2.11  48 2.11  64 2.11  39 2.11  41 2.12  45 2.15
  14  0.250  0.500  0.550-  63 2.11  48 2.11  40 2.11  47 2.11  42 2.13  46 2.15
  15  0.000  0.500  0.649-  46 2.10  62 2.10  47 2.11  45 2.11  37 2.11
  16  0.250  0.250  0.649-  48 2.11  45 2.11  38 2.11  46 2.11  61 2.11
  17  0.500  0.750  0.352-  49 2.11  36 2.11  51 2.11  52 2.11  59 2.11
  18  0.750  0.000  0.352-  50 2.11  35 2.11  51 2.11  52 2.11  60 2.11
  19  0.500  0.000  0.451-  51 2.11  49 2.11  50 2.11  34 2.11  57 2.11  55 2.12
  20  0.750  0.750  0.451-  52 2.11  49 2.11  50 2.11  33 2.11  58 2.11  56 2.12
  21  0.500  0.750  0.550-  63 2.11  56 2.11  40 2.11  55 2.11  49 2.13  53 2.15
  22  0.750  0.000  0.550-  55 2.11  56 2.11  64 2.11  39 2.11  50 2.12  54 2.15
  23  0.500  0.000  0.649-  53 2.10  61 2.10  55 2.11  38 2.11  54 2.11
  24  0.750  0.750  0.649-  56 2.11  54 2.11  37 2.11  53 2.11  62 2.11
  25  0.500  0.250  0.352-  57 2.11  51 2.11  44 2.11  59 2.11  60 2.11
  26  0.750  0.500  0.352-  58 2.11  52 2.11  43 2.11  59 2.11  60 2.11
  27  0.500  0.500  0.451-  59 2.11  49 2.11  57 2.11  58 2.11  42 2.11  63 2.13
  28  0.750  0.250  0.451-  60 2.11  50 2.11  57 2.11  58 2.11  41 2.11  64 2.12
  29  0.500  0.250  0.550-  63 2.11  48 2.11  64 2.11  55 2.11  57 2.13  61 2.15
  30  0.750  0.500  0.550-  63 2.11  56 2.11  64 2.11  47 2.11  58 2.13  62 2.15
  31  0.500  0.500  0.651-  46 2.12  53 2.12  61 2.12  62 2.12  63 2.14
  32  0.750  0.250  0.649-  64 2.11  54 2.11  45 2.11  62 2.11  61 2.11
  33  0.000  0.750  0.451-   1 2.11   3 2.11   4 2.11  11 2.11  20 2.11   5 2.12
  34  0.250  0.000  0.451-   2 2.11   3 2.11   4 2.11  12 2.11  19 2.11   6 2.12
  35  0.000  0.000  0.352-   3 2.11   2 2.11   1 2.11   9 2.11  18 2.11
  36  0.250  0.750  0.352-   4 2.11   2 2.11   1 2.11  10 2.11  17 2.11
  37  0.000  0.750  0.651-   7 2.11   8 2.11  24 2.11  15 2.11   5 2.15
  38  0.250  0.000  0.651-   7 2.11   8 2.11  16 2.11  23 2.11   6 2.15
  39  0.000  0.000  0.550-   7 2.11   6 2.11   5 2.11  13 2.11  22 2.11   3 2.12
  40  0.250  0.750  0.550-   8 2.11   6 2.11   5 2.11  14 2.11  21 2.11   4 2.12
  41  0.000  0.250  0.451-   9 2.11   3 2.11  11 2.11  12 2.11  28 2.11  13 2.12
  42  0.250  0.500  0.451-  10 2.11   4 2.11  11 2.11  12 2.11  27 2.11  14 2.13
  43  0.000  0.500  0.352-  11 2.11   9 2.11  10 2.11   1 2.11  26 2.11
  44  0.250  0.250  0.352-  12 2.11   9 2.11  10 2.11   2 2.11  25 2.11
  45  0.000  0.250  0.651-   7 2.11  16 2.11  32 2.11  15 2.11  13 2.15
  46  0.249  0.500  0.651-  15 2.10   8 2.11  16 2.11  31 2.12  14 2.15
  47  0.000  0.500  0.550-  15 2.11  13 2.11   5 2.11  14 2.11  30 2.11  11 2.12
  48  0.250  0.250  0.550-  16 2.11  13 2.11   6 2.11  14 2.11  29 2.11  12 2.12
  49  0.500  0.750  0.451-  17 2.11   4 2.11  19 2.11  20 2.11  27 2.11  21 2.13
  50  0.750  0.000  0.451-  18 2.11   3 2.11  19 2.11  20 2.11  28 2.11  22 2.12
  51  0.500  0.000  0.352-  19 2.11  17 2.11  18 2.11   2 2.11  25 2.11
  52  0.750  0.750  0.352-  20 2.11  17 2.11  18 2.11   1 2.11  26 2.11
  53  0.500  0.751  0.651-  23 2.10   8 2.11  24 2.11  31 2.12  21 2.15
  54  0.750  0.000  0.651-   7 2.11  24 2.11  32 2.11  23 2.11  22 2.15
  55  0.500  0.000  0.550-  23 2.11  22 2.11   6 2.11  21 2.11  29 2.11  19 2.12
  56  0.750  0.750  0.550-  24 2.11  22 2.11   5 2.11  30 2.11  21 2.11  20 2.12
  57  0.500  0.250  0.451-  25 2.11  19 2.11  12 2.11  27 2.11  28 2.11  29 2.13
  58  0.750  0.500  0.451-  26 2.11  20 2.11  11 2.11  27 2.11  28 2.11  30 2.13
  59  0.500  0.500  0.352-  27 2.11  17 2.11  25 2.11  26 2.11  10 2.11
  60  0.750  0.250  0.352-  28 2.11  18 2.11  25 2.11  26 2.11   9 2.11
  61  0.500  0.249  0.651-  23 2.10  16 2.11  32 2.11  31 2.12  29 2.15
  62  0.751  0.500  0.651-  15 2.10  24 2.11  32 2.11  31 2.12  30 2.15
  63  0.500  0.500  0.550-  14 2.11  21 2.11  29 2.11  30 2.11  27 2.13  31 2.14
  64  0.750  0.250  0.550-  32 2.11  22 2.11  13 2.11  30 2.11  29 2.11  28 2.12

  LATTYP: Found a simple tetragonal cell.
 ALAT       =     8.4409846542
 C/A-ratio  =     2.5270438657

  Lattice vectors:

 A1 = (   8.4409846542,   0.0000000000,   0.0000000000)
 A2 = (   0.0000000000,   8.4409846542,   0.0000000000)
 A3 = (   0.0000000000,   0.0000000000,  21.3307384906)

Analysis of symmetry for initial positions (statically):
 Subroutine PRICEL returns:
 Original cell was already a primitive cell.

 Routine SETGRP: Setting up the symmetry group for a
 simple tetragonal supercell.

 Subroutine GETGRP returns: Found  8 space group operations
 (whereof  8 operations were pure point group operations)
 out of a pool of 16 trial point group operations.

The static configuration has the point symmetry C_4v.

Analysis of symmetry for dynamics (positions and initial velocities):
 Subroutine PRICEL returns:
 Original cell was already a primitive cell.

[...]

The dynamic configuration has the point symmetry C_4v.

Analysis of constrained symmetry for selective dynamics:
 Subroutine PRICEL returns:
 Original cell was already a primitive cell.

 Routine SETGRP: Setting up the symmetry group for a
 simple tetragonal supercell.

 Subroutine GETGRP returns: Found  8 space group operations
 (whereof  8 operations were pure point group operations)
 out of a pool of 16 trial point group operations.

The constrained configuration has the point symmetry C_4v.

 Subroutine INISYM returns: Found  8 space group operations
 (whereof  8 operations are pure point group operations),
 and found     1 'primitive' translations

                                     Primitive cell

  volume of cell :    1519.8199

  direct lattice vectors                    reciprocal lattice vectors
     8.440984654  0.000000000  0.000000000     0.118469591  0.000000000  0.000000000
     0.000000000  8.440984654  0.000000000     0.000000000  0.118469591  0.000000000
     0.000000000  0.000000000 21.330738491     0.000000000  0.000000000  0.046880702

  length of vectors
     8.440984654  8.440984654 21.330738491     0.118469591  0.118469591  0.046880702

  position of ions in fractional coordinates (direct lattice)
     0.000000000  0.750000000  0.351605267
     0.250000000  0.000000000  0.351605267
     0.000000000  0.000000000  0.450535089
     0.250000000  0.750000000  0.450535089
     0.000000000  0.749939268  0.550083239
     0.250060732  0.000000000  0.550083239
     0.000000000  0.000000000  0.648745309
     0.249858327  0.750141673  0.648569547
     0.000000000  0.250000000  0.351605267
     0.250000000  0.500000000  0.351605267
     0.000000000  0.500000000  0.450535089
     0.250000000  0.250000000  0.450535089
     0.000000000  0.250060732  0.550083239
     0.250378379  0.500000000  0.550219524
     0.000000000  0.500000000  0.648615280
     0.249858327  0.249858327  0.648569547
     0.500000000  0.750000000  0.351605267
     0.750000000  0.000000000  0.351605267
     0.500000000  0.000000000  0.450535089
     0.750000000  0.750000000  0.450535089
     0.500000000  0.749621621  0.550219524
     0.749939268  0.000000000  0.550083239
     0.500000000  0.000000000  0.648615280
     0.750141673  0.750141673  0.648569547
     0.500000000  0.250000000  0.351605267
     0.750000000  0.500000000  0.351605267
     0.500000000  0.500000000  0.450535089
     0.750000000  0.250000000  0.450535089
     0.500000000  0.250378379  0.550219524
     0.749621621  0.500000000  0.550219524
     0.500000000  0.500000000  0.650616960
     0.750141673  0.249858327  0.648569547
     0.000000000  0.750000000  0.450535089
     0.250000000  0.000000000  0.450535089
     0.000000000  0.000000000  0.351605267
     0.250000000  0.750000000  0.351605267
     0.000000000  0.750218533  0.650979255
     0.249781467  0.000000000  0.650979255
     0.000000000  0.000000000  0.549809890
     0.249945770  0.750054230  0.549859113
     0.000000000  0.250000000  0.450535089
     0.250000000  0.500000000  0.450535089
     0.000000000  0.500000000  0.351605267
     0.250000000  0.250000000  0.351605267
     0.000000000  0.249781467  0.650979255
     0.248822710  0.500000000  0.650882872
     0.000000000  0.500000000  0.549762666
     0.249945770  0.249945770  0.549859113
     0.500000000  0.750000000  0.450535089
     0.750000000  0.000000000  0.450535089
     0.500000000  0.000000000  0.351605267
     0.750000000  0.750000000  0.351605267
     0.500000000  0.751177290  0.650882872
     0.750218533  0.000000000  0.650979255
     0.500000000  0.000000000  0.549762666
     0.750054230  0.750054230  0.549859113
     0.500000000  0.250000000  0.450535089
     0.750000000  0.500000000  0.450535089
     0.500000000  0.500000000  0.351605267
     0.750000000  0.250000000  0.351605267
     0.500000000  0.248822710  0.650882872
     0.751177290  0.500000000  0.650882872
     0.500000000  0.500000000  0.550231357
     0.750054230  0.249945770  0.549859113

  ion indices of the primitive-cell ions
   primitive index   ion index
                 1           1
                 2           2
                 3           3
[...]
   2.11024616  6.33073849  9.61024616
   0.00000000  6.33022585 11.73368172
   2.11075880  0.00000000 11.73368172
   0.00000000  0.00000000 13.83821654
   2.10905031  6.33193435 13.83446740
   0.00000000  2.11024616  7.50000000
   2.11024616  4.22049233  7.50000000
   0.00000000  4.22049233  9.61024616
   2.11024616  2.11024616  9.61024616
   0.00000000  2.11075880 11.73368172
   2.11344006  4.22049233 11.73658877
   0.00000000  4.22049233 13.83544293
   2.10905031  2.10905031 13.83446740
   4.22049233  6.33073849  7.50000000
   6.33073849  0.00000000  7.50000000
   4.22049233  0.00000000  9.61024616
   6.33073849  6.33073849  9.61024616
   4.22049233  6.32754460 11.73658877
   6.33022585  0.00000000 11.73368172
   4.22049233  0.00000000 13.83544293
   6.33193435  6.33193435 13.83446740
   4.22049233  2.11024616  7.50000000
   6.33073849  4.22049233  7.50000000
   4.22049233  4.22049233  9.61024616
   6.33073849  2.11024616  9.61024616
   4.22049233  2.11344006 11.73658877
   6.32754460  4.22049233 11.73658877
   4.22049233  4.22049233 13.87814023
   6.33193435  2.10905031 13.83446740
   0.00000000  6.33073849  9.61024616
   2.11024616  0.00000000  9.61024616
   0.00000000  0.00000000  7.50000000
   2.11024616  6.33073849  7.50000000
   0.00000000  6.33258312 13.88586825
   2.10840153  0.00000000 13.88586825
   0.00000000  0.00000000 11.72785099
   2.10978841  6.33119624 11.72890095
   0.00000000  2.11024616  9.61024616
   2.11024616  4.22049233  9.61024616
   0.00000000  4.22049233  7.50000000
   2.11024616  2.11024616  7.50000000
   0.00000000  2.10840153 13.88586825
   2.10030867  4.22049233 13.88381232
   0.00000000  4.22049233 11.72684365
   2.10978841  2.10978841 11.72890095
   4.22049233  6.33073849  9.61024616
   6.33073849  0.00000000  9.61024616
   4.22049233  0.00000000  7.50000000
   6.33073849  6.33073849  7.50000000
   4.22049233  6.34067598 13.88381232
   6.33258312  0.00000000 13.88586825
   4.22049233  0.00000000 11.72684365
   6.33119624  6.33119624 11.72890095
   4.22049233  2.11024616  9.61024616
   6.33073849  4.22049233  9.61024616
   4.22049233  4.22049233  7.50000000
   6.33073849  2.11024616  7.50000000
   4.22049233  2.10030867 13.88381232
   6.34067598  4.22049233 13.88381232
   4.22049233  4.22049233 11.73684118
   6.33119624  2.10978841 11.72890095

--------------------------------------- Iteration      FINAL  ---------------------------------------

--------------------OUTCAR has been truncated-------------------------

[...]

--------------------OUTCAR has been truncated-------------------------

         DFTD3 V3.0 Rev 1
 IVDW         = 11
 DF pbe
 parameters
 VDW_S6       =    1.0000
 VDW_S8       =    0.7220
 VDW_SR       =    1.2170
 rs18     =    1.0000
 alpha6   =   14.0000
 alpha8   =   16.0000
 k1-k3    =   16.0000    1.3333   -4.0000
 VDW_RADIUS   =   50.2022 A
 VDW_CNRADIUS =   21.1671 A
 Edisp (eV)   -9.23370

 E6    (eV) :    -4.2245
 E8    (eV) :    -5.0092
 % E8        : 54.25

  FORCE on cell =-STRESS in cart. coord.  units (eV):
  Direction    XX          YY          ZZ          XY          YZ          ZX
  Alpha Z   875.25928   875.25928   875.25928
  Ewald  161112.87060161112.87060************     0.00000     0.00000    -0.00000
  Hartree171172.75254171172.75254************    -0.00000    -0.00000    -0.00000
  E(xc)   -2456.55266 -2456.55266 -2461.84134    -0.00000     0.00000    -0.00000
  Local  ************************342557.11692    -0.00000     0.00000    -0.00000
  n-local -2811.60278 -2812.46352 -2832.90970    -0.00001    -0.00000     0.00004
  augment  1047.86171  1047.86171  1038.52887     0.00000    -0.00000    -0.00000
  Kinetic  7301.24449  7303.96677  7344.40581    -0.00001    -0.00001     0.00006
  Fock        0.00000     0.00000     0.00000     0.00000     0.00000     0.00000
  vdW       -11.85825   -11.85825    -7.12304     0.00000    -0.00000    -0.00000
  Total     -31.09472   -31.09472    -2.90901     0.00000     0.00000     0.00000
  in kB     -32.77971   -32.77971    -3.06665     0.00000     0.00000     0.00000

 VOLUME and BASIS-vectors are now :
  energy-cutoff  :      600.00
  volume of cell :     1519.82
      direct lattice vectors                 reciprocal lattice vectors
     8.440984654  0.000000000  0.000000000     0.118469591  0.000000000  0.000000000
     0.000000000  8.440984654  0.000000000     0.000000000  0.118469591  0.000000000
     0.000000000  0.000000000 21.330738491     0.000000000  0.000000000  0.046880702

  length of vectors
     8.440984654  8.440984654 21.330738491     0.118469591  0.118469591  0.046880702

 FORCES acting on ions:
    Electron-Ion                     Ewald-Force                    Non-Local-Force
   -.956E-13 0.761E-01 0.207E+04   -.132E-12 -.754E-01 -.206E+04   -.128E-21 -.535E-03 -.705E+01
   -.761E-01 -.505E-12 0.207E+04   0.754E-01 0.537E-13 -.206E+04   0.535E-03 0.117E-21 -.705E+01
   -.647E-13 0.152E-12 0.684E+03   -.151E-10 0.151E-10 -.684E+03   -.864E-22 0.105E-21 0.492E+00
   -.439E+00 0.439E+00 0.683E+03   0.441E+00 -.441E+00 -.684E+03   -.980E-03 0.980E-03 0.528E+00
   -.664E-13 0.276E+00 -.690E+03   0.162E-11 -.271E+00 0.690E+03   -.182E-21 0.112E-02 -.198E+00
   -.276E+00 -.663E-12 -.690E+03   0.271E+00 -.144E-11 0.690E+03   -.112E-02 -.212E-21 -.198E+00
   -.335E-13 0.498E-12 -.205E+04   0.419E-12 -.348E-12 0.204E+04   0.563E-22 -.399E-22 0.594E+01
   -.136E+01 0.136E+01 -.205E+04   0.121E+01 -.121E+01 0.204E+04   0.130E+00 -.130E+00 0.600E+01
   -.948E-13 -.761E-01 0.207E+04   -.356E-12 0.754E-01 -.206E+04   -.278E-22 0.535E-03 -.705E+01
   -.115E+00 0.128E-12 0.207E+04   0.116E+00 0.131E-10 -.206E+04   -.138E-02 0.211E-21 -.704E+01
   -.537E-13 0.966E-12 0.683E+03   -.166E-10 0.391E-13 -.684E+03   -.107E-21 0.109E-22 0.472E+00
   -.439E+00 -.439E+00 0.683E+03   0.441E+00 0.441E+00 -.684E+03   -.980E-03 -.980E-03 0.528E+00
   -.699E-13 -.276E+00 -.690E+03   0.298E-11 0.271E+00 0.690E+03   0.139E-21 -.112E-02 -.198E+00
   -.164E+01 0.175E-12 -.691E+03   0.172E+01 -.995E-13 0.692E+03   -.821E-01 -.425E-22 -.256E+00
   -.243E-13 0.599E-12 -.205E+04   0.142E-13 -.355E-14 0.204E+04   0.396E-22 -.475E-22 0.591E+01
   -.136E+01 -.136E+01 -.205E+04   0.121E+01 0.121E+01 0.204E+04   0.130E+00 0.130E+00 0.600E+01
   0.702E-12 0.115E+00 0.207E+04   -.128E-10 -.116E+00 -.206E+04   -.494E-22 0.138E-02 -.704E+01
   0.761E-01 -.525E-12 0.207E+04   -.754E-01 0.702E-13 -.206E+04   -.535E-03 -.935E-22 -.705E+01
   0.623E-12 0.943E-13 0.683E+03   0.154E-11 0.150E-10 -.684E+03   0.278E-22 -.121E-21 0.472E+00
   0.439E+00 0.439E+00 0.683E+03   -.441E+00 -.441E+00 -.684E+03   0.980E-03 0.980E-03 0.528E+00
   0.611E-12 0.164E+01 -.691E+03   -.153E-11 -.172E+01 0.692E+03   0.542E-22 0.821E-01 -.256E+00
   0.276E+00 -.586E-12 -.690E+03   -.271E+00 -.153E-11 0.690E+03   0.112E-02 0.951E-23 -.198E+00
   0.724E-12 0.404E-12 -.205E+04   0.853E-13 -.249E-13 0.204E+04   -.160E-22 -.146E-21 0.591E+01
   0.136E+01 0.136E+01 -.205E+04   -.121E+01 -.121E+01 0.204E+04   -.130E+00 -.130E+00 0.600E+01
   0.696E-12 -.115E+00 0.207E+04   -.132E-10 0.116E+00 -.206E+04   0.208E-21 -.138E-02 -.704E+01
   0.115E+00 -.198E-11 0.207E+04   -.116E+00 0.131E-10 -.206E+04   0.138E-02 0.141E-21 -.704E+01
   0.612E-12 0.933E-12 0.681E+03   -.249E-13 0.924E-13 -.682E+03   0.755E-22 -.259E-22 0.620E+00
   0.439E+00 -.439E+00 0.683E+03   -.441E+00 0.441E+00 -.684E+03   0.980E-03 -.980E-03 0.528E+00
   0.612E-12 -.164E+01 -.691E+03   0.000E+00 0.172E+01 0.692E+03   0.212E-22 -.821E-01 -.256E+00
   0.164E+01 -.162E-11 -.691E+03   -.172E+01 -.284E-13 0.692E+03   0.821E-01 0.479E-21 -.256E+00
   0.691E-12 0.139E-11 -.207E+04   0.675E-13 -.711E-14 0.206E+04   0.897E-22 -.207E-22 0.636E+01
   0.136E+01 -.136E+01 -.205E+04   -.121E+01 0.121E+01 0.204E+04   -.130E+00 0.130E+00 0.600E+01
   -.174E-13 0.176E+00 0.512E+03   0.950E-13 -.177E+00 -.512E+03   -.714E-22 0.132E-02 -.957E-01
   -.176E+00 -.347E-12 0.512E+03   0.177E+00 -.444E-14 -.512E+03   -.132E-02 -.210E-21 -.957E-01
   -.284E-13 0.781E-12 0.155E+04   0.854E-11 -.844E-11 -.156E+04   0.665E-22 -.785E-22 0.348E+01
   -.724E-01 0.724E-01 0.155E+04   0.725E-01 -.725E-01 -.156E+04   -.659E-04 0.659E-04 0.349E+01
   -.107E-13 0.424E+00 -.156E+04   -.799E-12 -.450E+00 0.156E+04   0.127E-21 0.129E-01 -.512E+01
   -.424E+00 -.202E-12 -.156E+04   0.450E+00 0.856E-12 0.156E+04   -.129E-01 -.313E-21 -.512E+01
   -.459E-13 -.825E-13 -.512E+03   -.711E-14 0.497E-13 0.511E+03   -.169E-21 0.347E-22 0.226E+00
   -.696E+00 0.696E+00 -.511E+03   0.687E+00 -.687E+00 0.511E+03   0.180E-01 -.180E-01 0.328E+00
   -.197E-13 -.176E+00 0.512E+03   0.924E-13 0.177E+00 -.512E+03   0.330E-21 -.132E-02 -.957E-01
   -.413E+00 0.236E-13 0.511E+03   0.385E+00 -.762E-11 -.511E+03   0.390E-01 -.109E-21 -.109E+00
   -.318E-13 0.125E-11 0.155E+04   0.846E-11 -.867E-12 -.156E+04   -.462E-22 0.371E-21 0.349E+01
   -.724E-01 -.724E-01 0.155E+04   0.725E-01 0.725E-01 -.156E+04   -.659E-04 -.659E-04 0.349E+01
   -.233E-13 -.424E+00 -.156E+04   -.782E-12 0.450E+00 0.156E+04   -.340E-23 -.129E-01 -.512E+01
   -.307E+01 -.202E-12 -.156E+04   0.301E+01 0.818E-11 0.156E+04   0.196E+00 0.612E-22 -.480E+01
   -.328E-13 0.973E-12 -.511E+03   -.742E-11 0.711E-14 0.510E+03   0.388E-22 -.181E-21 0.309E+00
   -.696E+00 -.696E+00 -.511E+03   0.687E+00 0.687E+00 0.511E+03   0.180E-01 0.180E-01 0.328E+00
   0.286E-12 0.413E+00 0.511E+03   0.763E-11 -.385E+00 -.511E+03   0.407E-21 -.390E-01 -.109E+00
   0.176E+00 -.347E-12 0.512E+03   -.177E+00 -.568E-13 -.512E+03   0.132E-02 0.171E-21 -.957E-01
   0.323E-12 -.781E-12 0.155E+04   0.918E-12 -.848E-11 -.156E+04   0.125E-21 0.143E-21 0.349E+01
   0.724E-01 0.724E-01 0.155E+04   -.725E-01 -.725E-01 -.156E+04   0.659E-04 0.659E-04 0.349E+01
   0.305E-12 0.307E+01 -.156E+04   -.815E-11 -.301E+01 0.156E+04   -.932E-22 -.196E+00 -.480E+01
   0.424E+00 -.189E-12 -.156E+04   -.450E+00 0.888E-12 0.156E+04   0.129E-01 -.100E-21 -.512E+01
   0.295E-12 0.239E-12 -.511E+03   -.355E-13 0.743E-11 0.510E+03   -.676E-22 0.224E-21 0.309E+00
   0.696E+00 0.696E+00 -.511E+03   -.687E+00 -.687E+00 0.511E+03   -.180E-01 -.180E-01 0.328E+00
   0.280E-12 -.413E+00 0.511E+03   0.769E-11 0.385E+00 -.511E+03   -.160E-21 0.390E-01 -.109E+00
   0.413E+00 -.208E-11 0.511E+03   -.385E+00 -.770E-11 -.511E+03   -.390E-01 -.137E-21 -.109E+00
   0.319E-12 -.418E-12 0.155E+04   0.876E-12 -.888E-12 -.156E+04   -.237E-22 0.634E-22 0.349E+01
   0.724E-01 -.724E-01 0.155E+04   -.725E-01 0.725E-01 -.156E+04   0.659E-04 -.659E-04 0.349E+01
   0.322E-12 -.307E+01 -.156E+04   -.818E-11 0.301E+01 0.156E+04   0.911E-22 0.196E+00 -.480E+01
   0.307E+01 0.129E-11 -.156E+04   -.301E+01 0.818E-11 0.156E+04   -.196E+00 0.687E-22 -.480E+01
   0.268E-12 -.168E-12 -.520E+03   -.782E-13 0.355E-13 0.520E+03   -.129E-21 0.564E-22 -.122E+00
   0.696E+00 -.696E+00 -.511E+03   -.687E+00 0.687E+00 0.511E+03   -.180E-01 0.180E-01 0.328E+00
   0.205E-10 0.198E-10 0.164E+02   -.165E-12 0.179E-12 0.841E-11   0.416E-16 -.729E-16 -.164E+02

 POSITION                                       TOTAL-FORCE (eV/Angst)
      0.00000      6.33074      7.50000         0.000000      0.000198      0.379573
      2.11025      0.00000      7.50000        -0.000198     -0.000000      0.379573
      0.00000      0.00000      9.61025         0.000000     -0.000000      0.093611
      2.11025      6.33074      9.61025         0.000711     -0.000711      0.092606
      0.00000      6.33023     11.73368         0.000000      0.005984     -0.012210
      2.11076      0.00000     11.73368        -0.005984     -0.000000     -0.012210
      0.00000      0.00000     13.83822         0.000000     -0.000000     -0.029504
      2.10905      6.33193     13.83447        -0.023344      0.023344     -0.017883
      0.00000      2.11025      7.50000         0.000000     -0.000198      0.379573
      2.11025      4.22049      7.50000         0.000324     -0.000000      0.379218
      0.00000      4.22049      9.61025         0.000000     -0.000000      0.098077
      2.11025      2.11025      9.61025         0.000711      0.000711      0.092606
      0.00000      2.11076     11.73368         0.000000     -0.005984     -0.012210
      2.11344      4.22049     11.73659        -0.006807     -0.000000     -0.022837
      0.00000      4.22049     13.83544         0.000000     -0.000000     -0.012929
      2.10905      2.10905     13.83447        -0.023344     -0.023344     -0.017883
      4.22049      6.33074      7.50000         0.000000     -0.000324      0.379218
      6.33074      0.00000      7.50000         0.000198     -0.000000      0.379573
      4.22049      0.00000      9.61025         0.000000     -0.000000      0.098077
      6.33074      6.33074      9.61025        -0.000711     -0.000711      0.092606
      4.22049      6.32754     11.73659         0.000000      0.006807     -0.022837
      6.33023      0.00000     11.73368         0.005984     -0.000000     -0.012210
      4.22049      0.00000     13.83544         0.000000     -0.000000     -0.012929
      6.33193      6.33193     13.83447         0.023344      0.023344     -0.017883
      4.22049      2.11025      7.50000         0.000000      0.000324      0.379218
      6.33074      4.22049      7.50000        -0.000324     -0.000000      0.379218
      4.22049      4.22049      9.61025         0.000000     -0.000000      0.101833
      6.33074      2.11025      9.61025        -0.000711      0.000711      0.092606
      4.22049      2.11344     11.73659         0.000000     -0.006807     -0.022837
      6.32754      4.22049     11.73659         0.006807     -0.000000     -0.022837
      4.22049      4.22049     13.87814         0.000000     -0.000000     -0.306305
      6.33193      2.10905     13.83447         0.023344     -0.023344     -0.017883
      0.00000      6.33074      9.61025         0.000000      0.000515      0.071560
      2.11025      0.00000      9.61025        -0.000515     -0.000000      0.071560
      0.00000      0.00000      7.50000         0.000000     -0.000000     -0.517582
      2.11025      6.33074      7.50000        -0.000021      0.000021     -0.517155
      0.00000      6.33258     13.88587         0.000000     -0.013144     -0.006264
      2.10840      0.00000     13.88587         0.013144     -0.000000     -0.006264
      0.00000      0.00000     11.72785         0.000000     -0.000000     -0.000737
      2.10979      6.33120     11.72890         0.008299     -0.008299     -0.001506
      0.00000      2.11025      9.61025         0.000000     -0.000515      0.071560
      2.11025      4.22049      9.61025         0.010267     -0.000000      0.082461
      0.00000      4.22049      7.50000         0.000000     -0.000000     -0.517158
      2.11025      2.11025      7.50000        -0.000021     -0.000021     -0.517155
      0.00000      2.10840     13.88587         0.000000      0.013144     -0.006264
      2.10031      4.22049     13.88381         0.137321     -0.000000      0.072510
      0.00000      4.22049     11.72684         0.000000     -0.000000      0.013379
      2.10979      2.10979     11.72890         0.008299      0.008299     -0.001506
      4.22049      6.33074      9.61025         0.000000     -0.010267      0.082461
      6.33074      0.00000      9.61025         0.000515     -0.000000      0.071560
      4.22049      0.00000      7.50000         0.000000     -0.000000     -0.517158
      6.33074      6.33074      7.50000         0.000021      0.000021     -0.517155
      4.22049      6.34068     13.88381         0.000000     -0.137321      0.072510
      6.33258      0.00000     13.88587        -0.013144     -0.000000     -0.006264
      4.22049      0.00000     11.72684         0.000000     -0.000000      0.013379
      6.33120      6.33120     11.72890        -0.008299     -0.008299     -0.001506
      4.22049      2.11025      9.61025         0.000000      0.010267      0.082461
      6.33074      4.22049      9.61025        -0.010267     -0.000000      0.082461
      4.22049      4.22049      7.50000         0.000000     -0.000000     -0.517478
      6.33074      2.11025      7.50000         0.000021     -0.000021     -0.517155
      4.22049      2.10031     13.88381         0.000000      0.137321      0.072510
      6.34068      4.22049     13.88381        -0.137321     -0.000000      0.072510
      4.22049      4.22049     11.73684         0.000000     -0.000000      0.013126
      6.33120      2.10979     11.72890        -0.008299      0.008299     -0.001506
    total drift:                                0.000000      0.000000      0.006965

  FREE ENERGIE OF THE ION-ELECTRON SYSTEM (eV)
  free  energy   TOTEN  =      -381.39393760 eV

  energy  without entropy=     -381.39393760  energy(sigma->0) =     -381.39393760