 vasp.6.3.0 20Jan22 (build Apr  1 2022 16:44:48) complex
 executed on        HPECrayEX_GCC date 2023.02.28  19:32:26

 INCAR:
   SYSTEM = MgO-rocksalt
   ISMEAR = 0
   SIGMA = 0.05
   EDIFF = 1E-7
   ALGO = ALL
   ISTART = 0
   IBRION = 2
   NSW = 1000
   ISYM = 0
   ISIF = 2
   EDIFFG = -0.02
   DIPOL = 0.5 0.5 0.5
   IDIPOL = 3
   LDIPOL = .TRUE.
   LHFCALC = .TRUE.
   GGA = B5
   AEXX = 0.2
   AGGAX = 0.72
   AGGAC = 0.81
   ALDAC = 0.19
   IVDW = 1
   VDW_S6 = 1.05
   VDW_C6 = 1.23 0.70 0.63 0.70
   VDW_R0 = 1.397 1.342 1.243 1.342
   ENCUT = 600
   PREC = Accurate
   LASPH = .TRUE.
   LREAL = .FALSE.
   ISPIN = 1
   NELM = 200
   NELMIN = 8
   NCORE = 8
   KPAR = 1
   LWAVE = .FALSE.
   LCHARG = .FALSE.

 POTCAR:    PAW_PBE N 08Apr2002
 POTCAR:    PAW_PBE O 08Apr2002
 POTCAR:    PAW_PBE Mg_pv 13Apr2007
 POTCAR:    PAW_PBE O 08Apr2002
 POTCAR:    PAW_PBE N 08Apr2002
   VRHFIN =N: s2p3

   TITEL  = PAW_PBE N 08Apr2002
   POMASS =   14.001; ZVAL   =    5.000    mass and valenz
   ENMAX  =  400.000; ENMIN  =  300.000 eV

[...]

   TITEL  = PAW_PBE Mg_pv 13Apr2007
   POMASS =   24.305; ZVAL   =    8.000    mass and valenz
   ENMAX  =  403.929; ENMIN  =  302.947 eV

   TITEL  = PAW_PBE O 08Apr2002
   POMASS =   16.000; ZVAL   =    6.000    mass and valenz
   ENMAX  =  400.000; ENMIN  =  300.000 eV

  PAW_PBE N 08Apr2002                   :
  PAW_PBE O 08Apr2002                   :
  PAW_PBE Mg_pv 13Apr2007               :
  PAW_PBE O 08Apr2002                   :

 POSCAR:  N  O Mg  O
  positions in direct lattice
  velocities in cartesian coordinates
 exchange correlation table for  LEXCH =       12
   RHO(1)=    0.500       N(1)  =     2000
   RHO(2)=  100.500       N(2)  =     4000

 ion  position               nearest neighbor table
   1  0.529  0.548  0.791-   2 1.12
   2  0.625  0.638  0.781-   1 1.12   3 1.19
   3  0.727  0.734  0.771-   2 1.19
   4  0.250  0.000  0.352-  38 2.10  39 2.10  46 2.10  55 2.10  36 2.10
   5  0.500  0.250  0.352-  38 2.10  39 2.10  47 2.10  54 2.10  37 2.10
   6  0.250  0.250  0.451-  36 2.10  37 2.10  44 2.10  53 2.10  38 2.10  42 2.10
   7  0.500  0.000  0.451-  36 2.10  37 2.10  45 2.10  52 2.10  39 2.10  43 2.11
   8  0.250  1.000  0.550-  59 2.10  50 2.10  43 2.10  42 2.10  36 2.11  40 2.13
   9  0.500  0.250  0.550-  58 2.10  43 2.10  42 2.10  51 2.10  37 2.11  41 2.13
  10  0.250  0.250  0.648-  42 2.09  57 2.10  40 2.10  48 2.10  41 2.10
  11  0.500  0.000  0.648-  43 2.09  41 2.10  40 2.10  56 2.10  49 2.11
  12  0.250  0.500  0.352-  38 2.10  46 2.10  47 2.10  63 2.10  44 2.10
  13  0.500  0.750  0.352-  39 2.10  46 2.10  47 2.10  62 2.10  45 2.10
  14  0.250  0.750  0.451-  36 2.10  44 2.10  45 2.10  61 2.10  46 2.10  50 2.11
  15  0.500  0.500  0.451-  37 2.10  44 2.10  45 2.10  60 2.10  47 2.10  51 2.11
  16  0.250  0.500  0.550-  50 2.10  67 2.10  42 2.10  51 2.10  44 2.11  48 2.13
  17  0.500  0.750  0.550-  66 2.10  43 2.10  51 2.10  50 2.10  45 2.12  49 2.14
  18  0.250  0.750  0.648-  50 2.09  65 2.09  49 2.10  40 2.10  48 2.10
  19  0.499  0.499  0.647-  51 2.08  48 2.09  41 2.09  64 2.11  49 2.11
  20  0.750  0.000  0.352-  39 2.10  54 2.10  55 2.10  62 2.10  52 2.10
  21  0.000  0.250  0.352-  38 2.10  54 2.10  55 2.10  63 2.10  53 2.10
  22  0.750  0.250  0.451-  37 2.10  52 2.10  53 2.10  60 2.10  54 2.10  58 2.11
  23  0.000  0.000  0.451-  36 2.10  52 2.10  53 2.10  61 2.10  55 2.10  59 2.11
  24  0.750  1.000  0.550-  66 2.10  59 2.10  43 2.10  58 2.10  52 2.11  56 2.12
  25  1.000  0.250  0.550-  59 2.10  58 2.10  67 2.10  42 2.10  53 2.11  57 2.13
  26  0.750  0.250  0.648-  58 2.09  56 2.09  64 2.10  57 2.10  41 2.10
  27  0.000  0.000  0.648-  59 2.09  57 2.10  40 2.10  56 2.10  65 2.10
  28  0.750  0.500  0.352-  47 2.10  54 2.10  62 2.10  63 2.10  60 2.10
  29  0.000  0.750  0.352-  46 2.10  55 2.10  62 2.10  63 2.10  61 2.10
  30  0.750  0.750  0.451-  45 2.10  52 2.10  60 2.10  61 2.10  62 2.10  66 2.11
  31  0.000  0.500  0.451-  44 2.10  53 2.10  60 2.10  61 2.10  63 2.10  67 2.11
  32  0.750  0.500  0.550-  66 2.10  67 2.10  51 2.10  58 2.10  60 2.12  64 2.14
  33  1.000  0.750  0.550-  66 2.10  59 2.10  67 2.10  50 2.10  61 2.11  65 2.12
  34  0.751  0.751  0.649-  65 2.10  56 2.10  64 2.11  49 2.11  66 2.11
  35  0.000  0.500  0.648-  67 2.09  48 2.10  57 2.10  65 2.10  64 2.11
  36  0.250  0.000  0.451-   6 2.10   7 2.10  14 2.10  23 2.10   4 2.10   8 2.11
  37  0.500  0.250  0.451-   6 2.10   7 2.10  15 2.10  22 2.10   5 2.10   9 2.11
  38  0.250  0.250  0.352-   4 2.10   5 2.10  12 2.10  21 2.10   6 2.10
  39  0.500  0.000  0.352-   4 2.10   5 2.10  13 2.10  20 2.10   7 2.10
  40  0.250  0.000  0.650-  10 2.10  27 2.10  11 2.10  18 2.10   8 2.13
  41  0.500  0.250  0.650-  19 2.09  11 2.10  10 2.10  26 2.10   9 2.13
  42  0.250  0.250  0.549-  10 2.09   8 2.10  25 2.10   9 2.10  16 2.10   6 2.10
  43  0.500  1.000  0.550-  11 2.09  17 2.10   9 2.10   8 2.10  24 2.10   7 2.11
  44  0.250  0.500  0.451-   6 2.10  14 2.10  15 2.10  31 2.10  12 2.10  16 2.11
  45  0.500  0.750  0.451-   7 2.10  14 2.10  15 2.10  30 2.10  13 2.10  17 2.12
  46  0.250  0.750  0.352-   4 2.10  12 2.10  13 2.10  29 2.10  14 2.10
  47  0.500  0.500  0.352-   5 2.10  12 2.10  13 2.10  28 2.10  15 2.10
  48  0.250  0.500  0.650-  19 2.09  35 2.10  10 2.10  18 2.10  16 2.13
  49  0.500  0.750  0.650-  18 2.10  11 2.11  19 2.11  34 2.11  17 2.14
  50  0.250  0.750  0.550-  18 2.09  16 2.10   8 2.10  17 2.10  33 2.10  14 2.11
  51  0.500  0.500  0.550-  19 2.08  32 2.10  17 2.10   9 2.10  16 2.10  15 2.11
  52  0.750  0.000  0.451-   7 2.10  22 2.10  23 2.10  30 2.10  20 2.10  24 2.11
  53  0.000  0.250  0.451-   6 2.10  22 2.10  23 2.10  31 2.10  21 2.10  25 2.11
  54  0.750  0.250  0.352-   5 2.10  20 2.10  21 2.10  28 2.10  22 2.10
  55  0.000  0.000  0.352-   4 2.10  20 2.10  21 2.10  29 2.10  23 2.10
  56  0.750  0.001  0.650-  26 2.09  34 2.10  27 2.10  11 2.10  24 2.12
  57  1.000  0.250  0.650-  10 2.10  27 2.10  35 2.10  26 2.10  25 2.13
  58  0.750  0.250  0.550-  26 2.09   9 2.10  25 2.10  32 2.10  24 2.10  22 2.11
  59  0.000  0.000  0.550-  27 2.09   8 2.10  25 2.10  24 2.10  33 2.10  23 2.11
  60  0.750  0.500  0.451-  15 2.10  22 2.10  30 2.10  31 2.10  28 2.10  32 2.12
  61  0.000  0.750  0.451-  14 2.10  23 2.10  30 2.10  31 2.10  29 2.10  33 2.11
  62  0.750  0.750  0.352-  13 2.10  20 2.10  28 2.10  29 2.10  30 2.10
  63  0.000  0.500  0.352-  12 2.10  21 2.10  28 2.10  29 2.10  31 2.10
  64  0.749  0.500  0.651-  26 2.10  19 2.11  35 2.11  34 2.11  32 2.14
  65  0.001  0.750  0.650-  18 2.09  34 2.10  35 2.10  27 2.10  33 2.12
  66  0.750  0.750  0.550-  32 2.10  17 2.10  33 2.10  24 2.10  30 2.11  34 2.11
  67  1.000  0.500  0.550-  35 2.09  32 2.10  16 2.10  25 2.10  33 2.10  31 2.11

IMPORTANT INFORMATION: All symmetrisations will be switched off!
NOSYMM: (Re-)initialisation of all symmetry stuff for point group C_1.

                                     Primitive cell

  volume of cell :    1504.9259

  direct lattice vectors                    reciprocal lattice vectors
     8.404861995  0.000000000  0.000000000     0.118978753  0.000000000  0.000000000
     0.000000000  8.404861995  0.000000000     0.000000000  0.118978753  0.000000000
     0.000000000  0.000000000 21.303646496     0.000000000  0.000000000  0.046940321

  length of vectors
     8.404861995  8.404861995 21.303646496     0.118978753  0.118978753  0.046940321

  position of ions in fractional coordinates (direct lattice)
     0.529093514  0.548309264  0.791014185
     0.625134856  0.638263493  0.781488417
     0.727048660  0.733698677  0.770986466
     0.250000000  0.000000000  0.352052406
     0.500000000  0.250000000  0.352052406
     0.250000000  0.250000000  0.450684135
     0.500000000  0.000000000  0.450684135
     0.249912664  0.999941727  0.549796742
     0.500013028  0.249797366  0.549720819
     0.249795479  0.249908725  0.647693712
     0.499981660  0.000181952  0.647652998
     0.250000000  0.500000000  0.352052406
     0.500000000  0.750000000  0.352052406
     0.250000000  0.750000000  0.450684135
     0.500000000  0.500000000  0.450684135
     0.249715435  0.500063127  0.549729359
     0.500328074  0.749973806  0.550046204
     0.249660808  0.749966460  0.647606263
     0.498726886  0.498829303  0.647266521
     0.750000000  0.000000000  0.352052406
     0.000000000  0.250000000  0.352052406
     0.750000000  0.250000000  0.450684135
     0.000000000  0.000000000  0.450684135
     0.750000214  0.999793879  0.549928508
     0.999880502  0.249986549  0.549804027
     0.749891540  0.249793470  0.647627581
     0.000034071  0.000142345  0.647745168
     0.750000000  0.500000000  0.352052406
     0.000000000  0.750000000  0.352052406
     0.750000000  0.750000000  0.450684135
     0.000000000  0.500000000  0.450684135
     0.749912601  0.500387994  0.550049671
     0.999724546  0.750043219  0.549928688
     0.751056707  0.751130096  0.649143221
     0.000035898  0.500066489  0.647721748
     0.250000000  0.000000000  0.450684135
     0.500000000  0.250000000  0.450684135
     0.250000000  0.250000000  0.352052406
     0.500000000  0.000000000  0.352052406
     0.249985497  0.000056359  0.649816599
     0.499735730  0.249778558  0.649594626
     0.249939380  0.249988773  0.549490585
     0.499929016  0.999823060  0.549577104
     0.250000000  0.500000000  0.450684135
     0.500000000  0.750000000  0.450684135
     0.250000000  0.750000000  0.352052406
     0.500000000  0.500000000  0.352052406
     0.249677458  0.499834943  0.649557484
     0.499534220  0.749565785  0.650477245
     0.250131397  0.749988862  0.549532277
     0.499940455  0.499996479  0.549582350
     0.750000000  0.000000000  0.450684135
     0.000000000  0.250000000  0.450684135
     0.750000000  0.250000000  0.352052406
     0.000000000  0.000000000  0.352052406
     0.750006116  0.000716474  0.649516648
     0.999966994  0.250078749  0.649815514
     0.749929603  0.250210719  0.549537309
     0.000016016  0.000063951  0.549513527
     0.750000000  0.500000000  0.450684135
     0.000000000  0.750000000  0.450684135
     0.750000000  0.750000000  0.352052406
     0.000000000  0.500000000  0.352052406
     0.749361014  0.499681887  0.650502786
     0.000587637  0.750099476  0.649551653
     0.749881965  0.749932006  0.549874752
     0.999740519  0.499989896  0.549590405

  ion indices of the primitive-cell ions
   primitive index   ion index
                 1           1
                 2           2
                 3           3
                 4           4
                 5           5
                 6           6
                 7           7
                 8           8
                 9           9
                10          10
                11          11
                12          12
                13          13
                14          14
                15          15
                16          16
                17          17
                18          18
                19          19
                20          20
                21          21
                22          22
                23          23
                24          24
[...]
   4.19173065  4.19259145 13.78913715
   6.30364650  0.00000000  7.50000000
   0.00000000  2.10121550  7.50000000
   6.30364650  2.10121550  9.60121550
   0.00000000  0.00000000  9.60121550
   6.30364830  8.40312958 11.71548253
   8.40385763  2.10110244 11.71283064
   6.30273491  2.09947964 13.79682904
   0.00028636  0.00119639 13.79933407
   6.30364650  4.20243100  7.50000000
   0.00000000  6.30364650  7.50000000
   6.30364650  6.30364650  9.60121550
   0.00000000  4.20243100  9.60121550
   6.30291192  4.20569203 11.71806374
   8.40254684  6.30400975 11.71548636
   6.31252797  6.31314480 13.82911771
   0.00030172  4.20298983 13.79883515
   2.10121550  0.00000000  9.60121550
   4.20243100  2.10121550  9.60121550
   2.10121550  2.10121550  7.50000000
   4.20243100  0.00000000  7.50000000
   2.10109360  0.00047369 13.84346312
   4.20020985  2.09935431 13.83873428
   2.10070600  2.10112113 11.70615317
   4.20183439  8.40337484 11.70799634
   2.10121550  4.20243100  9.60121550
   4.20243100  6.30364650  9.60121550
   2.10121550  6.30364650  7.50000000
   4.20243100  4.20243100  7.50000000
   2.09850458  4.20104371 13.83794302
   4.19851618  6.29999698 13.85753727
   2.10231987  6.30355289 11.70704138
   4.20193053  4.20240141 11.70810811
   6.30364650  0.00000000  9.60121550
   0.00000000  2.10121550  9.60121550
   6.30364650  2.10121550  7.50000000
   0.00000000  0.00000000  7.50000000
   6.30369790  0.00602186 13.83707306
   8.40458458  2.10187738 13.84344001
   6.30305482  2.10298656 11.70714857
   0.00013462  0.00053750 11.70664192
   6.30364650  4.20243100  9.60121550
   0.00000000  6.30364650  9.60121550
   6.30364650  6.30364650  7.50000000
   0.00000000  4.20243100  7.50000000
   6.29827590  4.19975730 13.85808139
   0.00493901  6.30448258 13.83781880
   6.30265443  6.30307501 11.71433733
   8.40268109  4.20234608 11.70827971

--------------------------------------- Iteration      FINAL  ---------------------------------------

--------------------OUTCAR has been truncated-------------------------

[...]

--------------------OUTCAR has been truncated-------------------------

  Number of pair interactions contributing to vdW energy:  799897
  Edisp (eV):   -5.34013

  FORCE on cell =-STRESS in cart. coord.  units (eV):
  Direction    XX          YY          ZZ          XY          YZ          ZX
  Alpha Z   935.91873   935.91873   935.91873
  Ewald  159539.01837159482.86608************   402.93130  -107.36809  -115.81972
  Hartree169994.09684169967.15835************   177.92275   -48.87162   -52.31260
  E(xc)   -2060.30147 -2060.46199 -2064.71324     1.23169    -0.31573    -0.33464
  Local  ************************338903.70473  -538.53835   145.47557   156.44307
  n-local -1212.17609 -1211.81499 -1231.79070    -2.74532     0.68689     0.69696
  augment   904.07118   904.26105   895.19764    -1.46829     0.38569     0.41981
  Kinetic  7651.05499  7655.98111  7724.01939   -37.92215     9.74051    10.73362
  Fock    -2017.58530 -2017.42605 -2013.13487    -1.21671     0.30722     0.32666
  vdW        -7.71507    -7.71752    -6.64132     0.01503    -0.00985    -0.01025
  Total     -30.76470   -30.74324    -2.62012     0.20996     0.03059     0.14292
  in kB     -32.75277   -32.72993    -2.78944     0.22352     0.03257     0.15215

 VOLUME and BASIS-vectors are now :
  energy-cutoff  :      600.00
  volume of cell :     1504.93
      direct lattice vectors                 reciprocal lattice vectors
     8.404861995  0.000000000  0.000000000     0.118978753  0.000000000  0.000000000
     0.000000000  8.404861995  0.000000000     0.000000000  0.118978753  0.000000000
     0.000000000  0.000000000 21.303646496     0.000000000  0.000000000  0.046940321

  length of vectors
     8.404861995  8.404861995 21.303646496     0.118978753  0.118978753  0.046940321

 FORCES acting on ions:
    Electron-Ion                     Ewald-Force                    Non-Local-Force
   0.216E+03 0.203E+03 -.126E+04   -.255E+03 -.239E+03 0.127E+04   0.354E+02 0.332E+02 -.893E+01
   0.141E+02 0.132E+02 -.126E+04   -.126E+02 -.118E+02 0.126E+04   -.133E+01 -.127E+01 0.429E+00
   -.217E+03 -.204E+03 -.152E+04   0.266E+03 0.249E+03 0.151E+04   -.426E+02 -.399E+02 0.961E+01
   0.177E+00 -.172E+00 0.211E+04   -.177E+00 0.170E+00 -.211E+04   -.661E-04 0.123E-02 -.641E+01
   0.152E+00 0.182E+00 0.211E+04   -.150E+00 -.182E+00 -.211E+04   -.109E-02 0.305E-03 -.640E+01
   0.814E+00 0.730E+00 0.747E+03   -.831E+00 -.745E+00 -.747E+03   0.111E-01 0.986E-02 0.384E+00
   0.698E+00 -.805E+00 0.748E+03   -.699E+00 0.758E+00 -.748E+03   0.118E-02 0.296E-01 0.419E+00
   0.302E+01 -.410E+01 -.617E+03   -.304E+01 0.408E+01 0.617E+03   0.148E-01 0.130E-01 -.180E+00
   0.376E+01 0.469E+01 -.609E+03   -.375E+01 -.472E+01 0.609E+03   -.130E-01 0.310E-01 -.246E+00
   0.138E+02 0.134E+02 -.199E+04   -.138E+02 -.135E+02 0.199E+04   0.195E-01 0.135E-01 0.551E+01
   0.219E+02 -.287E+02 -.197E+04   -.219E+02 0.289E+02 0.196E+04   0.822E-02 -.161E+00 0.554E+01
   0.204E+00 0.173E+00 0.211E+04   -.204E+00 -.171E+00 -.211E+04   0.479E-03 -.117E-02 -.640E+01
   0.174E+00 -.184E+00 0.211E+04   -.170E+00 0.184E+00 -.211E+04   -.208E-02 0.158E-03 -.642E+01
   0.847E+00 -.744E+00 0.748E+03   -.819E+00 0.758E+00 -.748E+03   -.182E-01 -.882E-02 0.385E+00
   0.717E+00 0.819E+00 0.750E+03   -.687E+00 -.786E+00 -.750E+03   -.201E-01 -.215E-01 0.425E+00
   0.508E+01 0.418E+01 -.609E+03   -.512E+01 -.417E+01 0.609E+03   0.337E-01 -.118E-01 -.268E+00
   0.644E+01 -.492E+01 -.602E+03   -.635E+01 0.495E+01 0.602E+03   -.830E-01 -.228E-01 -.938E-01
   0.216E+02 -.149E+02 -.197E+04   -.217E+02 0.149E+02 0.196E+04   0.129E+00 -.775E-02 0.551E+01
   0.318E+02 0.359E+02 -.190E+04   -.320E+02 -.362E+02 0.189E+04   0.230E+00 0.250E+00 0.560E+01
   -.177E+00 -.193E+00 0.211E+04   0.177E+00 0.190E+00 -.211E+04   0.106E-03 0.180E-02 -.641E+01
   -.152E+00 0.155E+00 0.211E+04   0.150E+00 -.155E+00 -.211E+04   0.131E-02 -.208E-03 -.641E+01
   -.838E+00 0.750E+00 0.748E+03   0.849E+00 -.718E+00 -.748E+03   -.730E-02 -.206E-01 0.386E+00
   -.695E+00 -.770E+00 0.747E+03   0.694E+00 0.772E+00 -.747E+03   -.503E-03 -.157E-02 0.392E+00
   -.312E+01 -.668E+01 -.607E+03   0.314E+01 0.660E+01 0.608E+03   -.150E-01 0.743E-01 -.419E+00
   -.370E+01 0.266E+01 -.618E+03   0.368E+01 -.267E+01 0.618E+03   0.147E-01 0.944E-02 -.186E+00
   -.149E+02 0.184E+02 -.197E+04   0.149E+02 -.186E+02 0.197E+04   -.136E-01 0.132E+00 0.551E+01
   -.204E+02 -.209E+02 -.199E+04   0.204E+02 0.209E+02 0.198E+04   -.797E-02 -.132E-01 0.553E+01
   -.207E+00 0.195E+00 0.211E+04   0.206E+00 -.191E+00 -.211E+04   0.217E-03 -.218E-02 -.642E+01
   -.172E+00 -.155E+00 0.211E+04   0.169E+00 0.155E+00 -.211E+04   0.190E-02 0.822E-04 -.641E+01
   -.873E+00 -.763E+00 0.749E+03   0.850E+00 0.742E+00 -.750E+03   0.154E-01 0.144E-01 0.483E+00
   -.715E+00 0.783E+00 0.748E+03   0.665E+00 -.781E+00 -.748E+03   0.321E-01 -.514E-03 0.423E+00
   -.531E+01 0.685E+01 -.603E+03   0.534E+01 -.676E+01 0.603E+03   -.245E-01 -.816E-01 -.883E-01
   -.628E+01 -.275E+01 -.607E+03   0.619E+01 0.276E+01 0.608E+03   0.761E-01 -.101E-01 -.403E+00
   -.310E+02 -.269E+02 -.187E+04   0.313E+02 0.272E+02 0.187E+04   -.280E+00 -.260E+00 0.510E+01
   -.254E+02 0.222E+02 -.197E+04   0.256E+02 -.222E+02 0.197E+04   -.165E+00 0.116E-01 0.553E+01
   0.500E+00 -.556E+00 0.559E+03   -.500E+00 0.553E+00 -.559E+03   0.673E-03 0.360E-02 -.851E-01
   0.488E+00 0.595E+00 0.561E+03   -.481E+00 -.584E+00 -.561E+03   -.871E-02 -.130E-01 -.541E-01
   0.144E+00 0.128E+00 0.159E+04   -.145E+00 -.129E+00 -.159E+04   0.195E-02 0.204E-02 0.312E+01
   0.121E+00 -.136E+00 0.159E+04   -.121E+00 0.131E+00 -.159E+04   -.713E-03 0.534E-02 0.312E+01
   0.863E+01 -.111E+02 -.152E+04   -.862E+01 0.110E+02 0.152E+04   -.161E-01 0.369E-01 -.455E+01
   0.107E+02 0.194E+02 -.150E+04   -.106E+02 -.195E+02 0.150E+04   -.384E-01 0.591E-01 -.461E+01
   0.282E+01 0.266E+01 -.457E+03   -.282E+01 -.266E+01 0.457E+03   -.698E-02 -.747E-02 0.257E+00
   0.359E+01 -.400E+01 -.451E+03   -.358E+01 0.401E+01 0.451E+03   -.568E-02 -.293E-02 0.331E+00
   0.659E+00 0.559E+00 0.561E+03   -.643E+00 -.554E+00 -.561E+03   -.187E-01 -.584E-02 -.547E-01
   0.662E+00 -.634E+00 0.561E+03   -.682E+00 0.638E+00 -.561E+03   0.241E-01 -.588E-02 -.133E+00
   0.144E+00 -.128E+00 0.159E+04   -.142E+00 0.130E+00 -.159E+04   -.270E-02 -.207E-02 0.312E+01
   0.121E+00 0.138E+00 0.159E+04   -.117E+00 -.133E+00 -.159E+04   -.619E-02 -.599E-02 0.312E+01
   0.209E+02 0.122E+02 -.150E+04   -.210E+02 -.121E+02 0.150E+04   0.618E-01 -.388E-01 -.462E+01
   0.360E+02 -.253E+02 -.145E+04   -.358E+02 0.253E+02 0.145E+04   -.137E+00 0.623E-02 -.432E+01
   0.317E+01 -.275E+01 -.451E+03   -.317E+01 0.275E+01 0.451E+03   0.449E-02 0.212E-02 0.326E+00
   0.375E+01 0.418E+01 -.442E+03   -.376E+01 -.419E+01 0.442E+03   0.936E-02 0.530E-02 0.451E+00
   -.509E+00 -.703E+00 0.560E+03   0.511E+00 0.714E+00 -.560E+03   -.244E-02 -.129E-01 -.919E-01
   -.495E+00 0.436E+00 0.559E+03   0.495E+00 -.440E+00 -.559E+03   -.401E-04 0.518E-02 -.852E-01
   -.144E+00 0.126E+00 0.159E+04   0.146E+00 -.124E+00 -.159E+04   -.217E-02 -.272E-02 0.312E+01
   -.121E+00 -.136E+00 0.159E+04   0.120E+00 0.135E+00 -.159E+04   0.651E-03 0.812E-03 0.312E+01
   -.987E+01 -.309E+02 -.149E+04   0.986E+01 0.309E+02 0.149E+04   0.169E-01 0.457E-01 -.461E+01
   -.982E+01 0.756E+01 -.152E+04   0.978E+01 -.754E+01 0.152E+04   0.366E-01 -.146E-01 -.454E+01
   -.290E+01 0.275E+01 -.452E+03   0.290E+01 -.276E+01 0.452E+03   0.208E-02 0.837E-02 0.322E+00
   -.350E+01 -.368E+01 -.456E+03   0.349E+01 0.367E+01 0.455E+03   0.936E-02 0.781E-02 0.283E+00
   -.711E+00 0.734E+00 0.561E+03   0.718E+00 -.757E+00 -.561E+03   -.938E-02 0.277E-01 -.135E+00
   -.642E+00 -.435E+00 0.560E+03   0.657E+00 0.435E+00 -.560E+03   -.173E-01 -.449E-03 -.924E-01
   -.145E+00 -.128E+00 0.159E+04   0.143E+00 0.125E+00 -.159E+04   0.299E-02 0.325E-02 0.311E+01
   -.119E+00 0.136E+00 0.159E+04   0.115E+00 -.136E+00 -.159E+04   0.527E-02 -.690E-03 0.312E+01
   -.260E+02 0.369E+02 -.145E+04   0.260E+02 -.368E+02 0.146E+04   -.391E-02 -.140E+00 -.435E+01
   -.293E+02 -.859E+01 -.149E+04   0.293E+02 0.858E+01 0.149E+04   0.389E-01 0.139E-01 -.460E+01
   -.334E+01 -.292E+01 -.446E+03   0.335E+01 0.293E+01 0.446E+03   -.847E-02 -.130E-01 0.116E-01
   -.356E+01 0.376E+01 -.452E+03   0.357E+01 -.375E+01 0.452E+03   -.561E-02 -.531E-02 0.318E+00
   0.112E+02 0.106E+02 0.163E+02   -.142E-12 -.369E-12 -.364E-11   -.859E+01 -.812E+01 -.146E+02

 POSITION                                       TOTAL-FORCE (eV/Angst)
      4.44775      4.60832     16.85162         0.014415      0.004088      0.001671
      5.25485      5.36470     16.64861         0.001745     -0.003158     -0.001853
      6.11126      6.16712     16.42411         0.006544      0.006149     -0.005957
      2.10122      0.00000      7.50000         0.000061     -0.000515      0.405810
      4.20243      2.10122      7.50000         0.000526     -0.000022      0.403269
      2.10122      2.10122      9.60122        -0.004566     -0.003872      0.030826
      4.20243      0.00000      9.60122         0.000253     -0.013331      0.034998
      2.10047      8.40427     11.71247         0.002701     -0.000292     -0.000378
      4.20225      2.09925     11.71130        -0.000692      0.001516     -0.001379
      2.09934      2.10033     13.79870        -0.001656     -0.001961      0.000871
      4.20251      0.00163     13.79721        -0.001695     -0.003498     -0.001580
      2.10122      4.20243      7.50000        -0.000034      0.000519      0.403262
      4.20243      6.30365      7.50000         0.000788     -0.000111      0.408282
      2.10122      6.30365      9.60122         0.007764      0.003475      0.041742
      4.20243      4.20243      9.60122         0.007507      0.008396      0.036734
      2.09853      4.20267     11.71146         0.001987     -0.000669     -0.001575
      4.20526      6.30360     11.71777         0.000238     -0.002800      0.001181
      2.09799      6.30322     13.79638         0.004290      0.000286     -0.001106
      4.19142      4.19229     13.78918         0.002345      0.002392     -0.003380
      6.30365      0.00000      7.50000        -0.000026     -0.000704      0.404924
      0.00000      2.10122      7.50000        -0.000500      0.000064      0.405750
      6.30365      2.10122      9.60122         0.002826      0.008836      0.041724
      0.00000      0.00000      9.60122        -0.000552      0.000049      0.034438
      6.30405      8.40307     11.71557        -0.002148      0.000106     -0.002414
      8.40376      2.10112     11.71263        -0.000277      0.002227     -0.000480
      6.30262      2.09914     13.79683        -0.000091      0.004034     -0.001130
      0.00024      0.00114     13.79884         0.002675      0.002644     -0.000697
      6.30365      4.20243      7.50000        -0.000095      0.000791      0.408334
      0.00000      6.30365      7.50000        -0.000696     -0.000053      0.404940
      6.30365      6.30365      9.60122        -0.005515     -0.004867      0.047991
      0.00000      4.20243      9.60122        -0.014462      0.001003      0.035254
      6.30311      4.20577     11.71783        -0.003347      0.000242      0.001043
      8.40249      6.30434     11.71560         0.000092     -0.001787     -0.002475
      6.31296      6.31355     13.82936        -0.003919     -0.003564      0.000703
      0.00040      4.20321     13.79861        -0.003595     -0.001771     -0.001377
      2.10122      0.00000      9.60122         0.000828      0.001118      0.045639
      4.20243      2.10122      9.60122        -0.002610     -0.003357      0.051209
      2.10122      2.10122      7.50000         0.000683      0.000684     -0.493299
      4.20243      0.00000      7.50000        -0.000208      0.001793     -0.494346
      2.10141      0.00043     13.84354        -0.001283     -0.000696      0.000696
      4.20002      2.09945     13.83843        -0.000798     -0.002039     -0.000569
      2.10062      2.10099     11.70614        -0.001666     -0.001292      0.000782
      4.20168      8.40308     11.70790         0.001484      0.000739     -0.000259
      2.10122      4.20243      9.60122        -0.005024     -0.001801      0.051874
      4.20243      6.30365      9.60122         0.007417     -0.002226      0.055891
      2.10122      6.30365      7.50000        -0.000886     -0.000696     -0.494468
      4.20243      4.20243      7.50000        -0.002071     -0.002030     -0.494404
      2.09863      4.20085     13.83763        -0.002315     -0.000744     -0.000757
      4.19865      6.29978     13.85750        -0.000715      0.000569      0.001203
      2.10279      6.30352     11.70690        -0.003179      0.000014      0.000577
      4.20208      4.20255     11.70779        -0.001734     -0.001679     -0.000958
      6.30365      0.00000      9.60122        -0.001240     -0.004053      0.060473
      0.00000      2.10122      9.60122         0.000080      0.002107      0.046493
      6.30365      2.10122      7.50000        -0.000701     -0.000919     -0.494466
      0.00000      0.00000      7.50000         0.000244      0.000270     -0.494242
      6.30359      0.00592     13.83692         0.001919      0.000792     -0.001767
      8.40454      2.10216     13.84353        -0.000726     -0.000979      0.000592
      6.30298      2.10342     11.70701         0.000385     -0.002790      0.000552
      0.00042      0.00082     11.70673        -0.000675     -0.000737      0.000753
      6.30365      4.20243      9.60122        -0.003220      0.008473      0.055678
      0.00000      6.30365      9.60122        -0.005329     -0.000680      0.060400
      6.30365      6.30365      7.50000         0.001052      0.001112     -0.495995
      0.00000      4.20243      7.50000         0.001794     -0.000228     -0.494346
      6.29800      4.19990     13.85806         0.000684     -0.000603      0.001155
      0.00483      6.30438     13.83770         0.000766      0.001533     -0.001688
      6.30226      6.30271     11.71441         0.003455      0.003095     -0.000249
      8.40238      4.20219     11.70822         0.000700      0.001408     -0.000123
    total drift:                               -0.002122      0.000030      0.001958

  FREE ENERGIE OF THE ION-ELECTRON SYSTEM (eV)
  free  energy   TOTEN  =      -465.28197847 eV

  energy  without entropy=     -465.28197847  energy(sigma->0) =     -465.28197847

 d Force = 0.3087048E-05[ 0.479E-06, 0.570E-05]  d Energy = 0.2849615E-05 0.237E-06
 d Force =-0.5375413E+00[-0.538E+00,-0.538E+00]  d Ewald  =-0.5375413E+00 0.398E-09

 reached required accuracy - stopping structural energy minimisation