 vasp.6.3.0 20Jan22 (build Mar 11 2022 13:48:16) complex

 executed on             LinuxIFC date 2023.12.29  11:10:51

 INCAR:
   SYSTEM = TiO2
   ISMEAR = 0
   SIGMA = 0.05
   EDIFF = 1E-7
   ALGO = ALL
   ISTART = 0
   IBRION = 2
   NSW = 1000
   ISYM = 0
   ISIF = 2
   EDIFFG = -0.01
   DIPOL = 0.5 0.5 0.5
   IDIPOL = 3
   LDIPOL = .TRUE.
   METAGGA = R2SCAN
   LUSE_VDW = .TRUE.
   BPARAM = 11.95
   CPARAM = 0.0093
   LASPH = .TRUE.
   ENCUT = 600
   PREC = Accurate
   LASPH = .TRUE.
   LREAL = .FALSE.
   ISPIN = 1
   NELM = 200
   NELMIN = 8
   NCORE = 19
   KPAR = 1
   LWAVE = .FALSE.
   LCHARG = .FALSE.

 POTCAR:    PAW_PBE C 08Apr2002
 POTCAR:    PAW_PBE O 08Apr2002
 POTCAR:    PAW_PBE Ti_pv 07Sep2000
 POTCAR:    PAW_PBE O 08Apr2002
|               ----> ADVICE to this user running VASP <----                  |
|     You have switched on vdW-DFT.                                           |
|     This routine was written and supplied by Jiri Klimes. We recommend      |
|     that you carefully read and cite the following publications:            |
|       J. Klimes, D.R. Bowler, A. Michelides                                 |
|          J. Phys.: Cond Matt. 22 022201 (2010)                              |
|       J. Klimes, D.R. Bowler, A. Michelides                                 |
|          Phys. Rev. B. 83, 195131 (2011)                                    |
|     and references therein.                                                 |

   TITEL  = PAW_PBE C 08Apr2002
   POMASS =   12.011; ZVAL   =    4.000    mass and valenz
   ENMAX  =  400.000; ENMIN  =  300.000 eV

[...]

   TITEL  = PAW_PBE Ti_pv 07Sep2000
   POMASS =   47.880; ZVAL   =   10.000    mass and valenz
   ENMAX  =  222.335; ENMIN  =  166.751 eV

   TITEL  = PAW_PBE O 08Apr2002
   POMASS =   16.000; ZVAL   =    6.000    mass and valenz
   ENMAX  =  400.000; ENMIN  =  300.000 eV

  PAW_PBE C 08Apr2002                   :
  PAW_PBE O 08Apr2002                   :
  PAW_PBE Ti_pv 07Sep2000               :
  PAW_PBE O 08Apr2002                   :

 POSCAR:  C  O Ti  O
  positions in direct lattice
  velocities in cartesian coordinates

 METAGGA = R2SCA    LMAXTAU =  6    LMIXTAU =  F

 ion  position               nearest neighbor table
   1  0.421  0.500  0.815-   2 1.16   3 1.18
   2  0.363  0.500  0.844-   1 1.16
   3  0.484  0.500  0.787-   1 1.18  83 2.35
   4  0.750  0.625  0.287-  85 1.95 145 1.95 144 1.95  84 1.95  87 1.97 166 1.97  14 2.96  34 2.96

   5  0.000  0.750  0.287-  86 1.95  87 1.95 106 1.95 107 1.95  88 1.97  35 2.96  15 2.96
   6  0.000  0.625  0.394-  88 1.95  89 1.95 148 1.95 149 1.95  90 1.97  91 1.97  16 2.96  36 2.96

[...]

  84  0.750  0.750  0.246-   4 1.95  14 1.95
  85  0.750  0.750  0.329-   4 1.95  14 1.95   7 1.97
  86  0.098  0.625  0.287-   5 1.95  35 1.95  44 1.97
  87  0.902  0.625  0.287-   5 1.95  35 1.95   4 1.97
  88  0.000  0.750  0.352-   6 1.95  16 1.95   5 1.97
  89  0.000  0.750  0.435-   6 1.95  16 1.95   9 1.97
  90  0.848  0.625  0.394-   7 1.95  37 1.95   6 1.97
  91  0.152  0.625  0.394-  47 1.95  77 1.95   6 1.97
  92  0.750  0.750  0.458-   8 1.95  18 1.95   7 1.97
  93  0.750  0.750  0.542-   8 1.95  18 1.95  11 2.09
  94  0.098  0.625  0.500-   9 1.95  39 1.95  48 1.97
  95  0.902  0.625  0.500-   9 1.95  39 1.95   8 1.97
  96  1.000  0.750  0.565-  20 1.90  10 1.90   9 1.99
  97  0.000  0.750  0.649-  13 1.81  10 2.01  20 2.01
  98  0.850  0.625  0.607-  10 1.95  11 1.97  41 1.97
  99  0.150  0.625  0.607-  10 1.95  51 1.97  81 1.97
 100  0.750  0.750  0.671-  11 1.87  22 2.09  12 2.09
 101  0.750  0.750  0.755-  12 1.83  22 1.83
 102  0.094  0.625  0.719-  43 1.95  13 1.95  52 2.02
 103  0.906  0.625  0.718-  43 1.94  13 1.94  12 2.03
 104  0.750  0.000  0.246-  14 1.95  24 1.95
 105  0.750  0.000  0.329-  14 1.95  24 1.95  17 1.97
 106  0.098  0.875  0.287-   5 1.95  15 1.95  54 1.97
 107  0.902  0.875  0.287-   5 1.95  15 1.95  14 1.97
 108  0.000  0.000  0.352-  16 1.95  26 1.95  15 1.97
 109  0.000  0.000  0.435-  16 1.95  26 1.95  19 1.97
 110  0.848  0.875  0.394-   7 1.95  17 1.95  16 1.97
 111  0.152  0.875  0.394-  47 1.95  57 1.95  16 1.97
 112  0.750  0.000  0.458-  18 1.95  28 1.95  17 1.97
 113  0.750  0.000  0.542-  18 1.95  28 1.95  21 2.09
 114  0.098  0.875  0.500-   9 1.95  19 1.95  58 1.97
 115  0.902  0.875  0.500-   9 1.95  19 1.95  18 1.97
 116  1.000  0.000  0.565-  20 1.90  30 1.90  19 1.99
 117  0.000  1.000  0.649-  23 1.81  20 2.01  30 2.01
 118  0.850  0.875  0.607-  20 1.95  21 1.97  11 1.97
 119  0.150  0.875  0.607-  20 1.95  61 1.97  51 1.97
 120  0.750  1.000  0.671-  21 1.87  32 2.09  22 2.09
 121  0.750  0.000  0.755-  22 1.83  32 1.83
 122  0.094  0.875  0.719-  23 1.94  13 1.94  62 2.03
 123  0.906  0.875  0.718-  13 1.94  23 1.94  22 2.03
 124  0.750  0.250  0.246-  24 1.95  34 1.95
 125  0.750  0.250  0.329-  24 1.95  34 1.95  27 1.97
 126  0.098  0.125  0.287-  15 1.95  25 1.95  64 1.97
 127  0.902  0.125  0.287-  15 1.95  25 1.95  24 1.97
 128  0.000  0.250  0.352-  26 1.95  36 1.95  25 1.97
 129  0.000  0.250  0.435-  26 1.95  36 1.95  29 1.97
 130  0.848  0.125  0.394-  17 1.95  27 1.95  26 1.97
 131  0.152  0.125  0.394-  57 1.95  67 1.95  26 1.97
 132  0.750  0.250  0.458-  28 1.95  38 1.95  27 1.97
 133  0.750  0.250  0.542-  28 1.95  38 1.95  31 2.09
 134  0.098  0.125  0.500-  19 1.95  29 1.95  68 1.97
 135  0.902  0.125  0.500-  19 1.95  29 1.95  28 1.97
 136  1.000  0.250  0.565-  30 1.90  40 1.90  29 1.99
 137  0.000  0.250  0.649-  33 1.81  40 2.01  30 2.01
 138  0.850  0.125  0.607-  30 1.95  21 1.97  31 1.97
 139  0.150  0.125  0.607-  30 1.95  61 1.97  71 1.97
 140  0.750  0.250  0.671-  31 1.87  32 2.09  42 2.09
 141  0.750  0.250  0.755-  42 1.83  32 1.83
 142  0.094  0.125  0.719-  23 1.94  33 1.94  72 2.03
 143  0.906  0.125  0.718-  33 1.94  23 1.94  32 2.03
[...]
 229  0.500  0.500  0.435-  46 1.95  76 1.95  79 1.97
 230  0.348  0.375  0.394-  67 1.95  77 1.95  76 1.97
 231  0.652  0.375  0.394-  27 1.95  37 1.95  76 1.97
 232  0.250  0.500  0.458-  48 1.95  78 1.95  77 1.97
 233  0.250  0.500  0.542-  48 1.95  78 1.95  81 2.08
 234  0.598  0.375  0.500-  69 1.95  79 1.95  38 1.97
 235  0.402  0.375  0.500-  69 1.95  79 1.95  78 1.97
 236  0.500  0.500  0.565-  50 1.90  80 1.90  79 2.00
 237  0.500  0.500  0.649-  83 1.85  80 2.00  50 2.00
 238  0.350  0.375  0.607-  80 1.95  71 1.97  81 1.97
 239  0.650  0.375  0.607-  80 1.95  41 1.97  31 1.97
 240  0.248  0.500  0.671-  81 1.87  82 2.09  52 2.09
 241  0.254  0.500  0.755-  52 1.84  82 1.84
 242  0.594  0.374  0.718-  73 1.93  83 1.95  42 2.02
 243  0.405  0.373  0.716-  73 1.93  83 1.95  82 2.02

IMPORTANT INFORMATION: All symmetrisations will be switched off!
NOSYMM: (Re-)initialisation of all symmetry stuff for point group C_1.

                                     Primitive cell

  volume of cell :    4687.8040

  direct lattice vectors                    reciprocal lattice vectors
    12.981773603  0.000000000  0.000000000     0.077031077  0.000000000  0.000000000
     0.000000000 11.829932295  0.000000000     0.000000000  0.084531338  0.000000000
     0.000000000  0.000000000 30.524823105     0.000000000  0.000000000  0.032760223

  length of vectors
    12.981773603 11.829932295 30.524823105     0.077031077  0.084531338  0.032760223

  position of ions in fractional coordinates (direct lattice)
     0.421092088  0.499999983  0.814654111
     0.363248802  0.499999997  0.843504028
     0.484287878  0.499999969  0.786977407
     0.750000000  0.625000000  0.287357103
     0.000000000  0.750000000  0.287357103
     0.000000000  0.625000000  0.393678552
     0.750000000  0.750000000  0.393678552
     0.750000000  0.625000000  0.500000000
     0.000000000  0.750000000  0.500000000
     0.999962675  0.625024785  0.604140270
     0.749985772  0.749994585  0.610110800
     0.749367869  0.625059645  0.719607031
     0.999861507  0.750145119  0.708090504
     0.750000000  0.875000000  0.287357103
     0.000000000  0.000000000  0.287357103
     0.000000000  0.875000000  0.393678552
     0.750000000  0.000000000  0.393678552
     0.750000000  0.875000000  0.500000000
     0.000000000  0.000000000  0.500000000
     0.999992116  0.875026301  0.604181752
     0.750025828  0.999999995  0.610119633
     0.749788572  0.875070826  0.719651437
     0.000206971  0.999999999  0.708089718
     0.750000000  0.125000000  0.287357103
     0.000000000  0.250000000  0.287357103
     0.000000000  0.125000000  0.393678552
     0.750000000  0.250000000  0.393678552
     0.750000000  0.125000000  0.500000000
     0.000000000  0.250000000  0.500000000
     0.999992113  0.124973706  0.604181755
     0.749985775  0.250005412  0.610110797
     0.749788571  0.124929172  0.719651433
     0.999861508  0.249854880  0.708090505
     0.750000000  0.375000000  0.287357103
     0.000000000  0.500000000  0.287357103
     0.000000000  0.375000000  0.393678552
     0.750000000  0.500000000  0.393678552
     0.750000000  0.375000000  0.500000000
     0.000000000  0.500000000  0.500000000
     0.999962674  0.374975221  0.604140267
     0.750006238  0.500000001  0.610169645
     0.749367868  0.374940353  0.719607027
     0.999039127  0.500000001  0.708055337
     0.250000000  0.625000000  0.287357103
     0.500000000  0.750000000  0.287357103
     0.500000000  0.625000000  0.393678552
     0.250000000  0.750000000  0.393678552
     0.250000000  0.625000000  0.500000000
     0.500000000  0.750000000  0.500000000
     0.500016313  0.624030786  0.604851310
     0.249918704  0.750081304  0.609957496
     0.248983257  0.625440685  0.719083685
     0.500194682  0.750255812  0.707493918
     0.250000000  0.875000000  0.287357103
     0.500000000  0.000000000  0.287357103
     0.500000000  0.875000000  0.393678552
     0.250000000  0.000000000  0.393678552
     0.250000000  0.875000000  0.500000000
     0.500000000  0.000000000  0.500000000
     0.500140208  0.874577674  0.603655884
[...]
     0.500000000  0.500000000  0.435333986
     0.347946921  0.375000000  0.393678552
     0.652053079  0.375000000  0.393678552
     0.250000000  0.500000000  0.458344566
     0.250000000  0.500000000  0.541655434
     0.597946921  0.375000000  0.500000000
     0.402053079  0.375000000  0.500000000
     0.499889021  0.500000002  0.565387522
     0.500153568  0.500000012  0.649468659
     0.349805240  0.375005527  0.607121287
     0.650118655  0.375056632  0.606946632
     0.247675215  0.500000004  0.671099995
     0.254410047  0.499999995  0.754689948
     0.593543767  0.374086545  0.717853957
     0.404788489  0.372696913  0.716372448

  ion indices of the primitive-cell ions
   primitive index   ion index
                 1           1
                 2           2
                 3           3
                 4           4
                 5           5
                 6           6
                 7           7
                 8           8
                 9           9
                10          10
                11          11
                12          12
                13          13
                14          14
                15          15
                16          16
[...]
   6.49088680  0.00000000  8.77152475
   6.49088680 10.35119076 12.01696815
   3.24544340  0.00000000 12.01696815
   3.24544340 10.35119076 15.26241155
   6.49088680  0.00000000 15.26241155
   6.49270695 10.34619467 18.42648909
[...]
   6.49088680  5.91496615 13.28849290
   4.51696815  4.43622461 12.01696815
   8.46480545  4.43622461 12.01696815
   3.24544340  5.91496615 13.99088680
   3.24544340  5.91496615 16.53393630
   7.76241155  4.43622461 15.26241155
   5.21936205  4.43622461 15.26241155
   6.48944610  5.91496617 17.25835410
   6.49288038  5.91496629 19.82491594
   4.54109243  4.43629000 18.53226988
   8.43969319  4.43689456 18.52693858
   3.21526357  5.91496619 20.48520865
   3.30269363  5.91496609 23.03677717
   7.70525080  4.42541850 21.91236506
   5.25487253  4.40897925 21.86714225

--------------------------------------- Iteration      FINAL  ---------------------------------------

--------------------OUTCAR has been truncated-------------------------

[...]

--------------------OUTCAR has been truncated-------------------------

  FORCE on cell =-STRESS in cart. coord.  units (eV):
  Direction    XX          YY          ZZ          XY          YZ          ZX
  Alpha Z  4734.35770  4734.35770  4734.35770
  Ewald  974068.97614991317.44188************    -0.00011     0.00003  -291.43591
  Hartree************************************    -0.00007    -0.00001   -94.09495
  E(xc)   -9206.93134 -9216.53209 -9204.79646    -0.00000     0.00000    -0.02817
  Local  ************************************     0.00018    -0.00001   347.77342
  n-local -5219.97502 -5122.35002 -5265.12067     0.00000     0.00000     3.03027
  augment  5529.48014  5497.97963  5533.08258     0.00000     0.00000     1.60619
  Kinetic 28990.06723 28531.01272 29026.94445    -0.00003     0.00000    33.13396
  Fock        0.00000     0.00000     0.00000     0.00000     0.00000     0.00000
  Total       4.71884   -45.11007   -35.99244    -0.00002     0.00002    -0.01520
  in kB       1.61278   -15.41753   -12.30134    -0.00001     0.00001    -0.00519

 VOLUME and BASIS-vectors are now :
  energy-cutoff  :      600.00
  volume of cell :     4687.80
      direct lattice vectors                 reciprocal lattice vectors
    12.981773603  0.000000000  0.000000000     0.077031077  0.000000000  0.000000000
     0.000000000 11.829932295  0.000000000     0.000000000  0.084531338  0.000000000
     0.000000000  0.000000000 30.524823105     0.000000000  0.000000000  0.032760223

  length of vectors
    12.981773603 11.829932295 30.524823105     0.077031077  0.084531338  0.032760223

 FORCES acting on ions:
    Electron-Ion                     Ewald-Force                    Non-Local-Force
   -.197E+02 0.101E-04 -.150E+04   0.186E+02 -.127E-04 0.150E+04   0.107E+01 0.244E-05 0.473E-01
   0.160E+03 -.284E-04 -.217E+04   -.205E+03 0.372E-04 0.223E+04   0.451E+02 -.735E-05 -.516E+02
   -.199E+03 0.726E-04 -.237E+04   0.243E+03 -.800E-04 0.233E+04   -.449E+02 0.819E-05 0.394E+02
   -.211E+00 -.734E-01 0.380E+04   0.210E+00 0.735E-01 -.381E+04   0.145E-03 -.531E-05 0.444E+00
   0.140E+00 -.109E+00 0.399E+04   -.141E+00 0.109E+00 -.398E+04   0.398E-03 -.558E-05 -.402E+01
   0.230E+00 -.111E+00 0.195E+04   -.233E+00 0.111E+00 -.195E+04   0.544E-03 0.419E-04 -.619E-01
   -.335E+00 -.879E-01 0.194E+04   0.331E+00 0.884E-01 -.194E+04   0.961E-03 -.597E-04 0.216E+00
   -.124E+01 -.337E+00 0.159E+02   0.122E+01 0.331E+00 -.151E+02   0.366E-02 0.420E-03 -.128E+00
   0.939E+00 -.878E+00 0.265E+02   -.951E+00 0.882E+00 -.276E+02   0.333E-02 -.175E-02 0.315E+00
   0.473E+01 -.276E+01 -.186E+04   -.473E+01 0.276E+01 0.186E+04   0.542E-03 -.324E-02 0.138E+00
   -.895E+01 -.567E+01 -.192E+04   0.895E+01 0.567E+01 0.192E+04   0.910E-03 -.668E-03 -.161E+00
   -.511E+02 -.203E+02 -.374E+04   0.511E+02 0.203E+02 0.374E+04   0.146E-01 -.710E-02 -.289E+00
   0.101E+02 -.103E+02 -.378E+04   -.102E+02 0.103E+02 0.378E+04   0.211E-01 -.653E-02 0.117E+01
   -.208E+00 -.733E-01 0.380E+04   0.207E+00 0.734E-01 -.381E+04   0.214E-03 -.193E-05 0.444E+00
   0.133E+00 0.377E-05 0.399E+04   -.134E+00 0.300E-07 -.398E+04   0.391E-03 0.944E-06 -.402E+01
   0.201E+00 -.111E+00 0.195E+04   -.204E+00 0.112E+00 -.195E+04   0.436E-03 0.354E-04 -.620E-01
   -.388E+00 -.315E-06 0.194E+04   0.383E+00 0.375E-06 -.194E+04   0.112E-02 -.752E-08 0.217E+00
   -.183E+01 -.340E+00 0.151E+02   0.182E+01 0.342E+00 -.143E+02   0.180E-02 -.169E-04 -.128E+00
   0.721E+00 0.165E-05 0.255E+02   -.730E+00 -.734E-06 -.266E+02   0.258E-02 0.131E-05 0.314E+00
   0.295E+01 -.256E+01 -.186E+04   -.294E+01 0.256E+01 0.186E+04   -.175E-02 -.418E-02 0.140E+00
   -.687E+01 -.224E-04 -.192E+04   0.686E+01 0.242E-04 0.192E+04   0.131E-01 -.104E-05 -.154E+00
   -.210E+02 -.144E+02 -.376E+04   0.210E+02 0.144E+02 0.376E+04   0.307E-01 -.710E-05 -.292E+00
   0.691E+01 0.804E-05 -.379E+04   -.691E+01 -.216E-05 0.379E+04   0.280E-02 0.221E-05 0.119E+01
   -.208E+00 0.733E-01 0.380E+04   0.207E+00 -.734E-01 -.381E+04   0.213E-03 -.790E-06 0.444E+00
   0.140E+00 0.109E+00 0.399E+04   -.141E+00 -.109E+00 -.398E+04   0.400E-03 0.665E-05 -.402E+01
   0.201E+00 0.111E+00 0.195E+04   -.204E+00 -.112E+00 -.195E+04   0.436E-03 -.353E-04 -.620E-01
   -.335E+00 0.879E-01 0.194E+04   0.331E+00 -.884E-01 -.194E+04   0.960E-03 0.649E-04 0.216E+00
   -.183E+01 0.340E+00 0.151E+02   0.182E+01 -.342E+00 -.143E+02   0.180E-02 0.173E-04 -.128E+00
   0.939E+00 0.878E+00 0.265E+02   -.951E+00 -.882E+00 -.276E+02   0.333E-02 0.175E-02 0.315E+00
   0.295E+01 0.256E+01 -.186E+04   -.294E+01 -.256E+01 0.186E+04   -.175E-02 0.418E-02 0.140E+00
   -.895E+01 0.567E+01 -.192E+04   0.895E+01 -.567E+01 0.192E+04   0.910E-03 0.668E-03 -.161E+00
   -.210E+02 0.144E+02 -.376E+04   0.210E+02 -.144E+02 0.376E+04   0.307E-01 0.697E-05 -.292E+00
   0.101E+02 0.103E+02 -.378E+04   -.102E+02 -.103E+02 0.378E+04   0.211E-01 0.653E-02 0.117E+01
   -.211E+00 0.734E-01 0.380E+04   0.210E+00 -.735E-01 -.381E+04   0.147E-03 0.433E-05 0.444E+00
   0.147E+00 0.779E-06 0.399E+04   -.148E+00 -.308E-07 -.398E+04   0.410E-03 -.303E-06 -.402E+01
   0.230E+00 0.111E+00 0.195E+04   -.233E+00 -.111E+00 -.195E+04   0.544E-03 -.423E-04 -.619E-01
   -.283E+00 0.133E-05 0.194E+04   0.280E+00 -.443E-06 -.194E+04   0.755E-03 -.341E-05 0.216E+00
   -.124E+01 0.337E+00 0.159E+02   0.122E+01 -.331E+00 -.151E+02   0.366E-02 -.421E-03 -.128E+00
   0.111E+01 0.288E-05 0.275E+02   -.112E+01 -.300E-05 -.286E+02   0.419E-02 -.610E-07 0.315E+00
   0.473E+01 0.276E+01 -.186E+04   -.473E+01 -.276E+01 0.186E+04   0.541E-03 0.324E-02 0.138E+00
   -.113E+02 0.196E-05 -.191E+04   0.113E+02 -.417E-05 0.191E+04   0.102E-01 -.192E-05 -.170E+00
   -.511E+02 0.203E+02 -.374E+04   0.511E+02 -.203E+02 0.374E+04   0.146E-01 0.710E-02 -.289E+00
   0.147E+02 -.253E-06 -.377E+04   -.147E+02 -.767E-07 0.377E+04   -.254E-01 0.869E-06 0.115E+01
   0.211E+00 -.845E-01 0.380E+04   -.210E+00 0.848E-01 -.381E+04   -.457E-03 -.422E-04 0.444E+00
   -.140E+00 -.113E+00 0.399E+04   0.141E+00 0.114E+00 -.398E+04   0.118E-03 -.430E-04 -.402E+01
   -.223E+00 -.202E-01 0.195E+04   0.226E+00 0.284E-01 -.195E+04   -.622E-03 -.159E-02 -.626E-01
   0.328E+00 -.132E+00 0.194E+04   -.324E+00 0.133E+00 -.194E+04   -.530E-03 0.975E-05 0.219E+00
   0.993E+00 -.618E+00 0.182E+02   -.974E+00 0.621E+00 -.174E+02   -.324E-02 -.366E-03 -.122E+00
   -.909E+00 -.150E+00 0.295E+02   0.915E+00 0.102E+00 -.305E+02   0.128E-03 0.248E-01 0.285E+00
   -.377E+01 -.696E+01 -.185E+04   0.378E+01 0.702E+01 0.185E+04   -.271E-02 -.479E-01 0.137E+00
   0.733E+01 -.819E+01 -.191E+04   -.734E+01 0.820E+01 0.191E+04   0.857E-02 -.631E-02 -.167E+00
   0.752E+02 -.365E+02 -.369E+04   -.752E+02 0.364E+02 0.369E+04   -.570E-01 0.330E-01 -.214E+00
   -.183E+02 -.668E+02 -.373E+04   0.183E+02 0.668E+02 0.372E+04   0.557E-01 -.168E-01 0.126E+01
   0.209E+00 -.843E-01 0.380E+04   -.207E+00 0.847E-01 -.381E+04   -.532E-03 -.288E-04 0.444E+00
   -.133E+00 0.873E-06 0.399E+04   0.134E+00 0.840E-07 -.398E+04   0.127E-03 0.190E-05 -.402E+01
   -.195E+00 -.234E-01 0.195E+04   0.198E+00 0.267E-01 -.195E+04   -.517E-03 -.104E-02 -.630E-01
   0.381E+00 0.127E-05 0.194E+04   -.377E+00 0.383E-07 -.194E+04   -.604E-03 -.121E-05 0.218E+00
   0.165E+01 -.699E+00 0.166E+02   -.164E+01 0.721E+00 -.158E+02   -.260E-02 -.139E-02 -.125E+00
   -.662E+00 -.325E-05 0.312E+02   0.666E+00 0.431E-05 -.323E+02   0.306E-04 -.635E-06 0.293E+00
   -.159E+01 -.898E+01 -.184E+04   0.160E+01 0.898E+01 0.184E+04   -.649E-02 -.282E-03 0.367E-01
[...]
   -.531E+02 0.376E-01 0.117E+04   0.571E+02 -.386E-01 -.117E+04   -.361E+01 0.166E-02 0.183E+00
   0.529E+02 0.229E-01 0.117E+04   -.570E+02 -.237E-01 -.117E+04   0.361E+01 0.112E-02 0.178E+00
   0.340E+00 0.749E-06 0.516E+03   -.332E+00 -.548E-07 -.521E+03   -.106E-01 -.155E-07 0.433E+01
   0.831E+00 0.193E-05 -.507E+03   -.808E+00 -.163E-05 0.514E+03   -.205E-01 -.772E-06 -.705E+01
   -.556E+02 -.107E+00 0.161E+02   0.604E+02 0.102E+00 -.163E+02   -.530E+01 0.218E-01 0.296E+00
   0.546E+02 -.176E-01 0.168E+02   -.594E+02 0.117E-01 -.170E+02   0.527E+01 0.237E-01 0.301E+00
   -.112E+01 0.576E-04 -.613E+03   0.108E+01 -.658E-04 0.606E+03   0.315E-01 0.642E-05 0.672E+01
   -.874E+01 -.705E-04 -.158E+04   0.897E+01 0.819E-04 0.158E+04   -.234E+00 -.850E-05 0.901E+00
   -.262E+02 0.416E+01 -.112E+04   0.294E+02 -.422E+01 0.112E+04   -.311E+01 0.531E-01 0.745E+00
   0.226E+02 0.313E+01 -.112E+04   -.257E+02 -.321E+01 0.112E+04   0.307E+01 0.786E-01 0.941E+00
   0.254E+02 -.555E-04 -.178E+04   -.257E+02 0.598E-04 0.178E+04   0.321E+00 -.548E-05 -.216E+01
   0.897E+02 0.583E-04 -.265E+04   -.894E+02 -.657E-04 0.267E+04   -.308E+00 0.741E-05 -.204E+02
   -.696E+02 0.369E+02 -.229E+04   0.758E+02 -.365E+02 0.229E+04   -.621E+01 -.343E+00 -.355E+01
   0.450E+02 0.525E+02 -.224E+04   -.514E+02 -.526E+02 0.224E+04   0.638E+01 0.765E-01 -.246E+01
   -.189E+01 -.176E-05 0.106E+03   0.354E-11 -.197E-11 -.819E-11   0.183E+01 0.282E-04 -.106E+03

 POSITION                                       TOTAL-FORCE (eV/Angst)
      5.46652      5.91497     24.86717        -0.003570     -0.000000      0.000189
      4.71561      5.91497     25.74781        -0.004407      0.000001     -0.000248
      6.28692      5.91497     24.02235         0.002231      0.000001     -0.004086
      9.73633      7.39371      8.77152        -0.000510      0.000043     -3.754400
      0.00000      8.87245      8.77152        -0.000292      0.000070      2.941496
      0.00000      7.39371     12.01697        -0.002856      0.000097      0.542699
      9.73633      8.87245     12.01697        -0.002293      0.000430     -0.751104
      9.73633      7.39371     15.26241        -0.014210     -0.005313      0.666178
      0.00000      8.87245     15.26241        -0.008249      0.002675     -0.736954
     12.98129      7.39400     18.44127         0.000153      0.000203     -0.000222
      9.73615      8.87239     18.62352         0.000116      0.000048     -0.000080
      9.72812      7.39441     21.96588        -0.000732      0.001028     -0.000008
     12.97998      8.87417     21.61434        -0.000753      0.000324     -0.000269
      9.73633     10.35119      8.77152        -0.000640      0.000078     -3.754426
      0.00000      0.00000      8.77152        -0.000282      0.000005      2.941495
      0.00000     10.35119     12.01697        -0.002525      0.000087      0.542889
      9.73633      0.00000     12.01697        -0.002676     -0.000000     -0.751674
      9.73633     10.35119     15.26241        -0.007383      0.001427      0.663135
      0.00000      0.00000     15.26241        -0.006288      0.000002     -0.734674
     12.98167     10.35150     18.44254        -0.000025      0.000205     -0.000438
      9.73667     11.82993     18.62379        -0.000067      0.000001      0.000481
      9.73359     10.35203     21.96723        -0.000958      0.000940     -0.000195
      0.00269     11.82993     21.61431        -0.000984      0.000008     -0.000168
      9.73633      1.47874      8.77152        -0.000640     -0.000086     -3.754436
      0.00000      2.95748      8.77152        -0.000291     -0.000068      2.941477
      0.00000      1.47874     12.01697        -0.002523     -0.000086      0.542892
      9.73633      2.95748     12.01697        -0.002294     -0.000422     -0.751104
      9.73633      1.47874     15.26241        -0.007382     -0.001426      0.663136
      0.00000      2.95748     15.26241        -0.008248     -0.002679     -0.736950
     12.98167      1.47843     18.44254        -0.000023     -0.000203     -0.000442
      9.73615      2.95755     18.62352         0.000118     -0.000046     -0.000080
      9.73359      1.47790     21.96723        -0.000959     -0.000944     -0.000195
     12.97998      2.95577     21.61434        -0.000758     -0.000337     -0.000265
      9.73633      4.43622      8.77152        -0.000506     -0.000046     -3.754397
      0.00000      5.91497      8.77152        -0.000329      0.000000      2.941539
      0.00000      4.43622     12.01697        -0.002854     -0.000097      0.542700
      9.73633      5.91497     12.01697        -0.001874     -0.000003     -0.750260
      9.73633      4.43622     15.26241        -0.014213      0.005315      0.666172
      0.00000      5.91497     15.26241        -0.009879     -0.000000     -0.739113
     12.98129      4.43593     18.44127         0.000153     -0.000204     -0.000225
      9.73641      5.91497     18.62532         0.000115     -0.000004     -0.000331
      9.72812      4.43552     21.96588        -0.000735     -0.001029     -0.000011
     12.96930      5.91497     21.61326        -0.000305      0.000000     -0.000419
      3.24544      7.39371      8.77152         0.001017      0.000222     -3.755761
      6.49089      8.87245      8.77152         0.000820      0.000347      2.943906
      6.49089      7.39371     12.01697         0.003232      0.006510      0.549123
      3.24544      8.87245     12.01697         0.002898      0.000983     -0.760389
      3.24544      7.39371     15.26241         0.015836      0.002989      0.629700
      6.49089      8.87245     15.26241         0.006559     -0.022923     -0.676164
      6.49110      7.38224     18.46298        -0.000047      0.000775     -0.000413
      3.24439      8.87341     18.61884        -0.000173     -0.000165     -0.000204
      3.23224      7.39892     21.94990        -0.000472     -0.000044     -0.000129
      6.49341      8.87548     21.59613        -0.000680      0.000331     -0.000051
      3.24544     10.35119      8.77152         0.001126      0.000304     -3.755727
      6.49089      0.00000      8.77152         0.000790      0.000003      2.944191
      6.49089     10.35119     12.01697         0.002908      0.002213      0.552541
      3.24544      0.00000     12.01697         0.003319      0.000000     -0.759079
      3.24544     10.35119     15.26241         0.009548      0.020598      0.645795
      6.49089      0.00000     15.26241         0.004450      0.000000     -0.783652
      6.49271     10.34619     18.42649         0.000022      0.000333     -0.000646
[...]
      6.49089      5.91497     13.28849        -0.000874      0.000002     -0.125998
      4.51697      4.43622     12.01697         0.445010      0.000635      0.057824
      8.46481      4.43622     12.01697        -0.447733      0.000320      0.056553
      3.24544      5.91497     13.99089        -0.002649      0.000001     -0.068306
      3.24544      5.91497     16.53394         0.002816     -0.000001      0.041903
      7.76241      4.43622     15.26241        -0.458346      0.017303      0.082044
      5.21936      4.43622     15.26241         0.441855      0.017774      0.081637
      6.48945      5.91497     17.25835        -0.000281     -0.000002      0.001223
      6.49288      5.91497     19.82492        -0.000228      0.000003     -0.000164
      4.54109      4.43629     18.53227        -0.000416      0.000138      0.000203
      8.43969      4.43689     18.52694        -0.000216      0.000287     -0.000110
      3.21526      5.91497     20.48521        -0.000758     -0.000001      0.000104
      3.30269      5.91497     23.03678        -0.000521     -0.000000     -0.000577
      7.70525      4.42542     21.91237        -0.000890      0.000485      0.000262
      5.25487      4.40898     21.86714        -0.000594      0.000796      0.000067
    total drift:                               -0.065084      0.000026     -0.068101

  FREE ENERGIE OF THE ION-ELECTRON SYSTEM (eV)
  free  energy   TOTEN  =     -2735.87877953 eV

  energy  without entropy=    -2735.87877953  energy(sigma->0) =    -2735.87877953

 reached required accuracy - stopping structural energy minimisation