 vasp.6.4.1 05Apr23 (build Sep 19 2024 10:44:22) complex

 executed on             LinuxIFC date 2024.10.20  19:10:49

 INCAR:
   SYSTEM = TiO2
   ISMEAR = 0
   SIGMA = 0.05
   EDIFF = 1E-7
   ALGO = ALL
   ISTART = 0
   IBRION = 2
   NSW = 1000
   ISYM = 0
   ISIF = 2
   EDIFFG = -0.01
   DIPOL = 0.5 0.5 0.5
   IDIPOL = 3
   LDIPOL = .TRUE.
   METAGGA = R2SCAN
   LUSE_VDW = .TRUE.
   BPARAM = 11.95
   CPARAM = 0.0093
   LASPH = .TRUE.
   ENCUT = 600
   PREC = Accurate
   LASPH = .TRUE.
   LREAL = .FALSE.
   ISPIN = 1
   NELM = 200
   NELMIN = 8
   NCORE = 8
   KPAR = 1
   LWAVE = .FALSE.
   LCHARG = .FALSE.

 POTCAR:    PAW_PBE C 08Apr2002
 POTCAR:    PAW_PBE O 08Apr2002
 POTCAR:    PAW_PBE Ti_pv 07Sep2000
 POTCAR:    PAW_PBE O 08Apr2002
|           W    W    AA    RRRRR   N    N  II  N    N   GGGG   !!!           |
|           W    W   A  A   R    R  NN   N  II  NN   N  G    G  !!!           |
|           W    W  A    A  R    R  N N  N  II  N N  N  G       !!!           |
|           W WW W  AAAAAA  RRRRR   N  N N  II  N  N N  G  GGG   !            |
|           WW  WW  A    A  R   R   N   NN  II  N   NN  G    G                |
|           W    W  A    A  R    R  N    N  II  N    N   GGGG   !!!           |
|     For optimal performance we recommend to set                             |
|       NCORE = 2 up to number-of-cores-per-socket                            |
|     This setting can greatly improve the performance of VASP for DFT.       |
|     The default, NCORE=1 might be grossly inefficient on modern             |
|     multi-core architectures or massively parallel machines. Do your        |
|     Unfortunately you need to use the default for GW and RPA                |
|     calculations (for HF NCORE is supported but not extensively tested      |
|     yet).                                                                   |

   TITEL  = PAW_PBE C 08Apr2002
   POMASS =   12.011; ZVAL   =    4.000    mass and valenz
   ENMAX  =  400.000; ENMIN  =  300.000 eV

[...]

   TITEL  = PAW_PBE Ti_pv 07Sep2000
   POMASS =   47.880; ZVAL   =   10.000    mass and valenz
   ENMAX  =  222.335; ENMIN  =  166.751 eV

   TITEL  = PAW_PBE O 08Apr2002
   POMASS =   16.000; ZVAL   =    6.000    mass and valenz
   ENMAX  =  400.000; ENMIN  =  300.000 eV

  PAW_PBE C 08Apr2002                   :
  PAW_PBE O 08Apr2002                   :
  PAW_PBE Ti_pv 07Sep2000               :
  PAW_PBE O 08Apr2002                   :

 POSCAR:  C  O Ti  O
  positions in direct lattice

 METAGGA = R2SCAN                                      LMAXTAU =  6    LMIXTAU =  F

 ion  position               nearest neighbor table
   1  0.422  0.500  0.817-   2 1.17   3 1.19
   2  0.361  0.500  0.845-   1 1.17
   3  0.487  0.500  0.790-   1 1.19  83 2.50
   4  0.750  0.625  0.287-  85 1.95 145 1.95 144 1.95  84 1.95  87 1.97 166 1.97  14 2.96  34 2.96

   5  0.000  0.750  0.287-  86 1.95  87 1.95 106 1.95 107 1.95  88 1.97  35 2.96  15 2.96
   6  0.000  0.625  0.394-  88 1.95  89 1.95 148 1.95 149 1.95  90 1.97  91 1.97  16 2.96  36 2.96

[...]

  84  0.750  0.750  0.246-   4 1.95  14 1.95
  85  0.750  0.750  0.329-   4 1.95  14 1.95   7 1.97
  86  0.098  0.625  0.287-   5 1.95  35 1.95  44 1.97
  87  0.902  0.625  0.287-   5 1.95  35 1.95   4 1.97
  88  0.000  0.750  0.352-   6 1.95  16 1.95   5 1.97
  89  0.000  0.750  0.435-   6 1.95  16 1.95   9 1.97
  90  0.848  0.625  0.394-   7 1.95  37 1.95   6 1.97
  91  0.152  0.625  0.394-  47 1.95  77 1.95   6 1.97
  92  0.750  0.750  0.458-   8 1.95  18 1.95   7 1.97
  93  0.750  0.750  0.542-   8 1.95  18 1.95  11 2.09
  94  0.098  0.625  0.500-   9 1.95  39 1.95  48 1.97
  95  0.902  0.625  0.500-   9 1.95  39 1.95   8 1.97
  96  1.000  0.750  0.565-  20 1.90  10 1.90   9 1.99
  97  0.000  0.750  0.649-  13 1.81  10 2.01  20 2.01
  98  0.850  0.625  0.607-  10 1.95  11 1.97  41 1.97
  99  0.150  0.625  0.607-  10 1.95  81 1.97  51 1.97
 100  0.750  0.750  0.671-  11 1.87  22 2.09  12 2.09
 101  0.750  0.750  0.755-  22 1.83  12 1.83
 102  0.094  0.625  0.718-  43 1.94  13 1.94  52 2.03
 103  0.906  0.625  0.718-  43 1.94  13 1.94  12 2.03
 104  0.750  0.000  0.246-  14 1.95  24 1.95
 105  0.750  0.000  0.329-  14 1.95  24 1.95  17 1.97
 106  0.098  0.875  0.287-   5 1.95  15 1.95  54 1.97
 107  0.902  0.875  0.287-   5 1.95  15 1.95  14 1.97
 108  0.000  0.000  0.352-  16 1.95  26 1.95  15 1.97
 109  0.000  0.000  0.435-  16 1.95  26 1.95  19 1.97
 110  0.848  0.875  0.394-   7 1.95  17 1.95  16 1.97
 111  0.152  0.875  0.394-  47 1.95  57 1.95  16 1.97
 112  0.750  0.000  0.458-  18 1.95  28 1.95  17 1.97
 113  0.750  0.000  0.542-  18 1.95  28 1.95  21 2.09
 114  0.098  0.875  0.500-   9 1.95  19 1.95  58 1.97
 115  0.902  0.875  0.500-   9 1.95  19 1.95  18 1.97
 116  1.000  0.000  0.565-  20 1.90  30 1.90  19 1.99
 117  0.000  1.000  0.649-  23 1.81  30 2.01  20 2.01
 118  0.850  0.875  0.607-  20 1.95  21 1.97  11 1.97
 119  0.150  0.875  0.607-  20 1.95  61 1.97  51 1.97
 120  0.750  0.000  0.671-  21 1.87  32 2.09  22 2.09
 121  0.750  1.000  0.755-  32 1.83  22 1.83
 122  0.094  0.875  0.718-  13 1.94  23 1.94  62 2.03
 123  0.906  0.875  0.718-  23 1.94  13 1.94  22 2.03
 124  0.750  0.250  0.246-  24 1.95  34 1.95
 125  0.750  0.250  0.329-  24 1.95  34 1.95  27 1.97
 126  0.098  0.125  0.287-  15 1.95  25 1.95  64 1.97
 127  0.902  0.125  0.287-  15 1.95  25 1.95  24 1.97
 128  0.000  0.250  0.352-  26 1.95  36 1.95  25 1.97
 129  0.000  0.250  0.435-  26 1.95  36 1.95  29 1.97
 130  0.848  0.125  0.394-  17 1.95  27 1.95  26 1.97
 131  0.152  0.125  0.394-  57 1.95  67 1.95  26 1.97
 132  0.750  0.250  0.458-  28 1.95  38 1.95  27 1.97
 133  0.750  0.250  0.542-  28 1.95  38 1.95  31 2.09
 134  0.098  0.125  0.500-  19 1.95  29 1.95  68 1.97
 135  0.902  0.125  0.500-  19 1.95  29 1.95  28 1.97
 136  1.000  0.250  0.565-  40 1.90  30 1.90  29 1.99
 137  0.000  0.250  0.649-  33 1.81  30 2.01  40 2.01
 138  0.850  0.125  0.607-  30 1.95  31 1.97  21 1.97
 139  0.150  0.125  0.607-  30 1.95  61 1.97  71 1.97
 140  0.750  0.250  0.671-  31 1.87  42 2.09  32 2.09
 141  0.750  0.250  0.755-  42 1.83  32 1.83
 142  0.094  0.125  0.718-  33 1.94  23 1.94  72 2.03
 143  0.906  0.125  0.718-  23 1.94  33 1.94  32 2.03
[...]
 229  0.500  0.500  0.435-  46 1.95  76 1.95  79 1.97
 230  0.348  0.375  0.394-  67 1.95  77 1.95  76 1.97
 231  0.652  0.375  0.394-  27 1.95  37 1.95  76 1.97
 232  0.250  0.500  0.458-  48 1.95  78 1.95  77 1.97
 233  0.250  0.500  0.542-  48 1.95  78 1.95  81 2.09
 234  0.598  0.375  0.500-  69 1.95  79 1.95  38 1.97
 235  0.402  0.375  0.500-  69 1.95  79 1.95  78 1.97
 236  0.500  0.500  0.565-  80 1.90  50 1.90  79 1.99
 237  0.500  0.500  0.649-  83 1.81  50 2.01  80 2.01
 238  0.350  0.375  0.607-  80 1.95  71 1.97  81 1.97
 239  0.650  0.375  0.607-  80 1.95  41 1.97  31 1.97
 240  0.250  0.500  0.671-  81 1.87  82 2.09  52 2.09
 241  0.250  0.500  0.755-  52 1.83  82 1.83
 242  0.594  0.375  0.718-  83 1.94  73 1.94  42 2.03
 243  0.406  0.375  0.718-  73 1.94  83 1.94  82 2.03

IMPORTANT INFORMATION: All symmetrisations will be switched off!
NOSYMM: (Re-)initialisation of all symmetry stuff for point group C_1.

                                     Primitive cell

  volume of cell :    4687.7932

  direct lattice vectors                    reciprocal lattice vectors
    12.981765453  0.000000000  0.000000000     0.077031125  0.000000000  0.000000000
     0.000000000 11.829918508  0.000000000     0.000000000  0.084531436  0.000000000
     0.000000000  0.000000000 30.524807391     0.000000000  0.000000000  0.032760239

  length of vectors
    12.981765453 11.829918508 30.524807391     0.077031125  0.084531436  0.032760239

  position of ions in fractional coordinates (direct lattice)
     0.421672123  0.499999990  0.816845565
     0.360609306  0.499999984  0.845054305
     0.486820888  0.499999987  0.789637531
     0.750000000  0.625000000  0.287357127
     0.000000000  0.750000000  0.287357127
     0.000000000  0.625000000  0.393678564
     0.750000000  0.750000000  0.393678564
     0.750000000  0.625000000  0.500000000
     0.000000000  0.750000000  0.500000000
     0.999999975  0.624999996  0.604133439
     0.749999938  0.749999994  0.610202908
     0.750000066  0.624999975  0.719737307
     0.000000051  0.749999998  0.707967630
     0.750000000  0.875000000  0.287357127
     0.000000000  0.000000000  0.287357127
     0.000000000  0.875000000  0.393678564
     0.750000000  0.000000000  0.393678564
     0.750000000  0.875000000  0.500000000
     0.000000000  0.000000000  0.500000000
     0.999999953  0.875000007  0.604133430
     0.749999934  0.999999993  0.610202922
     0.750000020  0.874999952  0.719737329
     0.999999999  0.999999991  0.707967643
     0.750000000  0.125000000  0.287357127
     0.000000000  0.250000000  0.287357127
     0.000000000  0.125000000  0.393678564
     0.750000000  0.250000000  0.393678564
     0.750000000  0.125000000  0.500000000
     0.000000000  0.250000000  0.500000000
     0.999999971  0.124999995  0.604133456
     0.749999939  0.249999987  0.610202920
     0.750000026  0.124999981  0.719737342
     0.000000064  0.250000002  0.707967647
     0.750000000  0.375000000  0.287357127
     0.000000000  0.500000000  0.287357127
     0.000000000  0.375000000  0.393678564
     0.750000000  0.500000000  0.393678564
     0.750000000  0.375000000  0.500000000
     0.000000000  0.500000000  0.500000000
     0.999999958  0.374999994  0.604133442
     0.749999936  0.500000001  0.610202903
     0.750000076  0.374999948  0.719737327
     0.000000077  0.500000004  0.707967634
     0.250000000  0.625000000  0.287357127
     0.500000000  0.750000000  0.287357127
     0.500000000  0.625000000  0.393678564
     0.250000000  0.750000000  0.393678564
     0.250000000  0.625000000  0.500000000
     0.500000000  0.750000000  0.500000000
     0.499999960  0.625000000  0.604133443
     0.249999931  0.750000018  0.610202917
     0.250000052  0.625000010  0.719737319
     0.500000061  0.750000004  0.707967626
     0.250000000  0.875000000  0.287357127
     0.500000000  0.000000000  0.287357127
     0.500000000  0.875000000  0.393678564
     0.250000000  0.000000000  0.393678564
     0.250000000  0.875000000  0.500000000
     0.500000000  0.000000000  0.500000000
     0.499999978  0.875000003  0.604133432
[...]
     0.500000000  0.500000000  0.435333895
     0.347946691  0.375000000  0.393678564
     0.652053309  0.375000000  0.393678564
     0.250000000  0.500000000  0.458344669
     0.250000000  0.500000000  0.541655331
     0.597946691  0.375000000  0.500000000
     0.402053309  0.375000000  0.500000000
     0.499999903  0.499999995  0.565135701
     0.500000068  0.500000001  0.648583822
     0.350049465  0.374999983  0.606878662
     0.649950581  0.374999992  0.606878611
     0.250000059  0.499999994  0.671309955
     0.249999858  0.500000005  0.754960536
     0.593849835  0.375000016  0.718284261
     0.406150406  0.375000010  0.718284401

  ion indices of the primitive-cell ions
   primitive index   ion index
                 1           1
                 2           2
                 3           3
[...]
   6.49088273  0.00000000 15.26240370
   6.49088244 10.35117873 18.44105664
[...]
   6.49088273  5.91495925 13.28848330
   4.51696233  4.43621944 12.01696233
   8.46480312  4.43621944 12.01696233
   3.24544136  5.91495925 13.99088273
   3.24544136  5.91495925 16.53392466
   7.76240370  4.43621944 15.26240370
   5.21936176  4.43621944 15.26240370
   6.49088147  5.91495920 17.25065843
   6.49088361  5.91495926 19.79789623
   4.54426006  4.43621924 18.52485426
   8.43750600  4.43621934 18.52485272
   3.24544213  5.91495918 20.49160707
   3.24543952  5.91495932 23.04502496
   7.70921927  4.43621963 21.92548873
   5.27254931  4.43621956 21.92549300

--------------------------------------- Iteration      FINAL  ---------------------------------------

--------------------OUTCAR has been truncated-------------------------

[...]

--------------------OUTCAR has been truncated-------------------------

  FORCE on cell =-STRESS in cart. coord.  units (eV):
  Direction    XX          YY          ZZ          XY          YZ          ZX
  Alpha Z  4734.36863  4734.36863  4734.36863
  Ewald  974003.03578991253.88194************    -0.00008     0.00037  -289.56864
  Hartree************************************    -0.00004     0.00016   -93.27097
  E(xc)   -9206.92055 -9216.52119 -9204.78710     0.00000     0.00000    -0.03086
  Local  ************************************     0.00012    -0.00053   345.13862
  n-local -5219.95781 -5122.37035 -5265.17125     0.00000     0.00001     3.04908
  augment  5529.49406  5497.98239  5533.06864     0.00000     0.00000     1.60733
  Kinetic 28990.29220 28530.99192 29026.60567     0.00001     0.00001    33.00336
  Fock        0.00000     0.00000     0.00000     0.00000     0.00000     0.00000
  Total       4.68476   -45.15476   -36.10980     0.00000     0.00003    -0.07208
  in kB       1.60114   -15.43284   -12.34148     0.00000     0.00001    -0.02463

 VOLUME and BASIS-vectors are now :
  energy-cutoff  :      600.00
  volume of cell :     4687.79
      direct lattice vectors                 reciprocal lattice vectors
    12.981765453  0.000000000  0.000000000     0.077031125  0.000000000  0.000000000
     0.000000000 11.829918508  0.000000000     0.000000000  0.084531436  0.000000000
     0.000000000  0.000000000 30.524807391     0.000000000  0.000000000  0.032760239

  length of vectors
    12.981765453 11.829918508 30.524807391     0.077031125  0.084531436  0.032760239

 FORCES acting on ions:
    Electron-Ion                     Ewald-Force                    Non-Local-Force
   -.196E+02 0.830E-06 -.150E+04   0.185E+02 -.459E-06 0.150E+04   0.108E+01 -.454E-06 0.388E-01
   0.159E+03 -.359E-04 -.217E+04   -.204E+03 0.444E-04 0.222E+04   0.449E+02 -.831E-05 -.518E+02
   -.198E+03 0.561E-04 -.237E+04   0.243E+03 -.675E-04 0.233E+04   -.447E+02 0.116E-04 0.396E+02
   -.212E+00 -.735E-01 0.380E+04   0.211E+00 0.736E-01 -.381E+04   0.157E-03 0.185E-05 0.444E+00
   0.140E+00 -.109E+00 0.399E+04   -.141E+00 0.110E+00 -.398E+04   0.402E-03 -.100E-04 -.402E+01
   0.232E+00 -.110E+00 0.195E+04   -.235E+00 0.110E+00 -.195E+04   0.540E-03 0.464E-04 -.619E-01
   -.340E+00 -.879E-01 0.194E+04   0.337E+00 0.883E-01 -.194E+04   0.979E-03 -.606E-04 0.216E+00
   -.127E+01 -.336E+00 0.158E+02   0.125E+01 0.330E+00 -.150E+02   0.365E-02 0.461E-03 -.128E+00
   0.964E+00 -.871E+00 0.264E+02   -.975E+00 0.874E+00 -.274E+02   0.297E-02 -.155E-02 0.316E+00
   0.465E+01 -.277E+01 -.186E+04   -.465E+01 0.278E+01 0.186E+04   0.504E-03 -.344E-02 0.139E+00
   -.900E+01 -.565E+01 -.192E+04   0.900E+01 0.565E+01 0.192E+04   0.118E-02 -.878E-04 -.160E+00
   -.511E+02 -.202E+02 -.374E+04   0.511E+02 0.202E+02 0.374E+04   0.163E-01 -.547E-02 -.289E+00
   0.101E+02 -.103E+02 -.378E+04   -.101E+02 0.103E+02 0.378E+04   0.227E-01 -.623E-02 0.117E+01
   -.210E+00 -.734E-01 0.380E+04   0.209E+00 0.735E-01 -.381E+04   0.225E-03 0.886E-07 0.444E+00
   0.133E+00 -.385E-06 0.399E+04   -.134E+00 0.353E-06 -.398E+04   0.387E-03 0.864E-09 -.402E+01
   0.202E+00 -.111E+00 0.195E+04   -.205E+00 0.111E+00 -.195E+04   0.426E-03 0.355E-04 -.620E-01
   -.392E+00 -.319E-05 0.194E+04   0.388E+00 0.311E-05 -.194E+04   0.114E-02 -.141E-07 0.216E+00
   -.184E+01 -.334E+00 0.150E+02   0.183E+01 0.335E+00 -.142E+02   0.184E-02 0.378E-04 -.128E+00
   0.733E+00 -.841E-05 0.254E+02   -.742E+00 0.853E-05 -.265E+02   0.227E-02 0.261E-07 0.315E+00
   0.280E+01 -.256E+01 -.186E+04   -.280E+01 0.256E+01 0.186E+04   -.162E-02 -.463E-02 0.141E+00
   -.690E+01 -.221E-04 -.192E+04   0.689E+01 0.226E-04 0.192E+04   0.133E-01 -.662E-07 -.154E+00
   -.211E+02 -.144E+02 -.376E+04   0.211E+02 0.144E+02 0.376E+04   0.331E-01 0.869E-03 -.292E+00
   0.683E+01 0.697E-05 -.379E+04   -.683E+01 -.608E-05 0.379E+04   0.289E-02 -.187E-07 0.119E+01
   -.210E+00 0.734E-01 0.380E+04   0.209E+00 -.735E-01 -.381E+04   0.225E-03 -.860E-07 0.444E+00
   0.140E+00 0.109E+00 0.399E+04   -.141E+00 -.110E+00 -.398E+04   0.402E-03 0.100E-04 -.402E+01
   0.202E+00 0.111E+00 0.195E+04   -.205E+00 -.111E+00 -.195E+04   0.426E-03 -.355E-04 -.620E-01
   -.340E+00 0.879E-01 0.194E+04   0.337E+00 -.883E-01 -.194E+04   0.979E-03 0.606E-04 0.216E+00
   -.184E+01 0.334E+00 0.150E+02   0.183E+01 -.335E+00 -.142E+02   0.184E-02 -.380E-04 -.128E+00
   0.964E+00 0.871E+00 0.264E+02   -.975E+00 -.874E+00 -.274E+02   0.297E-02 0.155E-02 0.316E+00
   0.280E+01 0.256E+01 -.186E+04   -.280E+01 -.256E+01 0.186E+04   -.162E-02 0.463E-02 0.141E+00
   -.900E+01 0.565E+01 -.192E+04   0.900E+01 -.565E+01 0.192E+04   0.118E-02 0.880E-04 -.160E+00
   -.211E+02 0.144E+02 -.376E+04   0.211E+02 -.144E+02 0.376E+04   0.331E-01 -.870E-03 -.292E+00
   0.101E+02 0.103E+02 -.378E+04   -.101E+02 -.103E+02 0.378E+04   0.227E-01 0.623E-02 0.117E+01
   -.212E+00 0.735E-01 0.380E+04   0.211E+00 -.736E-01 -.381E+04   0.157E-03 -.185E-05 0.444E+00
   0.148E+00 0.384E-06 0.399E+04   -.149E+00 -.353E-06 -.398E+04   0.407E-03 0.132E-08 -.402E+01
   0.232E+00 0.110E+00 0.195E+04   -.235E+00 -.110E+00 -.195E+04   0.540E-03 -.464E-04 -.619E-01
   -.290E+00 0.322E-05 0.194E+04   0.287E+00 -.321E-05 -.194E+04   0.769E-03 0.390E-08 0.216E+00
   -.127E+01 0.336E+00 0.158E+02   0.125E+01 -.330E+00 -.150E+02   0.365E-02 -.461E-03 -.128E+00
   0.113E+01 0.564E-05 0.274E+02   -.114E+01 -.586E-05 -.284E+02   0.394E-02 -.106E-07 0.315E+00
   0.465E+01 0.277E+01 -.186E+04   -.465E+01 -.278E+01 0.186E+04   0.504E-03 0.344E-02 0.139E+00
   -.114E+02 0.526E-04 -.191E+04   0.113E+02 -.540E-04 0.191E+04   0.105E-01 0.657E-06 -.170E+00
   -.511E+02 0.202E+02 -.374E+04   0.511E+02 -.202E+02 0.374E+04   0.163E-01 0.547E-02 -.289E+00
   0.146E+02 0.460E-04 -.377E+04   -.146E+02 -.442E-04 0.377E+04   -.267E-01 -.205E-06 0.115E+01
   0.213E+00 -.847E-01 0.380E+04   -.212E+00 0.850E-01 -.381E+04   -.467E-03 -.441E-04 0.444E+00
   -.141E+00 -.114E+00 0.399E+04   0.141E+00 0.114E+00 -.398E+04   0.123E-03 -.404E-04 -.402E+01
   -.224E+00 -.214E-01 0.195E+04   0.228E+00 0.296E-01 -.195E+04   -.636E-03 -.160E-02 -.626E-01
   0.333E+00 -.133E+00 0.194E+04   -.329E+00 0.134E+00 -.194E+04   -.557E-03 0.114E-04 0.219E+00
   0.102E+01 -.623E+00 0.181E+02   -.997E+00 0.627E+00 -.174E+02   -.325E-02 -.392E-03 -.122E+00
   -.895E+00 -.178E+00 0.295E+02   0.902E+00 0.130E+00 -.304E+02   -.213E-03 0.248E-01 0.285E+00
   -.383E+01 -.695E+01 -.185E+04   0.383E+01 0.701E+01 0.185E+04   -.287E-02 -.476E-01 0.136E+00
   0.736E+01 -.817E+01 -.191E+04   -.736E+01 0.817E+01 0.191E+04   0.804E-02 -.633E-02 -.168E+00
   0.754E+02 -.364E+02 -.369E+04   -.753E+02 0.364E+02 0.369E+04   -.576E-01 0.335E-01 -.212E+00
   -.184E+02 -.668E+02 -.373E+04   0.184E+02 0.668E+02 0.372E+04   0.587E-01 -.166E-01 0.126E+01
   0.210E+00 -.845E-01 0.380E+04   -.209E+00 0.849E-01 -.381E+04   -.545E-03 -.315E-04 0.444E+00
   -.133E+00 -.507E-06 0.399E+04   0.134E+00 0.481E-06 -.398E+04   0.129E-03 0.355E-08 -.402E+01
   -.195E+00 -.246E-01 0.195E+04   0.199E+00 0.278E-01 -.195E+04   -.522E-03 -.102E-02 -.630E-01
   0.385E+00 -.169E-05 0.194E+04   -.381E+00 0.162E-05 -.194E+04   -.622E-03 -.412E-07 0.218E+00
   0.166E+01 -.702E+00 0.165E+02   -.165E+01 0.723E+00 -.157E+02   -.271E-02 -.137E-02 -.125E+00
   -.643E+00 -.206E-04 0.311E+02   0.647E+00 0.204E-04 -.322E+02   -.391E-03 0.958E-07 0.293E+00
   -.166E+01 -.893E+01 -.184E+04   0.167E+01 0.892E+01 0.184E+04   -.639E-02 0.212E-02 0.374E-01
[...]
   -.531E+02 0.382E-01 0.117E+04   0.571E+02 -.392E-01 -.117E+04   -.361E+01 0.165E-02 0.183E+00
   0.529E+02 0.232E-01 0.117E+04   -.569E+02 -.240E-01 -.117E+04   0.361E+01 0.109E-02 0.178E+00
   0.349E+00 0.242E-05 0.516E+03   -.341E+00 -.238E-05 -.520E+03   -.105E-01 -.840E-07 0.433E+01
   0.854E+00 0.707E-05 -.507E+03   -.833E+00 -.701E-05 0.514E+03   -.177E-01 -.224E-06 -.705E+01
   -.556E+02 -.105E+00 0.161E+02   0.605E+02 0.100E+00 -.163E+02   -.530E+01 0.220E-01 0.296E+00
   0.546E+02 -.125E-01 0.167E+02   -.595E+02 0.649E-02 -.170E+02   0.527E+01 0.241E-01 0.302E+00
   -.116E+01 0.664E-04 -.613E+03   0.113E+01 -.739E-04 0.606E+03   0.285E-01 0.688E-05 0.672E+01
   -.887E+01 -.332E-04 -.158E+04   0.911E+01 0.385E-04 0.158E+04   -.244E+00 -.619E-05 0.911E+00
   -.262E+02 0.420E+01 -.112E+04   0.293E+02 -.425E+01 0.112E+04   -.310E+01 0.560E-01 0.740E+00
   0.227E+02 0.310E+01 -.112E+04   -.257E+02 -.318E+01 0.112E+04   0.309E+01 0.758E-01 0.939E+00
   0.255E+02 0.255E-04 -.178E+04   -.258E+02 -.292E-04 0.178E+04   0.323E+00 0.296E-05 -.216E+01
   0.896E+02 0.224E-04 -.265E+04   -.893E+02 -.249E-04 0.267E+04   -.322E+00 0.381E-05 -.204E+02
   -.696E+02 0.367E+02 -.229E+04   0.758E+02 -.363E+02 0.229E+04   -.622E+01 -.368E+00 -.355E+01
   0.450E+02 0.526E+02 -.224E+04   -.514E+02 -.527E+02 0.224E+04   0.638E+01 0.928E-01 -.243E+01
   -.200E+01 -.407E-05 0.106E+03   -.161E-11 -.831E-12 -.159E-10   0.195E+01 -.115E-04 -.106E+03

 POSITION                                       TOTAL-FORCE (eV/Angst)
      5.46777      5.91496     24.86914        -0.002273     -0.000000     -0.001160
      4.72047      5.91496     25.75288        -0.005905      0.000000     -0.003073
      6.28477      5.91496     24.02113         0.004945      0.000000      0.000013
      9.73632      7.39370      8.77152        -0.000588      0.000039     -3.754295
      0.00000      8.87244      8.77152        -0.000352      0.000058      2.941650
      0.00000      7.39370     12.01696        -0.002918      0.000048      0.542357
      9.73632      8.87244     12.01696        -0.002413      0.000387     -0.750871
      9.73632      7.39370     15.26240        -0.014555     -0.005652      0.667773
      0.00000      8.87244     15.26240        -0.007991      0.002201     -0.736214
     12.98124      7.39393     18.44163         0.001887      0.000805     -0.002992
      9.73617      8.87237     18.62396        -0.000396     -0.001659     -0.003004
      9.72906      7.39447     21.96660        -0.001423     -0.004503     -0.000652
     -0.00057      8.87422     21.61468        -0.000282     -0.001389     -0.000884
      9.73632     10.35118      8.77152        -0.000724      0.000069     -3.754344
      0.00000      0.00000      8.77152        -0.000347      0.000000      2.941640
      0.00000     10.35118     12.01696        -0.002571      0.000042      0.542471
      9.73632      0.00000     12.01696        -0.002800     -0.000000     -0.751517
      9.73632     10.35118     15.26240        -0.007929      0.000597      0.663935
      0.00000      0.00000     15.26240        -0.005924      0.000000     -0.734370
     12.98144     10.35143     18.44265         0.001765      0.000727     -0.001182
      9.73664     -0.00000     18.62404        -0.000458      0.000001     -0.003566
      9.73477     10.35210     21.96749        -0.000981     -0.002317     -0.000876
      0.00379     -0.00000     21.61452        -0.000782      0.000001     -0.001326
      9.73632      1.47874      8.77152        -0.000724     -0.000069     -3.754344
      0.00000      2.95748      8.77152        -0.000352     -0.000058      2.941650
      0.00000      1.47874     12.01696        -0.002571     -0.000042      0.542471
      9.73632      2.95748     12.01696        -0.002413     -0.000387     -0.750870
      9.73632      1.47874     15.26240        -0.007929     -0.000595      0.663936
      0.00000      2.95748     15.26240        -0.007992     -0.002200     -0.736213
     12.98144      1.47849     18.44265         0.001764     -0.000724     -0.001182
      9.73617      2.95755     18.62396        -0.000396      0.001663     -0.003003
      9.73477      1.47782     21.96749        -0.000980      0.002315     -0.000883
     -0.00057      2.95569     21.61468        -0.000284      0.001389     -0.000890
      9.73632      4.43622      8.77152        -0.000588     -0.000039     -3.754296
      0.00000      5.91496      8.77152        -0.000392      0.000000      2.941682
      0.00000      4.43622     12.01696        -0.002918     -0.000048      0.542357
      9.73632      5.91496     12.01696        -0.001996      0.000000     -0.749921
      9.73632      4.43622     15.26240        -0.014555      0.005650      0.667774
      0.00000      5.91496     15.26240        -0.009712     -0.000000     -0.737864
     12.98124      4.43599     18.44162         0.001887     -0.000807     -0.002991
      9.73656      5.91496     18.62579        -0.000594     -0.000001      0.000230
      9.72906      4.43544     21.96660        -0.001426      0.004493     -0.000652
     -0.01192      5.91496     21.61368         0.000608      0.000002      0.000661
      3.24544      7.39370      8.77152         0.000984      0.000222     -3.755670
      6.49088      8.87244      8.77152         0.000770      0.000345      2.944059
      6.49088      7.39370     12.01696         0.003187      0.006538      0.548915
      3.24544      8.87244     12.01696         0.002872      0.000962     -0.760186
      3.24544      7.39370     15.26240         0.015578      0.003513      0.630670
      6.49088      8.87244     15.26240         0.006804     -0.022804     -0.676453
      6.49115      7.38231     18.46278        -0.001977      0.000528      0.002230
      3.24430      8.87343     18.61915         0.000596     -0.002083     -0.001529
      3.23319      7.39893     21.95020        -0.000328     -0.002604     -0.002731
      6.49495      8.87536     21.59614        -0.001273     -0.000615     -0.000278
      3.24544     10.35118      8.77152         0.001092      0.000300     -3.755628
      6.49088      0.00000      8.77152         0.000736      0.000000      2.944358
      6.49088     10.35118     12.01696         0.002862      0.002123      0.552296
      3.24544      0.00000     12.01696         0.003296     -0.000000     -0.758866
      3.24544     10.35118     15.26240         0.009426      0.020295      0.646952
      6.49088      0.00000     15.26240         0.004672     -0.000000     -0.785385
      6.49256     10.34639     18.42676        -0.001490     -0.006716     -0.003079
[...]
      6.49088      5.91496     13.28848        -0.000931      0.000000     -0.125654
      4.51696      4.43622     12.01696         0.445129      0.000629      0.057712
      8.46480      4.43622     12.01696        -0.447982      0.000298      0.056425
      3.24544      5.91496     13.99088        -0.002702      0.000000     -0.068918
      3.24544      5.91496     16.53392         0.003288     -0.000000      0.043245
      7.76240      4.43622     15.26240        -0.458666      0.017531      0.081818
      5.21936      4.43622     15.26240         0.442102      0.017991      0.081955
      6.48964      5.91496     17.25841         0.000094     -0.000001     -0.000691
      6.49338      5.91496     19.82488        -0.000451     -0.000001     -0.000667
      4.54134      4.43623     18.53246         0.000770      0.000056     -0.000574
      8.44004      4.43695     18.52731         0.000824     -0.000158     -0.000325
      3.21577      5.91496     20.48543        -0.001008     -0.000001      0.000422
      3.30432      5.91496     23.03713        -0.001755      0.000001     -0.000125
      7.70603      4.42569     21.91278        -0.001217     -0.000402      0.000147
      5.25552      4.40867     21.86622         0.000888      0.000647      0.001675
    total drift:                               -0.050797     -0.000016     -0.060334

  FREE ENERGIE OF THE ION-ELECTRON SYSTEM (eV)
  free  energy   TOTEN  =     -2735.87879106 eV

  energy  without entropy=    -2735.87879106  energy(sigma->0) =    -2735.87879106

 d Force = 0.3963097E-05[-0.394E-06, 0.832E-05]  d Energy = 0.2871297E-05 0.109E-05
 d Force = 0.6476714E+01[ 0.648E+01, 0.648E+01]  d Ewald  = 0.6476715E+01-0.704E-06

 reached required accuracy - stopping structural energy minimisation