 vasp.6.3.0 20Jan22 (build Apr  1 2022 16:44:48) complex
 executed on        HPECrayEX_GCC date 2023.03.02  02:39:30

 INCAR:
   SYSTEM = MgO-rocksalt
   ISMEAR = 0
   SIGMA = 0.05
   EDIFF = 1E-8
   ALGO = ALL
   ISTART = 0
   IBRION = 5
   POTIM = 0.01
   NFREE = 2
   ISYM = 0
   DIPOL = 0.5 0.5 0.5
   IDIPOL = 3
   LDIPOL = .TRUE.
   LHFCALC = .TRUE.
   GGA = PE
   IVDW = 13
   VDW_S8 = 1.2007
   VDW_A1 = 0.4009
   VDW_A2 = 5.0293
   ENCUT = 600
   PREC = Accurate
   LASPH = .TRUE.
   LREAL = .FALSE.
   ISPIN = 1
   NELM = 200
   NELMIN = 8
   NCORE = 8
   KPAR = 1
   LWAVE = .FALSE.
   LCHARG = .FALSE.

 POTCAR:    PAW_PBE C 08Apr2002
 POTCAR:    PAW_PBE H 15Jun2001
 POTCAR:    PAW_PBE Mg_pv 13Apr2007
 POTCAR:    PAW_PBE O 08Apr2002
 POTCAR:    PAW_PBE C 08Apr2002
   VRHFIN =C: s2p2

   TITEL  = PAW_PBE C 08Apr2002
   POMASS =   12.011; ZVAL   =    4.000    mass and valenz
   ENMAX  =  400.000; ENMIN  =  300.000 eV

   TITEL  = PAW_PBE H 15Jun2001
   POMASS =    1.000; ZVAL   =    1.000    mass and valenz
   ENMAX  =  250.000; ENMIN  =  200.000 eV

   TITEL  = PAW_PBE Mg_pv 13Apr2007
   POMASS =   24.305; ZVAL   =    8.000    mass and valenz
   ENMAX  =  403.929; ENMIN  =  302.947 eV

   TITEL  = PAW_PBE O 08Apr2002
   POMASS =   16.000; ZVAL   =    6.000    mass and valenz
   ENMAX  =  400.000; ENMIN  =  300.000 eV

  PAW_PBE C 08Apr2002                   :
  PAW_PBE H 15Jun2001                   :
  PAW_PBE Mg_pv 13Apr2007               :
  PAW_PBE O 08Apr2002                   :

 POSCAR:  C  H Mg  O
  positions in direct lattice
|           W    W    AA    RRRRR   N    N  II  N    N   GGGG   !!!           |
|           W    W   A  A   R    R  NN   N  II  NN   N  G    G  !!!           |
|           W    W  A    A  R    R  N N  N  II  N N  N  G       !!!           |
|           W WW W  AAAAAA  RRRRR   N  N N  II  N  N N  G  GGG   !            |
|           WW  WW  A    A  R   R   N   NN  II  N   NN  G    G                |
|           W    W  A    A  R    R  N    N  II  N    N   GGGG   !!!           |
|     Specifying the vdW parameters                                           |
|     VDW_S8 = 1.201                                                          |
|     VDW_A1 = 0.401                                                          |
|     VDW_A2 = 5.029                                                          |
|     in the INCAR file will overwrite the defaults for pbe0. Please make     |
|     sure that is what you intended.                                         |

 ion  position               nearest neighbor table
   1  0.500  0.500  0.791-   3 1.09   2 1.09   5 1.09   4 1.09
   2  0.500  0.607  0.820-   1 1.09
   3  0.500  0.393  0.820-   1 1.09
   4  0.608  0.500  0.762-   1 1.09
   5  0.392  0.500  0.762-   1 1.09
   6  0.250  0.000  0.353-  40 2.09  41 2.09  48 2.09  57 2.09  38 2.09
   7  0.500  0.250  0.353-  40 2.09  41 2.09  49 2.09  56 2.09  39 2.09
   8  0.250  0.250  0.451-  38 2.09  39 2.09  46 2.09  55 2.09  40 2.09  44 2.09
   9  0.500  0.000  0.451-  38 2.09  39 2.09  47 2.09  54 2.09  41 2.09  45 2.09
  10  0.250  0.000  0.550-  45 2.09  61 2.09  44 2.09  52 2.09  38 2.10  42 2.12
  11  0.500  0.250  0.550-  53 2.09  44 2.09  60 2.09  45 2.09  39 2.10  43 2.12
  12  0.250  0.250  0.647-  44 2.08  42 2.09  43 2.09  59 2.09  50 2.09
  13  0.500  0.000  0.647-  45 2.08  51 2.09  43 2.09  42 2.09  58 2.09
  14  0.250  0.500  0.353-  40 2.09  48 2.09  49 2.09  65 2.09  46 2.09
  15  0.500  0.750  0.353-  41 2.09  48 2.09  49 2.09  64 2.09  47 2.09
  16  0.250  0.750  0.451-  38 2.09  46 2.09  47 2.09  63 2.09  48 2.09  52 2.09
  17  0.500  0.500  0.451-  39 2.09  46 2.09  47 2.09  62 2.09  49 2.09  53 2.10
  18  0.250  0.500  0.550-  53 2.09  44 2.09  52 2.09  69 2.09  46 2.10  50 2.12
  19  0.500  0.750  0.550-  53 2.09  68 2.09  52 2.09  45 2.09  47 2.10  51 2.12
  20  0.250  0.750  0.647-  52 2.08  42 2.09  51 2.09  67 2.09  50 2.09
  21  0.500  0.500  0.648-  43 2.09  51 2.09  66 2.09  50 2.09  53 2.09
  22  0.750  0.000  0.353-  41 2.09  56 2.09  57 2.09  64 2.09  54 2.09
  23  0.000  0.250  0.353-  40 2.09  56 2.09  57 2.09  65 2.09  55 2.09
  24  0.750  0.250  0.451-  39 2.09  54 2.09  55 2.09  62 2.09  56 2.09  60 2.09
  25  0.000  0.000  0.451-  38 2.09  54 2.09  55 2.09  63 2.09  57 2.09  61 2.10
  26  0.750  0.000  0.550-  45 2.09  61 2.09  60 2.09  68 2.09  54 2.10  58 2.12
  27  1.000  0.250  0.550-  60 2.09  44 2.09  61 2.09  69 2.09  55 2.10  59 2.12
  28  0.750  0.250  0.647-  60 2.08  58 2.09  43 2.09  59 2.09  66 2.09
  29  1.000  1.000  0.647-  61 2.08  67 2.09  59 2.09  58 2.09  42 2.09
  30  0.750  0.500  0.353-  49 2.09  56 2.09  64 2.09  65 2.09  62 2.09
  31  0.000  0.750  0.353-  48 2.09  57 2.09  64 2.09  65 2.09  63 2.09
  32  0.750  0.750  0.451-  47 2.09  54 2.09  62 2.09  63 2.09  64 2.09  68 2.09
  33  0.000  0.500  0.451-  46 2.09  55 2.09  62 2.09  63 2.09  65 2.09  69 2.10
  34  0.750  0.500  0.550-  53 2.09  60 2.09  68 2.09  69 2.09  62 2.10  66 2.12
  35  1.000  0.750  0.550-  68 2.09  52 2.09  61 2.09  69 2.09  63 2.10  67 2.12
  36  0.750  0.750  0.647-  68 2.08  58 2.09  51 2.09  67 2.09  66 2.09
  37  1.000  0.500  0.647-  69 2.08  50 2.08  66 2.08  67 2.09  59 2.09
  38  0.250  0.000  0.451-   8 2.09   9 2.09  16 2.09  25 2.09   6 2.09  10 2.10
  39  0.500  0.250  0.451-   8 2.09   9 2.09  17 2.09  24 2.09   7 2.09  11 2.10
  40  0.250  0.250  0.353-   6 2.09   7 2.09  14 2.09  23 2.09   8 2.09
  41  0.500  0.000  0.353-   6 2.09   7 2.09  15 2.09  22 2.09   9 2.09
  42  0.250  0.000  0.650-  12 2.09  20 2.09  29 2.09  13 2.09  10 2.12
  43  0.500  0.250  0.649-  13 2.09  12 2.09  28 2.09  21 2.09  11 2.12
  44  0.250  0.250  0.549-  12 2.08  27 2.09  18 2.09  10 2.09  11 2.09   8 2.09
  45  0.500  0.000  0.549-  13 2.08  26 2.09  10 2.09  11 2.09  19 2.09   9 2.09
  46  0.250  0.500  0.451-   8 2.09  16 2.09  17 2.09  33 2.09  14 2.09  18 2.10
  47  0.500  0.750  0.451-   9 2.09  16 2.09  17 2.09  32 2.09  15 2.09  19 2.10
  48  0.250  0.750  0.353-   6 2.09  14 2.09  15 2.09  31 2.09  16 2.09
  49  0.500  0.500  0.353-   7 2.09  14 2.09  15 2.09  30 2.09  17 2.09
  50  0.250  0.500  0.650-  37 2.08  12 2.09  20 2.09  21 2.09  18 2.12
  51  0.500  0.750  0.649-  13 2.09  20 2.09  36 2.09  21 2.09  19 2.12
  52  0.250  0.750  0.549-  20 2.08  35 2.09  18 2.09  10 2.09  19 2.09  16 2.09
  53  0.500  0.500  0.550-  11 2.09  19 2.09  18 2.09  34 2.09  21 2.09  17 2.10
  54  0.750  0.000  0.451-   9 2.09  24 2.09  25 2.09  32 2.09  22 2.09  26 2.10
  55  0.000  0.250  0.451-   8 2.09  24 2.09  25 2.09  33 2.09  23 2.09  27 2.10
  56  0.750  0.250  0.353-   7 2.09  22 2.09  23 2.09  30 2.09  24 2.09
  57  0.000  0.000  0.353-   6 2.09  22 2.09  23 2.09  31 2.09  25 2.09
  58  0.750  0.000  0.650-  28 2.09  36 2.09  29 2.09  13 2.09  26 2.12
  59  1.000  0.250  0.650-  29 2.09  28 2.09  12 2.09  37 2.09  27 2.12
  60  0.750  0.250  0.549-  28 2.08  27 2.09  34 2.09  26 2.09  11 2.09  24 2.09
  61  1.000  0.000  0.549-  29 2.08  27 2.09  35 2.09  26 2.09  10 2.09  25 2.10
  62  0.750  0.500  0.451-  17 2.09  24 2.09  32 2.09  33 2.09  30 2.09  34 2.10
  63  0.000  0.750  0.451-  16 2.09  25 2.09  32 2.09  33 2.09  31 2.09  35 2.10
  64  0.750  0.750  0.353-  15 2.09  22 2.09  30 2.09  31 2.09  32 2.09
  65  0.000  0.500  0.353-  14 2.09  23 2.09  30 2.09  31 2.09  33 2.09
  66  0.750  0.500  0.650-  37 2.08  28 2.09  36 2.09  21 2.09  34 2.12
  67  1.000  0.750  0.650-  29 2.09  36 2.09  20 2.09  37 2.09  35 2.12
  68  0.750  0.750  0.549-  36 2.08  35 2.09  34 2.09  26 2.09  19 2.09  32 2.09
  69  1.000  0.500  0.549-  37 2.08  27 2.09  35 2.09  34 2.09  18 2.09  33 2.10

IMPORTANT INFORMATION: All symmetrisations will be switched off!
NOSYMM: (Re-)initialisation of all symmetry stuff for point group C_1.

                                     Primitive cell

  volume of cell :    1482.1129

  direct lattice vectors                    reciprocal lattice vectors
     8.349111827  0.000000000  0.000000000     0.119773219  0.000000000  0.000000000
     0.000000000  8.349111827  0.000000000     0.000000000  0.119773219  0.000000000
     0.000000000  0.000000000 21.261833870     0.000000000  0.000000000  0.047032632

  length of vectors
     8.349111827  8.349111827 21.261833870     0.119773219  0.119773219  0.047032632

  position of ions in fractional coordinates (direct lattice)
     0.499999845  0.499999895  0.790985147
     0.500000026  0.606873873  0.820340115
     0.500000007  0.393126242  0.820340086
     0.607710071  0.500000027  0.761840837
     0.392290109  0.500000032  0.761840868
     0.250000000  0.000000000  0.352744737
     0.500000000  0.250000000  0.352744737
     0.250000000  0.250000000  0.450914912
     0.500000000  0.000000000  0.450914912
     0.250002059  0.000000021  0.549701940
     0.499999985  0.250125161  0.549775393
     0.250052983  0.249810988  0.647256905
     0.499999998  0.000000017  0.647286844
     0.250000000  0.500000000  0.352744737
     0.500000000  0.750000000  0.352744737
     0.250000000  0.750000000  0.450914912
     0.500000000  0.500000000  0.450914912
     0.250118172  0.499999977  0.549775604
     0.500000000  0.749874868  0.549775364
     0.250053002  0.750189031  0.647256894
     0.500000008  0.499999949  0.647956803
     0.750000000  0.000000000  0.352744737
     0.000000000  0.250000000  0.352744737
     0.750000000  0.250000000  0.450914912
     0.000000000  0.000000000  0.450914912
     0.749997956  0.000000020  0.549701949
     0.999999991  0.249987696  0.549722026
     0.749947068  0.249810996  0.647256912
     0.999999968  0.999999984  0.647396083
     0.750000000  0.500000000  0.352744737
     0.000000000  0.750000000  0.352744737
     0.750000000  0.750000000  0.450914912
     0.000000000  0.500000000  0.450914912
     0.749881839  0.499999992  0.549775619
     0.999999987  0.750012315  0.549721997
     0.749947072  0.750189020  0.647256912
     0.999999997  0.500000019  0.647300533
     0.250000000  0.000000000  0.450914912
     0.500000000  0.250000000  0.450914912
     0.250000000  0.250000000  0.352744737
     0.500000000  0.000000000  0.352744737
     0.249940563  0.000000012  0.649608281
     0.500000000  0.249734324  0.649381278
     0.249916718  0.250009585  0.549418272
     0.500000016  0.000000041  0.549347396
     0.250000000  0.500000000  0.450914912
     0.500000000  0.750000000  0.450914912
     0.250000000  0.750000000  0.352744737
     0.500000000  0.500000000  0.352744737
     0.249632364  0.499999972  0.649687261
     0.499999991  0.750265729  0.649381281
     0.249916704  0.749990416  0.549418280
     0.500000002  0.499999951  0.549569470
     0.750000000  0.000000000  0.450914912
     0.000000000  0.250000000  0.450914912
     0.750000000  0.250000000  0.352744737
     0.000000000  0.000000000  0.352744737
     0.750059501  0.000000017  0.649608277
     0.999999995  0.249924609  0.649612784
     0.750083283  0.250009563  0.549418263
     0.999999989  0.000000014  0.549473329
     0.750000000  0.500000000  0.450914912
     0.000000000  0.750000000  0.450914912
     0.750000000  0.750000000  0.352744737
     0.000000000  0.500000000  0.352744737
[...]
      8.34911      4.17456     13.76280        -0.000728     -0.000001     -0.000274
      2.08728      0.00000      9.58728        -0.004404     -0.000001      0.070209
      4.17456      2.08728      9.58728        -0.000017      0.004963      0.072388
      2.08728      2.08728      7.50000        -0.000433     -0.000247     -0.564610
      4.17456      0.00000      7.50000        -0.000002     -0.000000     -0.564844
      2.08678      0.00000     13.81186         0.002196     -0.000000     -0.002463
      4.17456      2.08506     13.80704        -0.000201     -0.003193     -0.002644
      2.08658      2.08736     11.68164         0.000325      0.000469      0.001930
      4.17456      0.00000     11.68013        -0.000022     -0.000004      0.007360
      2.08728      4.17456      9.58728         0.001999      0.000001      0.074827
      4.17456      6.26183      9.58728        -0.000017     -0.004963      0.072390
      2.08728      6.26183      7.50000        -0.000433      0.000247     -0.564609
      4.17456      4.17456      7.50000        -0.000001      0.000000     -0.565110
      2.08421      4.17456     13.81354        -0.003250      0.000003     -0.004074
      4.17456      6.26405     13.80704        -0.000201      0.003187     -0.002646
      2.08658      6.26175     11.68164         0.000327     -0.000469      0.001926
      4.17456      4.17456     11.68485        -0.000199      0.000006     -0.002008
      6.26183      0.00000      9.58728         0.004410     -0.000001      0.070169
      0.00000      2.08728      9.58728         0.000022     -0.001524      0.070956
      6.26183      2.08728      7.50000         0.000438     -0.000246     -0.564617
      0.00000      0.00000      7.50000         0.000007     -0.000000     -0.564211
      6.26233      0.00000     13.81186        -0.002205     -0.000000     -0.002335
      8.34911      2.08665     13.81196         0.000208      0.003634      0.001832
      6.26253      2.08736     11.68164        -0.000325      0.000273      0.001760
      8.34911      0.00000     11.68281         0.000028     -0.000002     -0.008838
      6.26183      4.17456      9.58728        -0.001992      0.000001      0.074798
      0.00000      6.26183      9.58728         0.000021      0.001524      0.070957
      6.26183      6.26183      7.50000         0.000438      0.000246     -0.564616
      0.00000      4.17456      7.50000         0.000007      0.000000     -0.564252
      6.26490      4.17456     13.81354         0.003487      0.000001     -0.004967
      8.34911      6.26246     13.81196         0.000210     -0.003633      0.001832
      6.26253      6.26175     11.68164        -0.000325     -0.000271      0.001752
      8.34911      4.17456     11.68229         0.000249      0.000004     -0.003544
    total drift:                               -0.000176      0.000000      0.006326

  FREE ENERGIE OF THE ION-ELECTRON SYSTEM (eV)
  free  energy   TOTEN  =      -501.28780439 eV

  energy  without entropy=     -501.28780439  energy(sigma->0) =     -501.28780439

 d Force =-0.1739555E-03[-0.293E-02, 0.258E-02]  d Energy =-0.1813887E-03 0.743E-05
 d Force =-0.4865592E+01[-0.488E+01,-0.486E+01]  d Ewald  =-0.4865526E+01-0.666E-04

 Finite differences progress:
  Degree of freedom:  15/ 15
  Displacement:        2/  2
  Total:              30/ 30

 SECOND DERIVATIVES (NOT SYMMETRIZED)
               1X          1Y          1Z          2X          2Y          2Z          3X          3Y          3Z          4X          4Y          4Z          5X          5Y          5Z
  1X   -52.572684   -0.000007   -0.000556    4.161316   -0.000433   -0.000076    4.161254    0.000439   -0.000072   22.280148    0.000001  -12.065832   22.281660   -0.000015   12.066562
  1Y    -0.008080  -53.344924   -0.009070   -0.001600   22.419745   12.713967   -0.002262   22.421314  -12.714122   -0.003757    4.158149    0.001087   -0.002664    4.158767   -0.001310
  1Z    -0.000459   -0.004811  -52.235265    0.000035   12.679784   13.180917    0.000025  -12.682274   13.181976  -12.200078   -0.001711   12.810637   12.200483   -0.001714   12.810837
  2X     4.159061   -0.000721   -0.009973   -4.245461   -0.000967   -0.003082    0.200010    0.000408   -0.002351   -0.119103   -2.206720   -1.401295   -0.120963    2.206095    1.393948
  2Y    -0.002086   22.432446   12.700299   -0.004484  -24.066624  -13.901755    0.000253    1.795123    1.562740    0.003889   -0.064402   -0.186559   -0.003550   -0.067957   -0.189143
  2Z     0.000053   12.717716   13.187226   -0.000034  -13.900023  -13.945287   -0.000006   -1.557524   -1.206900    0.203705    1.352707    1.020220   -0.203725    1.352697    1.020204
  3X     4.158460    0.006721    0.002364    0.200106   -0.000019   -0.003706   -4.247404    0.004771   -0.000200   -0.122616    2.206412   -1.396613   -0.119161   -2.205608    1.399362
  3Y    -0.003091   22.434996  -12.703683   -0.000022    1.793666   -1.562443   -0.000425  -24.070778   13.902579   -0.003209   -0.066047    0.187213    0.003874   -0.064047    0.186403
  3Z     0.000006  -12.711907   13.176385    0.000005    1.562930   -1.206678   -0.000028   13.895348  -13.942823    0.205460   -1.351483    1.015897   -0.205452   -1.351490    1.015914
  4X    22.289615   -0.003142  -12.205673   -0.117343   -0.001682    0.203728   -0.117340   -0.001120    0.197720  -23.940649    0.000158   13.138496    1.722560    0.000060   -1.589958
  4Y     0.005496    4.158201   -0.005808   -2.204504   -0.071369    1.345857    2.208164   -0.066324   -1.352318   -0.004939   -4.295664    0.000974    0.002468    0.244983    0.000980
  4Z   -12.066608   -0.001573   12.815633   -1.401327   -0.187823    1.019477   -1.401689    0.187338    1.019257   13.129249    0.001213  -13.761460    1.587296   -0.000877   -1.302598
  5X    22.297741    0.000002   12.217910   -0.116164   -0.000499   -0.201591   -0.116172    0.000501   -0.201611    1.720336   -0.000008    1.586760  -23.949054    0.000039  -13.136787
  5Y     0.001216    4.158321    0.001610    2.207362   -0.066658    1.351305   -2.204361   -0.070799   -1.346325    0.001142    0.244984   -0.001186   -0.003480   -4.296578    0.000085
  5Z    12.067094   -0.001838   12.815622    1.401314   -0.187668    1.019540    1.401711    0.187163    1.019319   -1.587206   -0.000956   -1.302296  -13.129617    0.001181  -13.761705

 Eigenvectors and eigenvalues of the dynamical matrix

   1 f  =   95.171540 THz   597.980421 2PiTHz 3174.580859 cm-1   393.597686 meV
             X         Y         Z           dx          dy          dz
      4.174555  4.174555 16.817795    -0.000156    0.303860   -0.000095
      4.174556  5.066858 17.441935    -0.000051   -0.545434   -0.394672
      4.174556  3.282255 17.441935     0.000002   -0.545713    0.394813
      5.073839  4.174556 16.198133     0.000137    0.019038   -0.000064
      3.275274  4.174556 16.198134     0.000426    0.019030    0.000289
      2.087278  0.000000  7.500000            0           0           0
      4.174556  2.087278  7.500000            0           0           0
      2.087278  2.087278  9.587278            0           0           0
      4.174556  0.000000  9.587278            0           0           0
      2.087295  0.000000 11.687671            0           0           0
      4.174556  2.088323 11.689233            0           0           0
      2.087720  2.085700 13.761869            0           0           0
      4.174556  0.000000 13.762505            0           0           0
      2.087278  4.174556  7.500000            0           0           0
      4.174556  6.261834  7.500000            0           0           0
      2.087278  6.261834  9.587278            0           0           0
      4.174556  4.174556  9.587278            0           0           0
      2.088265  4.174556 11.689238            0           0           0
      4.174556  6.260789 11.689232            0           0           0
      2.087720  6.263412 13.761869            0           0           0
      4.174556  4.174555 13.776750            0           0           0
      6.261834  0.000000  7.500000            0           0           0
      0.000000  2.087278  7.500000            0           0           0
      6.261834  2.087278  9.587278            0           0           0
      0.000000  0.000000  9.587278            0           0           0
      6.261817  0.000000 11.687672            0           0           0
      8.349112  2.087175 11.688098            0           0           0
      6.261392  2.085700 13.761869            0           0           0
      8.349112  8.349112 13.764828            0           0           0
      6.261834  4.174556  7.500000            0           0           0
      0.000000  6.261834  7.500000            0           0           0
      6.261834  6.261834  9.587278            0           0           0
      0.000000  4.174556  9.587278            0           0           0
      6.260847  4.174556 11.689238            0           0           0
      8.349112  6.261937 11.688098            0           0           0
      6.261392  6.263412 13.761869            0           0           0
      8.349112  4.174556 13.762796            0           0           0
      2.087278  0.000000  9.587278            0           0           0
      4.174556  2.087278  9.587278            0           0           0
      2.087278  2.087278  7.500000            0           0           0
      4.174556  0.000000  7.500000            0           0           0
      2.086782  0.000000 13.811863            0           0           0
      4.174556  2.085060 13.807037            0           0           0
      2.086583  2.087358 11.681640            0           0           0
      4.174556  0.000000 11.680133            0           0           0
      2.087278  4.174556  9.587278            0           0           0
      4.174556  6.261834  9.587278            0           0           0
      2.087278  6.261834  7.500000            0           0           0
      4.174556  4.174556  7.500000            0           0           0
      2.084209  4.174556 13.813543            0           0           0
      4.174556  6.264052 13.807037            0           0           0
      2.086583  6.261754 11.681640            0           0           0
      4.174556  4.174556 11.684855            0           0           0
      6.261834  0.000000  9.587278            0           0           0
      0.000000  2.087278  9.587278            0           0           0
      6.261834  2.087278  7.500000            0           0           0
      0.000000  0.000000  7.500000            0           0           0
      6.262331  0.000000 13.811863            0           0           0
      8.349112  2.086649 13.811959            0           0           0
      6.262529  2.087358 11.681640            0           0           0
      8.349112  0.000000 11.682811            0           0           0
      6.261834  4.174556  9.587278            0           0           0
      0.000000  6.261834  9.587278            0           0           0
      6.261834  6.261834  7.500000            0           0           0
      0.000000  4.174556  7.500000            0           0           0
      6.264903  4.174556 13.813542            0           0           0
      8.349112  6.262463 13.811959            0           0           0
      6.262529  6.261754 11.681640            0           0           0
      8.349112  4.174556 11.682288            0           0           0

[...]

  15 f  =    0.632486 THz     3.974024 2PiTHz   21.097445 cm-1     2.615749 meV
             X         Y         Z           dx          dy          dz
      4.174555  4.174555 16.817795    -0.071404    0.763834   -0.029554
      4.174556  5.066858 17.441935    -0.033797    0.382966   -0.240944
      4.174556  3.282255 17.441935    -0.013718    0.382867    0.223886
      5.073839  4.174556 16.198133    -0.016818    0.068364   -0.003066
      3.275274  4.174556 16.198134    -0.017072    0.048803   -0.013682
      2.087278  0.000000  7.500000            0           0           0
      4.174556  2.087278  7.500000            0           0           0
      2.087278  2.087278  9.587278            0           0           0
      4.174556  0.000000  9.587278            0           0           0
      2.087295  0.000000 11.687671            0           0           0
      4.174556  2.088323 11.689233            0           0           0
      2.087720  2.085700 13.761869            0           0           0
      4.174556  0.000000 13.762505            0           0           0
      2.087278  4.174556  7.500000            0           0           0
      4.174556  6.261834  7.500000            0           0           0
      2.087278  6.261834  9.587278            0           0           0
      4.174556  4.174556  9.587278            0           0           0
      2.088265  4.174556 11.689238            0           0           0
      4.174556  6.260789 11.689232            0           0           0
      2.087720  6.263412 13.761869            0           0           0
      4.174556  4.174555 13.776750            0           0           0
      6.261834  0.000000  7.500000            0           0           0
      0.000000  2.087278  7.500000            0           0           0
      6.261834  2.087278  9.587278            0           0           0
      0.000000  0.000000  9.587278            0           0           0
      6.261817  0.000000 11.687672            0           0           0
      8.349112  2.087175 11.688098            0           0           0
      6.261392  2.085700 13.761869            0           0           0
      8.349112  8.349112 13.764828            0           0           0
      6.261834  4.174556  7.500000            0           0           0
      0.000000  6.261834  7.500000            0           0           0
      6.261834  6.261834  9.587278            0           0           0
      0.000000  4.174556  9.587278            0           0           0
      6.260847  4.174556 11.689238            0           0           0
      8.349112  6.261937 11.688098            0           0           0
      6.261392  6.263412 13.761869            0           0           0
      8.349112  4.174556 13.762796            0           0           0
      2.087278  0.000000  9.587278            0           0           0
      4.174556  2.087278  9.587278            0           0           0
      2.087278  2.087278  7.500000            0           0           0
      4.174556  0.000000  7.500000            0           0           0
      2.086782  0.000000 13.811863            0           0           0
      4.174556  2.085060 13.807037            0           0           0
      2.086583  2.087358 11.681640            0           0           0
      4.174556  0.000000 11.680133            0           0           0
      2.087278  4.174556  9.587278            0           0           0
      4.174556  6.261834  9.587278            0           0           0
      2.087278  6.261834  7.500000            0           0           0
      4.174556  4.174556  7.500000            0           0           0
      2.084209  4.174556 13.813543            0           0           0
      4.174556  6.264052 13.807037            0           0           0
      2.086583  6.261754 11.681640            0           0           0
      4.174556  4.174556 11.684855            0           0           0
      6.261834  0.000000  9.587278            0           0           0
      0.000000  2.087278  9.587278            0           0           0
      6.261834  2.087278  7.500000            0           0           0
      0.000000  0.000000  7.500000            0           0           0
      6.262331  0.000000 13.811863            0           0           0
      8.349112  2.086649 13.811959            0           0           0
      6.262529  2.087358 11.681640            0           0           0
      8.349112  0.000000 11.682811            0           0           0
      6.261834  4.174556  9.587278            0           0           0
      0.000000  6.261834  9.587278            0           0           0
      6.261834  6.261834  7.500000            0           0           0
      0.000000  4.174556  7.500000            0           0           0
      6.264903  4.174556 13.813542            0           0           0
      8.349112  6.262463 13.811959            0           0           0
      6.262529  6.261754 11.681640            0           0           0
      8.349112  4.174556 11.682288            0           0           0

 Finite differences POTIM=   1.0000000000000000E-002