 vasp.6.3.0 20Jan22 (build Mar 11 2022 13:48:16) complex

 executed on             LinuxIFC date 2024.08.24  20:06:13

 INCAR:
   SYSTEM = MgO-rocksalt
   ISMEAR = 0
   SIGMA = 0.05
   EDIFF = 1E-7
   ALGO = ALL
   ISTART = 0
   IBRION = 2
   NSW = 1000
   ISYM = 0
   ISIF = 2
   EDIFFG = -0.01
   DIPOL = 0.5 0.5 0.5
   IDIPOL = 3
   LDIPOL = .TRUE.
   GGA = MK
   LUSE_VDW = .TRUE.
   PARAM1 = 0.1234
   PARAM2 = 0.711357
   ZAB_VDW = -1.8867
   AGGAC = 0.0
   ENCUT = 600
   PREC = Accurate
   LASPH = .TRUE.
   LREAL = .FALSE.
   ISPIN = 1
   NELM = 200
   NELMIN = 8
   NCORE = 8
   KPAR = 1
   LWAVE = .FALSE.
   LCHARG = .FALSE.

 POTCAR:    PAW_PBE Ti_pv 07Sep2000
 POTCAR:    PAW_PBE O 08Apr2002
|           W    W    AA    RRRRR   N    N  II  N    N   GGGG   !!!           |
|           W    W   A  A   R    R  NN   N  II  NN   N  G    G  !!!           |
|           W    W  A    A  R    R  N N  N  II  N N  N  G       !!!           |
|           W WW W  AAAAAA  RRRRR   N  N N  II  N  N N  G  GGG   !            |
|           WW  WW  A    A  R   R   N   NN  II  N   NN  G    G                |
|           W    W  A    A  R    R  N    N  II  N    N   GGGG   !!!           |
|     For optimal performance we recommend to set                             |
|       NCORE = 2 up to number-of-cores-per-socket                            |
|     This setting can greatly improve the performance of VASP for DFT.       |
|     The default, NCORE=1 might be grossly inefficient on modern             |
|     multi-core architectures or massively parallel machines. Do your        |
|     Unfortunately you need to use the default for GW and RPA                |
|     calculations (for HF NCORE is supported but not extensively tested      |
|     yet).                                                                   |

   TITEL  = PAW_PBE Ti_pv 07Sep2000
   POMASS =   47.880; ZVAL   =   10.000    mass and valenz
   ENMAX  =  222.335; ENMIN  =  166.751 eV

   TITEL  = PAW_PBE O 08Apr2002
   POMASS =   16.000; ZVAL   =    6.000    mass and valenz
   ENMAX  =  400.000; ENMIN  =  300.000 eV

  PAW_PBE Ti_pv 07Sep2000               :
  PAW_PBE O 08Apr2002                   :

 POSCAR: Ti  O
  positions in direct lattice
 exchange correlation table for  LEXCH =       43
   RHO(1)=    0.500       N(1)  =     2000
   RHO(2)=  100.500       N(2)  =     4000

 ion  position               nearest neighbor table
   1  0.750  0.625  0.287-  81 1.96  82 1.96 141 1.96 142 1.96  84 1.99 163 1.99  11 2.96  31 2.96

   2  0.000  0.750  0.287-  83 1.96  84 1.96 103 1.96 104 1.96  85 1.99  32 2.96  12 2.96
   3  0.000  0.625  0.393-  85 1.96  86 1.96 145 1.96 146 1.96  87 1.99  88 1.99  13 2.96  33 2.96

[...]

  80  0.500  0.500  0.713- 179 1.96 180 1.96 239 1.96 240 1.96 234 1.99  70 2.96  50 2.96
  81  0.750  0.750  0.245-   1 1.96  11 1.96
  82  0.750  0.750  0.328-   1 1.96  11 1.96   4 1.99
  83  0.098  0.625  0.287-   2 1.96  32 1.96  41 1.99
  84  0.902  0.625  0.287-   2 1.96  32 1.96   1 1.99
  85  0.000  0.750  0.352-   3 1.96  13 1.96   2 1.99
  86  0.000  0.750  0.435-   3 1.96  13 1.96   6 1.99
  87  0.848  0.625  0.393-   4 1.96  34 1.96   3 1.99
  88  0.152  0.625  0.393-  44 1.96  74 1.96   3 1.99
  89  0.750  0.750  0.458-   5 1.96  15 1.96   4 1.99
  90  0.750  0.750  0.542-   5 1.96  15 1.96   8 1.99
  91  0.098  0.625  0.500-   6 1.96  36 1.96  45 1.99
  92  0.902  0.625  0.500-   6 1.96  36 1.96   5 1.99
  93  0.000  0.750  0.565-   7 1.96  17 1.96   6 1.99
  94  0.000  0.750  0.648-   7 1.96  17 1.96  10 1.99
  95  0.848  0.625  0.607-   8 1.96  38 1.96   7 1.99
  96  0.152  0.625  0.607-  48 1.96  78 1.96   7 1.99
  97  0.750  0.750  0.672-   9 1.96  19 1.96   8 1.99
  98  0.750  0.750  0.755-   9 1.96  19 1.96
  99  0.098  0.625  0.713-  10 1.96  40 1.96  49 1.99
 100  0.902  0.625  0.713-  10 1.96  40 1.96   9 1.99
 101  0.750  0.000  0.245-  11 1.96  21 1.96
 102  0.750  0.000  0.328-  11 1.96  21 1.96  14 1.99
 103  0.098  0.875  0.287-   2 1.96  12 1.96  51 1.99
 104  0.902  0.875  0.287-   2 1.96  12 1.96  11 1.99
 105  0.000  0.000  0.352-  13 1.96  23 1.96  12 1.99
 106  0.000  0.000  0.435-  13 1.96  23 1.96  16 1.99
 107  0.848  0.875  0.393-   4 1.96  14 1.96  13 1.99
 108  0.152  0.875  0.393-  44 1.96  54 1.96  13 1.99
 109  0.750  0.000  0.458-  15 1.96  25 1.96  14 1.99
 110  0.750  0.000  0.542-  15 1.96  25 1.96  18 1.99
 111  0.098  0.875  0.500-   6 1.96  16 1.96  55 1.99
 112  0.902  0.875  0.500-   6 1.96  16 1.96  15 1.99
 113  0.000  0.000  0.565-  17 1.96  27 1.96  16 1.99
 114  0.000  0.000  0.648-  17 1.96  27 1.96  20 1.99
 115  0.848  0.875  0.607-   8 1.96  18 1.96  17 1.99
 116  0.152  0.875  0.607-  48 1.96  58 1.96  17 1.99
 117  0.750  0.000  0.672-  19 1.96  29 1.96  18 1.99
 118  0.750  0.000  0.755-  19 1.96  29 1.96
 119  0.098  0.875  0.713-  10 1.96  20 1.96  59 1.99
 120  0.902  0.875  0.713-  10 1.96  20 1.96  19 1.99
 121  0.750  0.250  0.245-  21 1.96  31 1.96
 122  0.750  0.250  0.328-  21 1.96  31 1.96  24 1.99
 123  0.098  0.125  0.287-  12 1.96  22 1.96  61 1.99
 124  0.902  0.125  0.287-  12 1.96  22 1.96  21 1.99
 125  0.000  0.250  0.352-  23 1.96  33 1.96  22 1.99
 126  0.000  0.250  0.435-  23 1.96  33 1.96  26 1.99
 127  0.848  0.125  0.393-  14 1.96  24 1.96  23 1.99
 128  0.152  0.125  0.393-  54 1.96  64 1.96  23 1.99
 129  0.750  0.250  0.458-  25 1.96  35 1.96  24 1.99
 130  0.750  0.250  0.542-  25 1.96  35 1.96  28 1.99
 131  0.098  0.125  0.500-  16 1.96  26 1.96  65 1.99
 132  0.902  0.125  0.500-  16 1.96  26 1.96  25 1.99
 133  0.000  0.250  0.565-  27 1.96  37 1.96  26 1.99
 134  0.000  0.250  0.648-  27 1.96  37 1.96  30 1.99
 135  0.848  0.125  0.607-  18 1.96  28 1.96  27 1.99
 136  0.152  0.125  0.607-  58 1.96  68 1.96  27 1.99
 137  0.750  0.250  0.672-  29 1.96  39 1.96  28 1.99
 138  0.750  0.250  0.755-  29 1.96  39 1.96
 139  0.098  0.125  0.713-  20 1.96  30 1.96  69 1.99
[...]
 226  0.500  0.500  0.435-  43 1.96  73 1.96  76 1.99
 227  0.348  0.375  0.393-  64 1.96  74 1.96  73 1.99
 228  0.652  0.375  0.393-  24 1.96  34 1.96  73 1.99
 229  0.250  0.500  0.458-  45 1.96  75 1.96  74 1.99
 230  0.250  0.500  0.542-  45 1.96  75 1.96  78 1.99
 231  0.598  0.375  0.500-  66 1.96  76 1.96  35 1.99
 232  0.402  0.375  0.500-  66 1.96  76 1.96  75 1.99
 233  0.500  0.500  0.565-  47 1.96  77 1.96  76 1.99
 234  0.500  0.500  0.648-  47 1.96  77 1.96  80 1.99
 235  0.348  0.375  0.607-  68 1.96  78 1.96  77 1.99
 236  0.652  0.375  0.607-  28 1.96  38 1.96  77 1.99
 237  0.250  0.500  0.672-  49 1.96  79 1.96  78 1.99
 238  0.250  0.500  0.755-  49 1.96  79 1.96
 239  0.598  0.375  0.713-  70 1.96  80 1.96  39 1.99
 240  0.402  0.375  0.713-  70 1.96  80 1.96  79 1.99

IMPORTANT INFORMATION: All symmetrisations will be switched off!
NOSYMM: (Re-)initialisation of all symmetry stuff for point group C_1.

                                     Primitive cell

  volume of cell :    4737.1735

  direct lattice vectors                    reciprocal lattice vectors
    13.061198858  0.000000000  0.000000000     0.076562650  0.000000000  0.000000000
     0.000000000 11.845266045  0.000000000     0.000000000  0.084421911  0.000000000
     0.000000000  0.000000000 30.619030317     0.000000000  0.000000000  0.032659427

  length of vectors
    13.061198858 11.845266045 30.619030317     0.076562650  0.084421911  0.032659427

  position of ions in fractional coordinates (direct lattice)
     0.750000000  0.625000000  0.286714362
     0.000000000  0.750000000  0.286714362
     0.000000000  0.625000000  0.393357181
     0.750000000  0.750000000  0.393357181
     0.750000000  0.625000000  0.500000000
     0.000000000  0.750000000  0.500000000
     0.000000000  0.625000000  0.606642819
     0.750000000  0.750000000  0.606642819
     0.750000000  0.625000000  0.713285638
     0.000000000  0.750000000  0.713285638
     0.750000000  0.875000000  0.286714362
     0.000000000  0.000000000  0.286714362
     0.000000000  0.875000000  0.393357181
     0.750000000  0.000000000  0.393357181
     0.750000000  0.875000000  0.500000000
     0.000000000  0.000000000  0.500000000
     0.000000000  0.875000000  0.606642819
     0.750000000  0.000000000  0.606642819
     0.750000000  0.875000000  0.713285638
     0.000000000  0.000000000  0.713285638
     0.750000000  0.125000000  0.286714362
     0.000000000  0.250000000  0.286714362
     0.000000000  0.125000000  0.393357181
     0.750000000  0.250000000  0.393357181
     0.750000000  0.125000000  0.500000000
     0.000000000  0.250000000  0.500000000
     0.000000000  0.125000000  0.606642819
     0.750000000  0.250000000  0.606642819
     0.750000000  0.125000000  0.713285638
     0.000000000  0.250000000  0.713285638
     0.750000000  0.375000000  0.286714362
     0.000000000  0.500000000  0.286714362
     0.000000000  0.375000000  0.393357181
     0.750000000  0.500000000  0.393357181
     0.750000000  0.375000000  0.500000000
     0.000000000  0.500000000  0.500000000
     0.000000000  0.375000000  0.606642819
     0.750000000  0.500000000  0.606642819
     0.750000000  0.375000000  0.713285638
     0.000000000  0.500000000  0.713285638
     0.250000000  0.625000000  0.286714362
     0.500000000  0.750000000  0.286714362
     0.500000000  0.625000000  0.393357181
     0.250000000  0.750000000  0.393357181
     0.250000000  0.625000000  0.500000000
     0.500000000  0.750000000  0.500000000
     0.500000000  0.625000000  0.606642819
     0.250000000  0.750000000  0.606642819
     0.250000000  0.625000000  0.713285638
     0.500000000  0.750000000  0.713285638
     0.250000000  0.875000000  0.286714362
     0.500000000  0.000000000  0.286714362
     0.500000000  0.875000000  0.393357181
     0.250000000  0.000000000  0.393357181
     0.250000000  0.875000000  0.500000000
     0.500000000  0.000000000  0.500000000
     0.500000000  0.875000000  0.606642819
     0.250000000  0.000000000  0.606642819
     0.250000000  0.875000000  0.713285638
     0.500000000  0.000000000  0.713285638
[...]
     0.500000000  0.500000000  0.435125836
     0.347917178  0.375000000  0.393357181
     0.652082822  0.375000000  0.393357181
     0.250000000  0.500000000  0.458231344
     0.250000000  0.500000000  0.541768656
     0.597917178  0.375000000  0.500000000
     0.402082822  0.375000000  0.500000000
     0.500000000  0.500000000  0.564874164
     0.500000000  0.500000000  0.648411475
     0.347917178  0.375000000  0.606642819
     0.652082822  0.375000000  0.606642819
     0.250000000  0.500000000  0.671516983
     0.250000000  0.500000000  0.755054294
     0.597917178  0.375000000  0.713285638
     0.402082822  0.375000000  0.713285638

  ion indices of the primitive-cell ions
   primitive index   ion index
                 1           1
                 2           2
                 3           3
                 4           4
                 5           5
                 6           6
                 7           7
                 8           8
                 9           9
                10          10
                11          11
                12          12
                13          13
[...]
   4.54421544  4.44197477 18.57481487
   8.51698341  4.44197477 18.57481487
   3.26529971  5.92263302 20.56119886
   3.26529971  5.92263302 23.11903032
   7.80951516  4.44197477 21.84011459
   5.25168370  4.44197477 21.84011459

--------------------------------------- Iteration      FINAL  ---------------------------------------

--------------------OUTCAR has been truncated-------------------------

[...]

--------------------OUTCAR has been truncated-------------------------

  FORCE on cell =-STRESS in cart. coord.  units (eV):
  Direction    XX          YY          ZZ          XY          YZ          ZX
  Alpha Z  4617.97161  4617.97161  4617.97161
  Ewald  974427.40974992393.53112************    -0.00002     0.00017     0.00008
  Hartree************************************    -0.00001     0.00005     0.00011
  E(xc)   -8601.33606 -8595.86680 -8597.99367    -0.00000     0.00000    -0.00000
  Local  ************************************     0.00003    -0.00022    -0.00019
  n-local -5470.74812 -5396.11644 -5513.92944    -0.00000    -0.00000     0.00000
  augment  5250.82576  5227.32593  5255.02110     0.00000     0.00000    -0.00000
  Kinetic 28566.66300 28105.03394 28613.23342     0.00000    -0.00000     0.00000
  Fock        0.00000     0.00000     0.00000     0.00000     0.00000     0.00000
  Total       2.72083   -39.94663   -34.00611    -0.00000    -0.00000     0.00000
  in kB       0.92022   -13.51050   -11.50133    -0.00000    -0.00000     0.00000

 VOLUME and BASIS-vectors are now :
  energy-cutoff  :      600.00
  volume of cell :     4737.17
      direct lattice vectors                 reciprocal lattice vectors
    13.061198858  0.000000000  0.000000000     0.076562650  0.000000000  0.000000000
     0.000000000 11.845266045  0.000000000     0.000000000  0.084421911  0.000000000
     0.000000000  0.000000000 30.619030317     0.000000000  0.000000000  0.032659427

  length of vectors
    13.061198858 11.845266045 30.619030317     0.076562650  0.084421911  0.032659427

 FORCES acting on ions:
    Electron-Ion                     Ewald-Force                    Non-Local-Force
   -.243E-05 0.424E-06 0.377E+04   0.238E-05 -.473E-06 -.377E+04   -.181E-07 0.249E-07 0.356E+00
   0.235E-06 -.623E-07 0.395E+04   -.251E-06 0.399E-07 -.394E+04   -.122E-07 0.166E-07 -.369E+01
   0.156E-05 0.181E-05 0.191E+04   -.148E-05 -.198E-05 -.191E+04   0.306E-08 0.269E-07 -.425E-01
   -.119E-04 -.239E-06 0.191E+04   0.118E-04 0.198E-06 -.191E+04   -.199E-07 -.136E-07 0.200E+00
   -.542E-04 0.251E-04 -.195E+02   0.543E-04 -.275E-04 0.203E+02   -.455E-08 0.332E-06 -.121E+00
   0.203E-04 -.786E-05 -.744E+01   -.190E-04 0.764E-05 0.640E+01   -.363E-06 -.857E-07 0.324E+00
   0.174E-03 0.627E-04 -.188E+04   -.172E-03 -.675E-04 0.188E+04   -.123E-05 0.139E-05 0.383E-01
   -.547E-04 -.129E-03 -.195E+04   0.506E-04 0.130E-03 0.195E+04   0.108E-05 -.374E-06 -.629E-01
   -.281E-03 0.122E-03 -.376E+04   0.288E-03 -.131E-03 0.376E+04   0.249E-05 0.257E-05 -.117E+00
   0.386E-04 -.606E-04 -.378E+04   -.423E-04 0.622E-04 0.378E+04   0.772E-06 0.670E-06 0.945E+00
   -.237E-05 -.452E-06 0.377E+04   0.240E-05 0.515E-06 -.377E+04   0.432E-08 0.300E-07 0.356E+00
   0.360E-06 -.485E-06 0.395E+04   -.400E-06 0.516E-06 -.394E+04   -.139E-07 -.419E-08 -.369E+01
   0.169E-05 -.249E-05 0.191E+04   -.160E-05 0.250E-05 -.191E+04   -.412E-09 -.754E-08 -.425E-01
   -.117E-04 -.462E-05 0.191E+04   0.117E-04 0.473E-05 -.191E+04   -.153E-07 -.278E-07 0.200E+00
   -.551E-04 -.230E-04 -.195E+02   0.549E-04 0.241E-04 0.203E+02   -.953E-08 -.124E-06 -.121E+00
   0.325E-04 -.146E-04 -.744E+01   -.315E-04 0.153E-04 0.640E+01   -.290E-06 -.297E-06 0.324E+00
   0.203E-04 0.825E-04 -.188E+04   -.166E-04 -.818E-04 0.188E+04   -.999E-06 -.346E-06 0.383E-01
   -.952E-04 0.901E-04 -.195E+04   0.920E-04 -.918E-04 0.195E+04   0.827E-06 0.274E-06 -.629E-01
   -.380E-03 0.960E-04 -.376E+04   0.387E-03 -.950E-04 0.376E+04   0.318E-05 -.111E-05 -.117E+00
   0.155E-04 -.541E-04 -.378E+04   -.130E-04 0.568E-04 0.378E+04   -.878E-06 0.304E-06 0.945E+00
   -.236E-05 -.408E-06 0.377E+04   0.236E-05 0.469E-06 -.377E+04   -.540E-08 -.271E-07 0.356E+00
   0.473E-06 0.460E-07 0.395E+04   -.526E-06 -.378E-07 -.394E+04   -.187E-07 -.142E-07 -.369E+01
   0.366E-05 -.176E-05 0.191E+04   -.366E-05 0.179E-05 -.191E+04   0.283E-07 -.715E-08 -.425E-01
   -.113E-04 0.176E-06 0.191E+04   0.113E-04 -.114E-06 -.191E+04   -.401E-08 0.102E-07 0.200E+00
   -.539E-04 -.224E-04 -.195E+02   0.539E-04 0.248E-04 0.203E+02   -.616E-07 -.248E-06 -.121E+00
   0.447E-04 0.441E-05 -.744E+01   -.441E-04 -.440E-05 0.640E+01   -.184E-06 0.185E-06 0.324E+00
   0.117E-03 0.805E-06 -.188E+04   -.113E-03 -.426E-05 0.188E+04   -.157E-05 0.138E-05 0.383E-01
   -.433E-04 -.112E-03 -.195E+04   0.412E-04 0.113E-03 0.195E+04   0.383E-06 -.485E-06 -.629E-01
   -.249E-03 -.347E-05 -.376E+04   0.253E-03 0.637E-05 0.376E+04   0.155E-05 -.198E-05 -.117E+00
   0.229E-05 -.644E-04 -.378E+04   0.646E-06 0.635E-04 0.378E+04   -.111E-06 0.299E-07 0.945E+00
   -.224E-05 0.453E-06 0.377E+04   0.234E-05 -.511E-06 -.377E+04   0.319E-07 -.481E-07 0.356E+00
   0.347E-06 0.497E-06 0.395E+04   -.378E-06 -.518E-06 -.394E+04   -.118E-07 -.630E-08 -.369E+01
   0.346E-05 0.244E-05 0.191E+04   -.348E-05 -.231E-05 -.191E+04   0.961E-08 -.272E-07 -.425E-01
   -.115E-04 0.467E-05 0.191E+04   0.115E-04 -.482E-05 -.191E+04   -.145E-07 0.168E-07 0.200E+00
   -.504E-04 0.199E-04 -.195E+02   0.504E-04 -.209E-04 0.203E+02   -.426E-07 0.649E-07 -.121E+00
   0.341E-04 0.145E-04 -.744E+01   -.333E-04 -.150E-04 0.640E+01   -.210E-06 0.248E-06 0.324E+00
   0.295E-04 -.804E-04 -.188E+04   -.245E-04 0.875E-04 0.188E+04   -.131E-05 -.260E-05 0.383E-01
   -.118E-05 0.192E-03 -.195E+04   -.199E-05 -.194E-03 0.195E+04   0.568E-06 0.702E-06 -.629E-01
   -.796E-04 -.159E-03 -.376E+04   0.796E-04 0.166E-03 0.376E+04   -.904E-06 -.290E-06 -.117E+00
   0.126E-04 -.421E-04 -.378E+04   -.134E-04 0.420E-04 0.378E+04   -.363E-06 0.713E-06 0.945E+00
   0.231E-05 0.351E-06 0.377E+04   -.236E-05 -.276E-06 -.377E+04   -.976E-08 0.518E-07 0.356E+00
   -.210E-06 -.347E-07 0.395E+04   0.230E-06 0.963E-08 -.394E+04   0.154E-07 0.123E-07 -.369E+01
   -.105E-05 0.254E-05 0.191E+04   0.964E-06 -.262E-05 -.191E+04   -.563E-08 0.658E-08 -.425E-01
   0.114E-04 0.567E-07 0.191E+04   -.114E-04 -.642E-07 -.191E+04   0.461E-07 0.159E-07 0.200E+00
   0.396E-04 0.143E-05 -.195E+02   -.396E-04 -.904E-06 0.203E+02   0.434E-07 -.145E-06 -.121E+00
   -.178E-04 -.449E-05 -.744E+01   0.163E-04 0.482E-05 0.640E+01   0.569E-06 -.222E-06 0.324E+00
   -.252E-05 -.701E-04 -.188E+04   0.623E-06 0.701E-04 0.188E+04   0.107E-05 0.315E-06 0.383E-01
   -.476E-06 0.129E-03 -.195E+04   0.332E-05 -.130E-03 0.195E+04   -.522E-06 0.582E-06 -.629E-01
   0.302E-04 -.626E-04 -.376E+04   -.331E-04 0.671E-04 0.376E+04   -.174E-06 -.546E-06 -.117E+00
   0.292E-03 0.203E-03 -.378E+04   -.298E-03 -.207E-03 0.378E+04   0.595E-06 -.113E-05 0.945E+00
   0.237E-05 -.375E-06 0.377E+04   -.238E-05 0.283E-06 -.377E+04   0.482E-08 -.451E-08 0.356E+00
   -.336E-06 -.544E-06 0.395E+04   0.378E-06 0.580E-06 -.394E+04   0.224E-07 -.420E-08 -.369E+01
   -.126E-05 -.274E-05 0.191E+04   0.114E-05 0.270E-05 -.191E+04   -.350E-07 0.442E-08 -.425E-01
   0.112E-04 -.146E-05 0.191E+04   -.112E-04 0.152E-05 -.191E+04   0.210E-07 -.845E-08 0.200E+00
   0.406E-04 0.576E-05 -.195E+02   -.405E-04 -.754E-05 0.203E+02   0.226E-07 0.183E-06 -.121E+00
   -.283E-04 -.194E-04 -.744E+01   0.272E-04 0.198E-04 0.640E+01   0.407E-06 -.247E-06 0.324E+00
   0.462E-04 0.135E-04 -.188E+04   -.486E-04 -.157E-04 0.188E+04   0.797E-06 0.163E-05 0.383E-01
   -.289E-04 0.268E-04 -.195E+04   0.317E-04 -.267E-04 0.195E+04   -.420E-06 -.168E-06 -.629E-01
   0.148E-03 0.461E-03 -.376E+04   -.154E-03 -.477E-03 0.376E+04   -.132E-05 0.685E-05 -.117E+00
   -.133E-04 0.275E-03 -.378E+04   0.133E-04 -.280E-03 0.378E+04   -.256E-06 -.911E-06 0.945E+00
[...]
   -.544E+02 0.823E-06 0.114E+04   0.585E+02 -.834E-06 -.114E+04   -.363E+01 -.975E-07 0.160E+00
   0.544E+02 0.199E-05 0.114E+04   -.585E+02 -.202E-05 -.114E+04   0.363E+01 0.342E-08 0.160E+00
   0.154E-04 0.166E-05 0.495E+03   -.154E-04 -.147E-05 -.500E+03   0.819E-09 -.542E-06 0.424E+01
   0.209E-04 -.100E-04 -.534E+03   -.214E-04 0.109E-04 0.541E+03   0.659E-06 -.114E-05 -.711E+01
   -.565E+02 0.122E-04 -.545E+01   0.612E+02 -.122E-04 0.520E+01   -.522E+01 -.332E-06 0.343E+00
   0.565E+02 0.486E-05 -.545E+01   -.612E+02 -.458E-05 0.520E+01   0.522E+01 -.711E-06 0.343E+00
   0.944E-04 0.171E-03 -.637E+03   -.109E-03 -.194E-03 0.631E+03   0.160E-04 0.209E-04 0.633E+01
   0.265E-05 -.295E-05 -.161E+04   -.856E-06 0.123E-05 0.161E+04   -.202E-05 0.194E-05 0.272E+01
   -.289E+02 -.369E-04 -.114E+04   0.320E+02 0.389E-04 0.114E+04   -.304E+01 -.188E-05 0.878E+00
   0.289E+02 -.814E-04 -.114E+04   -.320E+02 0.899E-04 0.114E+04   0.304E+01 -.829E-05 0.878E+00
   0.841E-04 -.180E-03 -.182E+04   -.941E-04 0.196E-03 0.182E+04   0.111E-04 -.162E-04 -.207E+01
   -.897E-04 0.126E-04 -.272E+04   0.923E-04 -.181E-04 0.274E+04   -.173E-05 0.659E-05 -.208E+02
   -.225E+02 -.397E-03 -.235E+04   0.285E+02 0.436E-03 0.235E+04   -.599E+01 -.368E-04 -.388E+01
   0.225E+02 -.102E-04 -.235E+04   -.285E+02 0.492E-05 0.235E+04   0.599E+01 0.755E-05 -.388E+01
   -.189E-04 0.893E-04 0.926E+02   -.722E-11 -.326E-11 0.241E-10   0.204E-04 -.924E-04 -.927E+02

 POSITION                                       TOTAL-FORCE (eV/Angst)
      9.79590      7.40329      8.77892        -0.000000     -0.000000     -3.479854
      0.00000      8.88395      8.77892        -0.000000      0.000000      2.775425
      0.00000      7.40329     12.04422         0.000000     -0.000000      0.521235
      9.79590      8.88395     12.04422        -0.000000     -0.000000     -0.708581
      9.79590      7.40329     15.30952         0.000000     -0.000002      0.664211
      0.00000      8.88395     15.30952         0.000001     -0.000000     -0.719151
      0.00000      7.40329     18.50734         0.000002     -0.000003     -0.004835
      9.79590      8.88395     18.70058        -0.000003      0.000001      0.001462
      9.79590      7.40329     22.05862         0.000009     -0.000006      0.000157
      0.00000      8.88395     21.69350        -0.000003      0.000002      0.006003
      9.79590     10.36461      8.77892         0.000000      0.000000     -3.479853
      0.00000      0.00000      8.77892        -0.000000      0.000000      2.775425
      0.00000     10.36461     12.04422         0.000000      0.000000      0.521235
      9.79590      0.00000     12.04422        -0.000000      0.000000     -0.708580
      9.79590     10.36461     15.30952        -0.000000      0.000001      0.664210
      0.00000      0.00000     15.30952         0.000001      0.000000     -0.719149
     -0.00000     10.36461     18.50734         0.000003      0.000001     -0.004835
      9.79590      0.00000     18.70058        -0.000002     -0.000001      0.001466
      9.79590     10.36461     22.05862         0.000010     -0.000000      0.000146
     -0.00000     -0.00000     21.69350         0.000002      0.000003      0.006007
      9.79590      1.48066      8.77892        -0.000000      0.000000     -3.479853
      0.00000      2.96132      8.77892        -0.000000      0.000000      2.775425
      0.00000      1.48066     12.04422         0.000000      0.000000      0.521235
      9.79590      2.96132     12.04422         0.000000      0.000000     -0.708580
      9.79590      1.48066     15.30952        -0.000000      0.000002      0.664212
      0.00000      2.96132     15.30952         0.000000      0.000000     -0.719150
     -0.00000      1.48066     18.50734         0.000003     -0.000002     -0.004836
      9.79590      2.96132     18.70058        -0.000002      0.000001      0.001464
      9.79590      1.48066     22.05862         0.000006      0.000001      0.000150
     -0.00000      2.96132     21.69350         0.000003     -0.000001      0.005998
      9.79590      4.44197      8.77892         0.000000     -0.000000     -3.479854
      0.00000      5.92263      8.77892        -0.000000     -0.000000      2.775425
      0.00000      4.44197     12.04422        -0.000000      0.000000      0.521235
      9.79590      5.92263     12.04422        -0.000000     -0.000000     -0.708580
      9.79590      4.44197     15.30952        -0.000000     -0.000001      0.664213
      0.00000      5.92263     15.30952         0.000001     -0.000000     -0.719149
     -0.00000      4.44197     18.50734         0.000003      0.000004     -0.004836
      9.79590      5.92263     18.70058        -0.000002     -0.000000      0.001466
      9.79590      4.44197     22.05862        -0.000001      0.000006      0.000143
     -0.00000      5.92263     21.69350        -0.000001      0.000001      0.006012
      3.26530      7.40329      8.77892        -0.000000      0.000000     -3.479854
      6.53060      8.88395      8.77892         0.000000      0.000000      2.775425
      6.53060      7.40329     12.04422        -0.000000     -0.000000      0.521236
      3.26530      8.88395     12.04422         0.000000      0.000000     -0.708580
      3.26530      7.40329     15.30952         0.000000      0.000000      0.664213
      6.53060      8.88395     15.30952        -0.000001      0.000000     -0.719154
      6.53060      7.40329     18.50734        -0.000001      0.000000     -0.004831
      3.26530      8.88395     18.70058         0.000002     -0.000001      0.001463
      3.26530      7.40329     22.05862        -0.000003      0.000004      0.000154
      6.53060      8.88395     21.69350        -0.000005     -0.000004      0.006009
      3.26530     10.36461      8.77892        -0.000000     -0.000000     -3.479854
      6.53060      0.00000      8.77892         0.000000      0.000000      2.775425
      6.53060     10.36461     12.04422        -0.000000     -0.000000      0.521236
      3.26530      0.00000     12.04422         0.000000      0.000000     -0.708580
      3.26530     10.36461     15.30952         0.000000     -0.000002      0.664212
      6.53060      0.00000     15.30952        -0.000001      0.000000     -0.719153
      6.53060     10.36461     18.50734        -0.000001     -0.000001     -0.004834
      3.26530     -0.00000     18.70058         0.000002     -0.000000      0.001458
      3.26530     10.36461     22.05862        -0.000007     -0.000008      0.000163
      6.53060      0.00000     21.69350        -0.000001     -0.000004      0.006006
[...]
      6.53060      5.92263     13.32313        -0.000000     -0.000000     -0.127175
      4.54422      4.44197     12.04422         0.421724     -0.000000      0.050092
      8.51698      4.44197     12.04422        -0.421724     -0.000000      0.050091
      3.26530      5.92263     14.03060         0.000000     -0.000000     -0.100328
      3.26530      5.92263     16.58843         0.000000     -0.000000      0.008106
      7.80952      4.44197     15.30952        -0.460698     -0.000000      0.090012
      5.25168      4.44197     15.30952         0.460698     -0.000000      0.090011
      6.53060      5.92263     17.31343         0.000001     -0.000002      0.009567
      6.53060      5.92263     19.87640        -0.000000      0.000000      0.003431
      4.57254      4.44197     18.59361        -0.002906      0.000000     -0.005835
      8.48866      4.44197     18.59361         0.002905      0.000000     -0.005835
      3.26530      5.92263     20.57046         0.000001      0.000001     -0.004528
      3.26530      5.92263     23.13865         0.000001      0.000001     -0.003383
      7.75742      4.44198     22.01298        -0.002831      0.000002      0.007916
      5.30378      4.44197     22.01298         0.002826      0.000002      0.007915
    total drift:                                0.000001     -0.000003     -0.020189

  FREE ENERGIE OF THE ION-ELECTRON SYSTEM (eV)
  free  energy   TOTEN  =     -1740.16162243 eV

  energy  without entropy=    -1740.16162243  energy(sigma->0) =    -1740.16162243

 d Force = 0.1384438E-03[ 0.105E-03, 0.172E-03]  d Energy = 0.1511869E-03-0.127E-04
 d Force = 0.2523341E+02[ 0.252E+02, 0.252E+02]  d Ewald  = 0.2523343E+02-0.135E-04

 Conjugate gradient step on ions:
 trial-energy change:   -0.000151  1 .order   -0.000138   -0.000172   -0.000105
  (g-gl).g = 0.267E-03      g.g   = 0.268E-03  gl.gl    = 0.875E-03
 g(Force)  = 0.268E-03   g(Stress)= 0.000E+00 ortho     =-0.810E-05
 gamma     =   0.30564
 trial     =   0.64815
 opt step  =   1.01283  (harmonic =   1.66296) maximal distance =0.00088575
 next E    = -1740.161654   (d E  =  -0.00018)

 reached required accuracy - stopping structural energy minimisation