 vasp.6.3.0 20Jan22 (build Apr  1 2022 16:44:48) complex
 executed on        HPECrayEX_GCC date 2023.04.06  22:14:30

 INCAR:
   SYSTEM = MgO-rocksalt
   ISMEAR = 0
   SIGMA = 0.05
   EDIFF = 1E-7
   ALGO = ALL
   ISTART = 0
   IBRION = 2
   NSW = 1000
   ISYM = 0
   ISIF = 2
   EDIFFG = -0.01
   DIPOL = 0.5 0.5 0.5
   IDIPOL = 3
   LDIPOL = .TRUE.
   GGA = MK
   LUSE_VDW = .TRUE.
   PARAM1 = 0.1234
   PARAM2 = 0.711357
   ZAB_VDW = -1.8867
   AGGAC = 0.0
   ENCUT = 600
   PREC = Accurate
   LASPH = .TRUE.
   LREAL = .FALSE.
   ISPIN = 1
   NELM = 200
   NELMIN = 8
   NCORE = 8
   KPAR = 1
   LWAVE = .FALSE.
   LCHARG = .FALSE.

 POTCAR:    PAW_PBE Ti_pv 07Sep2000
 POTCAR:    PAW_PBE O 08Apr2002
|               ----> ADVICE to this user running VASP <----                  |
|     You have switched on vdW-DFT.                                           |
|     This routine was written and supplied by Jiri Klimes. We recommend      |
|     that you carefully read and cite the following publications:            |
|       J. Klimes, D.R. Bowler, A. Michelides                                 |
|          J. Phys.: Cond Matt. 22 022201 (2010)                              |
|       J. Klimes, D.R. Bowler, A. Michelides                                 |
|          Phys. Rev. B. 83, 195131 (2011)                                    |
|     and references therein.                                                 |

   TITEL  = PAW_PBE Ti_pv 07Sep2000
   POMASS =   47.880; ZVAL   =   10.000    mass and valenz
   ENMAX  =  222.335; ENMIN  =  166.751 eV

   TITEL  = PAW_PBE O 08Apr2002
   POMASS =   16.000; ZVAL   =    6.000    mass and valenz
   ENMAX  =  400.000; ENMIN  =  300.000 eV

  PAW_PBE Ti_pv 07Sep2000               :
  PAW_PBE O 08Apr2002                   :

 POSCAR: Ti  O
  positions in direct lattice
 exchange correlation table for  LEXCH =       43
   RHO(1)=    0.500       N(1)  =     2000
   RHO(2)=  100.500       N(2)  =     4000

 ion  position               nearest neighbor table
   1  0.750  0.625  0.287-  81 1.96  82 1.96 141 1.96 142 1.96 163 1.99  84 1.99  11 2.96  31 2.96

   2  0.000  0.750  0.287-  84 1.96 104 1.96 103 1.96  83 1.96  85 1.99  32 2.96  12 2.96
   3  0.000  0.625  0.393-  85 1.96  86 1.96 145 1.96 146 1.96  87 1.99  88 1.99  13 2.96  33 2.96

[...]

  80  0.500  0.500  0.713- 179 1.96 180 1.96 239 1.96 240 1.96 234 1.99  70 2.96  50 2.96
  81  0.750  0.750  0.245-   1 1.96  11 1.96
  82  0.750  0.750  0.328-   1 1.96  11 1.96   4 1.99
  83  0.098  0.625  0.287-   2 1.96  32 1.96  41 1.99
  84  0.902  0.625  0.287-   2 1.96  32 1.96   1 1.99
  85  0.000  0.750  0.352-   3 1.96  13 1.96   2 1.99
  86  0.000  0.750  0.435-   3 1.96  13 1.96   6 1.99
  87  0.848  0.625  0.393-   4 1.96  34 1.96   3 1.99
  88  0.152  0.625  0.393-  44 1.96  74 1.96   3 1.99
  89  0.750  0.750  0.458-   5 1.96  15 1.96   4 1.99
  90  0.750  0.750  0.542-   5 1.96  15 1.96   8 1.99
  91  0.098  0.625  0.500-   6 1.96  36 1.96  45 1.99
  92  0.902  0.625  0.500-   6 1.96  36 1.96   5 1.99
  93  0.000  0.750  0.565-   7 1.96  17 1.96   6 1.99
  94  0.000  0.750  0.648-   7 1.96  17 1.96  10 1.99
  95  0.848  0.625  0.607-   8 1.96  38 1.96   7 1.99
  96  0.152  0.625  0.607-  48 1.96  78 1.96   7 1.99
  97  0.750  0.750  0.672-   9 1.96  19 1.96   8 1.99
  98  0.750  0.750  0.755-   9 1.96  19 1.96
  99  0.098  0.625  0.713-  10 1.96  40 1.96  49 1.99
 100  0.902  0.625  0.713-  10 1.96  40 1.96   9 1.99
 101  0.750  0.000  0.245-  11 1.96  21 1.96
 102  0.750  0.000  0.328-  11 1.96  21 1.96  14 1.99
 103  0.098  0.875  0.287-   2 1.96  12 1.96  51 1.99
 104  0.902  0.875  0.287-   2 1.96  12 1.96  11 1.99
 105  0.000  0.000  0.352-  13 1.96  23 1.96  12 1.99
 106  0.000  0.000  0.435-  13 1.96  23 1.96  16 1.99
 107  0.848  0.875  0.393-   4 1.96  14 1.96  13 1.99
 108  0.152  0.875  0.393-  44 1.96  54 1.96  13 1.99
 109  0.750  0.000  0.458-  15 1.96  25 1.96  14 1.99
 110  0.750  0.000  0.542-  15 1.96  25 1.96  18 1.99
 111  0.098  0.875  0.500-   6 1.96  16 1.96  55 1.99
 112  0.902  0.875  0.500-   6 1.96  16 1.96  15 1.99
 113  0.000  0.000  0.565-  17 1.96  27 1.96  16 1.99
 114  0.000  0.000  0.648-  17 1.96  27 1.96  20 1.99
 115  0.848  0.875  0.607-   8 1.96  18 1.96  17 1.99
 116  0.152  0.875  0.607-  48 1.96  58 1.96  17 1.99
 117  0.750  0.000  0.672-  19 1.96  29 1.96  18 1.99
 118  0.750  0.000  0.755-  19 1.96  29 1.96
 119  0.098  0.875  0.713-  10 1.96  20 1.96  59 1.99
 120  0.902  0.875  0.713-  10 1.96  20 1.96  19 1.99
 121  0.750  0.250  0.245-  21 1.96  31 1.96
 122  0.750  0.250  0.328-  21 1.96  31 1.96  24 1.99
 123  0.098  0.125  0.287-  12 1.96  22 1.96  61 1.99
 124  0.902  0.125  0.287-  12 1.96  22 1.96  21 1.99
 125  0.000  0.250  0.352-  23 1.96  33 1.96  22 1.99
 126  0.000  0.250  0.435-  23 1.96  33 1.96  26 1.99
 127  0.848  0.125  0.393-  14 1.96  24 1.96  23 1.99
 128  0.152  0.125  0.393-  54 1.96  64 1.96  23 1.99
 129  0.750  0.250  0.458-  25 1.96  35 1.96  24 1.99
 130  0.750  0.250  0.542-  25 1.96  35 1.96  28 1.99
 131  0.098  0.125  0.500-  16 1.96  26 1.96  65 1.99
 132  0.902  0.125  0.500-  16 1.96  26 1.96  25 1.99
 133  0.000  0.250  0.565-  27 1.96  37 1.96  26 1.99
 134  0.000  0.250  0.648-  27 1.96  37 1.96  30 1.99
 135  0.848  0.125  0.607-  18 1.96  28 1.96  27 1.99
 136  0.152  0.125  0.607-  58 1.96  68 1.96  27 1.99
 137  0.750  0.250  0.672-  29 1.96  39 1.96  28 1.99
 138  0.750  0.250  0.755-  29 1.96  39 1.96
 139  0.098  0.125  0.713-  20 1.96  30 1.96  69 1.99
[...]
 226  0.500  0.500  0.435-  43 1.96  73 1.96  76 1.99
 227  0.348  0.375  0.393-  64 1.96  74 1.96  73 1.99
 228  0.652  0.375  0.393-  24 1.96  34 1.96  73 1.99
 229  0.250  0.500  0.458-  45 1.96  75 1.96  74 1.99
 230  0.250  0.500  0.542-  45 1.96  75 1.96  78 1.99
 231  0.598  0.375  0.500-  66 1.96  76 1.96  35 1.99
 232  0.402  0.375  0.500-  66 1.96  76 1.96  75 1.99
 233  0.500  0.500  0.565-  47 1.96  77 1.96  76 1.99
 234  0.500  0.500  0.648-  47 1.96  77 1.96  80 1.99
 235  0.348  0.375  0.607-  68 1.96  78 1.96  77 1.99
 236  0.652  0.375  0.607-  28 1.96  38 1.96  77 1.99
 237  0.250  0.500  0.672-  49 1.96  79 1.96  78 1.99
 238  0.250  0.500  0.755-  49 1.96  79 1.96
 239  0.598  0.375  0.713-  70 1.96  80 1.96  39 1.99
 240  0.402  0.375  0.713-  70 1.96  80 1.96  79 1.99

IMPORTANT INFORMATION: All symmetrisations will be switched off!
NOSYMM: (Re-)initialisation of all symmetry stuff for point group C_1.

                                     Primitive cell

  volume of cell :    4737.1524

  direct lattice vectors                    reciprocal lattice vectors
    13.061127704  0.000000000  0.000000000     0.076563067  0.000000000  0.000000000
     0.000000000 11.845298948  0.000000000     0.000000000  0.084421677  0.000000000
     0.000000000  0.000000000 30.618975621     0.000000000  0.000000000  0.032659486

  length of vectors
    13.061127704 11.845298948 30.618975621     0.076563067  0.084421677  0.032659486

  position of ions in fractional coordinates (direct lattice)
     0.750000000  0.625000000  0.286715143
     0.000000000  0.750000000  0.286715143
     0.000000000  0.625000000  0.393357571
     0.750000000  0.750000000  0.393357571
     0.750000000  0.625000000  0.500000000
     0.000000000  0.750000000  0.500000000
     0.000000000  0.625000000  0.606642429
     0.750000000  0.750000000  0.606642429
     0.750000000  0.625000000  0.713284857
     0.000000000  0.750000000  0.713284857
     0.750000000  0.875000000  0.286715143
     0.000000000  0.000000000  0.286715143
     0.000000000  0.875000000  0.393357571
     0.750000000  0.000000000  0.393357571
     0.750000000  0.875000000  0.500000000
     0.000000000  0.000000000  0.500000000
     0.000000000  0.875000000  0.606642429
     0.750000000  0.000000000  0.606642429
     0.750000000  0.875000000  0.713284857
     0.000000000  0.000000000  0.713284857
     0.750000000  0.125000000  0.286715143
     0.000000000  0.250000000  0.286715143
     0.000000000  0.125000000  0.393357571
     0.750000000  0.250000000  0.393357571
     0.750000000  0.125000000  0.500000000
     0.000000000  0.250000000  0.500000000
     0.000000000  0.125000000  0.606642429
     0.750000000  0.250000000  0.606642429
     0.750000000  0.125000000  0.713284857
     0.000000000  0.250000000  0.713284857
     0.750000000  0.375000000  0.286715143
     0.000000000  0.500000000  0.286715143
     0.000000000  0.375000000  0.393357571
     0.750000000  0.500000000  0.393357571
     0.750000000  0.375000000  0.500000000
     0.000000000  0.500000000  0.500000000
     0.000000000  0.375000000  0.606642429
     0.750000000  0.500000000  0.606642429
     0.750000000  0.375000000  0.713284857
     0.000000000  0.500000000  0.713284857
     0.250000000  0.625000000  0.286715143
     0.500000000  0.750000000  0.286715143
     0.500000000  0.625000000  0.393357571
     0.250000000  0.750000000  0.393357571
     0.250000000  0.625000000  0.500000000
     0.500000000  0.750000000  0.500000000
     0.500000000  0.625000000  0.606642429
     0.250000000  0.750000000  0.606642429
     0.250000000  0.625000000  0.713284857
     0.500000000  0.750000000  0.713284857
     0.250000000  0.875000000  0.286715143
     0.500000000  0.000000000  0.286715143
     0.500000000  0.875000000  0.393357571
     0.250000000  0.000000000  0.393357571
     0.250000000  0.875000000  0.500000000
     0.500000000  0.000000000  0.500000000
     0.500000000  0.875000000  0.606642429
     0.250000000  0.000000000  0.606642429
     0.250000000  0.875000000  0.713284857
     0.500000000  0.000000000  0.713284857
[...]
     0.500000000  0.500000000  0.435126570
     0.347918341  0.375000000  0.393357571
     0.652081659  0.375000000  0.393357571
     0.250000000  0.500000000  0.458231001
     0.250000000  0.500000000  0.541768999
     0.597918341  0.375000000  0.500000000
     0.402081659  0.375000000  0.500000000
     0.500000000  0.500000000  0.564873430
     0.500000000  0.500000000  0.648411428
     0.347918341  0.375000000  0.606642429
     0.652081659  0.375000000  0.606642429
     0.250000000  0.500000000  0.671515859
     0.250000000  0.500000000  0.755053856
     0.597918341  0.375000000  0.713284857
     0.402081659  0.375000000  0.713284857

  ion indices of the primitive-cell ions
   primitive index   ion index
                 1           1
                 2           2
                 3           3
                 4           4
                 5           5
                 6           6
                 7           7
                 8           8
                 9           9
                10          10
                11          11
                12          12
                13          13
                14          14
                15          15
                16          16
                17          17
                18          18
                19          19
                20          20
                21          21
                22          22
                23          23
                24          24
                25          25
                26          26
[...]
   4.54420588  4.44198711 18.57476974
   8.51692182  4.44198711 18.57476974
   3.26528193  5.92264947 20.56112770
   3.26528193  5.92264947 23.11897562
   7.80948781  4.44198711 21.84005166
   5.25163989  4.44198711 21.84005166

--------------------------------------- Iteration      FINAL  ---------------------------------------

--------------------OUTCAR has been truncated-------------------------

[...]

--------------------OUTCAR has been truncated-------------------------

  FORCE on cell =-STRESS in cart. coord.  units (eV):
  Direction    XX          YY          ZZ          XY          YZ          ZX
  Alpha Z  4617.99219  4617.99219  4617.99219
  Ewald  974522.88323992481.28763************    -0.00008    -0.00006    -0.00015
  Hartree************************************    -0.00003    -0.00004    -0.00009
  E(xc)   -8601.35082 -8595.88646 -8598.00581    -0.00000    -0.00000    -0.00000
  Local  ************************************     0.00011     0.00008     0.00023
  n-local -5470.74205 -5396.16630 -5513.87793    -0.00000    -0.00000    -0.00000
  augment  5250.83620  5227.30981  5255.00376    -0.00000     0.00000     0.00000
  Kinetic 28566.75940 28105.10925 28613.26305     0.00000     0.00001    -0.00000
  Fock        0.00000     0.00000     0.00000     0.00000     0.00000     0.00000
  Total       2.76843   -39.96823   -33.82317    -0.00000     0.00000    -0.00001
  in kB       0.93633   -13.51787   -11.43951    -0.00000     0.00000    -0.00000

 VOLUME and BASIS-vectors are now :
  energy-cutoff  :      600.00
  volume of cell :     4737.15
      direct lattice vectors                 reciprocal lattice vectors
    13.061127704  0.000000000  0.000000000     0.076563067  0.000000000  0.000000000
     0.000000000 11.845298948  0.000000000     0.000000000  0.084421677  0.000000000
     0.000000000  0.000000000 30.618975621     0.000000000  0.000000000  0.032659486

  length of vectors
    13.061127704 11.845298948 30.618975621     0.076563067  0.084421677  0.032659486

 FORCES acting on ions:
    Electron-Ion                     Ewald-Force                    Non-Local-Force
   0.109E-05 0.627E-06 0.377E+04   -.102E-05 -.589E-06 -.377E+04   0.621E-08 -.175E-08 0.356E+00
   0.190E-05 0.850E-06 0.395E+04   -.191E-05 -.868E-06 -.394E+04   -.652E-08 -.193E-07 -.369E+01
   0.970E-05 0.318E-05 0.191E+04   -.977E-05 -.315E-05 -.191E+04   0.103E-08 0.176E-07 -.426E-01
   0.483E-05 0.450E-05 0.191E+04   -.467E-05 -.460E-05 -.191E+04   -.549E-07 0.133E-07 0.200E+00
   0.150E-04 0.162E-04 -.193E+02   -.137E-04 -.144E-04 0.201E+02   0.209E-07 -.248E-06 -.121E+00
   0.317E-04 0.288E-04 -.738E+01   -.318E-04 -.295E-04 0.635E+01   0.384E-06 0.364E-06 0.323E+00
   0.907E-04 -.574E-05 -.188E+04   -.850E-04 0.908E-05 0.188E+04   -.665E-06 -.896E-06 0.425E-01
   0.249E-04 0.739E-04 -.195E+04   -.256E-04 -.718E-04 0.195E+04   0.275E-06 -.646E-06 -.581E-01
   0.356E-04 0.119E-03 -.376E+04   -.366E-04 -.125E-03 0.376E+04   0.621E-06 0.156E-05 -.123E+00
   -.125E-04 -.344E-04 -.378E+04   0.166E-04 0.363E-04 0.378E+04   0.111E-05 -.315E-06 0.941E+00
   0.113E-05 0.633E-06 0.377E+04   -.105E-05 -.593E-06 -.377E+04   -.234E-07 -.285E-07 0.356E+00
   0.190E-05 0.778E-07 0.395E+04   -.193E-05 -.726E-07 -.394E+04   -.254E-08 -.766E-08 -.369E+01
   0.966E-05 0.420E-05 0.191E+04   -.976E-05 -.419E-05 -.191E+04   -.671E-08 -.598E-07 -.426E-01
   0.547E-05 -.110E-06 0.191E+04   -.531E-05 0.375E-07 -.191E+04   0.951E-08 -.533E-07 0.200E+00
   0.186E-04 0.159E-04 -.193E+02   -.178E-04 -.162E-04 0.201E+02   -.289E-06 -.510E-07 -.121E+00
   0.447E-04 -.790E-05 -.738E+01   -.448E-04 0.740E-05 0.635E+01   0.995E-07 0.254E-06 0.323E+00
   0.154E-03 0.463E-04 -.188E+04   -.150E-03 -.467E-04 0.188E+04   -.695E-06 -.436E-06 0.425E-01
   0.181E-04 -.279E-04 -.195E+04   -.187E-04 0.242E-04 0.195E+04   -.165E-06 0.797E-06 -.581E-01
   -.751E-04 -.108E-03 -.376E+04   0.746E-04 0.118E-03 0.376E+04   -.180E-06 -.272E-05 -.123E+00
   -.353E-04 0.405E-04 -.378E+04   0.465E-04 -.410E-04 0.378E+04   -.203E-05 0.681E-08 0.941E+00
   0.120E-05 -.649E-06 0.377E+04   -.112E-05 0.589E-06 -.377E+04   0.456E-10 0.210E-07 0.356E+00
   0.193E-05 -.856E-06 0.395E+04   -.195E-05 0.865E-06 -.394E+04   -.123E-07 0.112E-07 -.369E+01
   0.999E-05 -.324E-05 0.191E+04   -.101E-04 0.319E-05 -.191E+04   -.779E-08 0.327E-07 -.426E-01
   0.571E-05 -.458E-05 0.191E+04   -.551E-05 0.460E-05 -.191E+04   -.177E-07 -.580E-07 0.200E+00
   0.189E-04 -.179E-04 -.193E+02   -.179E-04 0.172E-04 0.201E+02   -.102E-06 0.678E-07 -.121E+00
   0.414E-04 -.218E-04 -.738E+01   -.417E-04 0.219E-04 0.635E+01   0.209E-06 -.101E-06 0.323E+00
   0.174E-03 -.390E-04 -.188E+04   -.168E-03 0.380E-04 0.188E+04   -.807E-06 0.433E-06 0.425E-01
   0.134E-03 -.399E-04 -.195E+04   -.136E-03 0.393E-04 0.195E+04   0.510E-06 0.655E-06 -.581E-01
   0.292E-04 0.231E-03 -.376E+04   -.294E-04 -.245E-03 0.376E+04   -.205E-05 0.307E-05 -.123E+00
   -.566E-05 0.507E-04 -.378E+04   0.105E-04 -.517E-04 0.378E+04   0.761E-06 0.746E-08 0.941E+00
   0.116E-05 -.626E-06 0.377E+04   -.108E-05 0.593E-06 -.377E+04   -.339E-07 0.158E-08 0.356E+00
   0.194E-05 -.701E-07 0.395E+04   -.193E-05 0.756E-07 -.394E+04   -.188E-08 -.280E-08 -.369E+01
   0.100E-04 -.416E-05 0.191E+04   -.101E-04 0.415E-05 -.191E+04   -.578E-07 -.519E-08 -.426E-01
   0.506E-05 0.143E-06 0.191E+04   -.486E-05 -.364E-07 -.191E+04   -.478E-07 0.521E-07 0.200E+00
   0.195E-04 -.141E-04 -.193E+02   -.184E-04 0.133E-04 0.201E+02   0.175E-06 0.121E-06 -.121E+00
   0.419E-04 0.280E-05 -.738E+01   -.418E-04 -.200E-05 0.635E+01   0.193E-06 -.453E-06 0.323E+00
   0.178E-03 -.150E-03 -.188E+04   -.171E-03 0.152E-03 0.188E+04   -.911E-06 0.139E-06 0.425E-01
   0.703E-04 -.305E-04 -.195E+04   -.702E-04 0.329E-04 0.195E+04   0.186E-07 -.586E-06 -.581E-01
   0.510E-04 -.205E-04 -.376E+04   -.474E-04 0.256E-04 0.376E+04   -.196E-06 0.368E-06 -.123E+00
   0.103E-04 0.259E-04 -.378E+04   -.147E-05 -.272E-04 0.378E+04   -.451E-05 -.259E-06 0.941E+00
   -.108E-05 0.533E-06 0.377E+04   0.102E-05 -.554E-06 -.377E+04   0.397E-07 -.226E-07 0.356E+00
   -.189E-05 0.791E-06 0.395E+04   0.190E-05 -.812E-06 -.394E+04   0.226E-07 -.839E-08 -.369E+01
   -.976E-05 0.365E-05 0.191E+04   0.969E-05 -.362E-05 -.191E+04   -.506E-07 -.400E-07 -.426E-01
   -.495E-05 0.430E-05 0.191E+04   0.474E-05 -.450E-05 -.191E+04   -.768E-07 0.424E-07 0.200E+00
   -.199E-04 0.109E-04 -.193E+02   0.192E-04 -.107E-04 0.201E+02   0.204E-07 -.328E-07 -.121E+00
   -.471E-04 0.150E-04 -.738E+01   0.468E-04 -.150E-04 0.635E+01   0.944E-07 -.336E-07 0.323E+00
   -.493E-04 0.110E-03 -.188E+04   0.445E-04 -.117E-03 0.188E+04   0.669E-06 0.169E-05 0.425E-01
   -.260E-04 0.104E-03 -.195E+04   0.231E-04 -.106E-03 0.195E+04   0.841E-06 -.344E-06 -.581E-01
   0.503E-04 -.600E-04 -.376E+04   -.501E-04 0.616E-04 0.376E+04   0.181E-06 0.230E-06 -.123E+00
   -.481E-05 0.661E-04 -.378E+04   0.945E-06 -.683E-04 0.378E+04   0.363E-06 0.897E-06 0.941E+00
   -.114E-05 0.653E-06 0.377E+04   0.106E-05 -.615E-06 -.377E+04   -.390E-08 -.158E-07 0.356E+00
   -.188E-05 -.210E-07 0.395E+04   0.192E-05 0.303E-07 -.394E+04   0.218E-07 0.635E-08 -.369E+01
   -.949E-05 0.282E-05 0.191E+04   0.961E-05 -.295E-05 -.191E+04   0.314E-07 -.994E-07 -.426E-01
   -.588E-05 0.314E-06 0.191E+04   0.563E-05 -.394E-06 -.191E+04   -.332E-07 0.639E-07 0.200E+00
   -.281E-04 0.152E-04 -.193E+02   0.274E-04 -.146E-04 0.201E+02   0.276E-06 -.774E-07 -.121E+00
   -.463E-04 -.344E-05 -.738E+01   0.460E-04 0.243E-05 0.635E+01   0.220E-06 0.248E-06 0.323E+00
   -.141E-03 0.836E-04 -.188E+04   0.139E-03 -.820E-04 0.188E+04   0.292E-07 -.517E-06 0.425E-01
   -.595E-04 0.186E-03 -.195E+04   0.592E-04 -.190E-03 0.195E+04   -.212E-06 0.775E-06 -.581E-01
   -.660E-04 0.356E-04 -.376E+04   0.638E-04 -.366E-04 0.376E+04   0.942E-06 -.718E-06 -.123E+00
   0.106E-03 -.267E-05 -.378E+04   -.115E-03 0.800E-06 0.378E+04   0.272E-05 0.243E-06 0.941E+00
[...]
   -.544E+02 -.176E-05 0.114E+04   0.585E+02 0.190E-05 -.115E+04   -.363E+01 -.426E-08 0.160E+00
   0.544E+02 -.179E-05 0.114E+04   -.585E+02 0.182E-05 -.115E+04   0.363E+01 0.619E-07 0.160E+00
   -.786E-05 -.703E-06 0.495E+03   0.772E-05 0.864E-06 -.500E+03   0.371E-06 -.168E-06 0.424E+01
   -.216E-04 -.590E-06 -.534E+03   0.206E-04 -.500E-06 0.541E+03   0.120E-05 0.116E-05 -.710E+01
   -.564E+02 -.133E-04 -.539E+01   0.612E+02 0.133E-04 0.513E+01   -.522E+01 0.223E-06 0.341E+00
   0.564E+02 -.120E-04 -.539E+01   -.612E+02 0.125E-04 0.513E+01   0.522E+01 -.253E-06 0.341E+00
   0.211E-04 0.284E-04 -.637E+03   -.332E-04 -.319E-04 0.631E+03   0.129E-04 0.380E-05 0.632E+01
   -.291E-04 -.211E-04 -.161E+04   0.229E-04 0.214E-04 0.161E+04   0.673E-05 0.576E-06 0.272E+01
   -.289E+02 -.636E-04 -.114E+04   0.319E+02 0.727E-04 0.114E+04   -.304E+01 -.104E-04 0.901E+00
   0.289E+02 0.277E-04 -.114E+04   -.319E+02 -.363E-04 0.114E+04   0.304E+01 0.973E-05 0.901E+00
   0.228E-04 0.427E-04 -.182E+04   -.258E-04 -.475E-04 0.182E+04   0.270E-05 0.578E-05 -.207E+01
   -.337E-04 -.133E-03 -.272E+04   0.386E-04 0.148E-03 0.274E+04   -.568E-05 -.929E-05 -.208E+02
   -.225E+02 -.298E-04 -.235E+04   0.285E+02 0.317E-04 0.235E+04   -.598E+01 -.254E-05 -.391E+01
   0.225E+02 0.102E-04 -.235E+04   -.285E+02 -.124E-04 0.235E+04   0.598E+01 0.225E-05 -.391E+01
   0.107E-03 0.340E-04 0.927E+02   -.250E-11 0.148E-11 -.291E-10   -.106E-03 -.334E-04 -.928E+02

 POSITION                                       TOTAL-FORCE (eV/Angst)
      9.79585      7.40331      8.77892         0.000000      0.000000     -3.479904
      0.00000      8.88397      8.77892        -0.000000     -0.000000      2.775452
      0.00000      7.40331     12.04421        -0.000000      0.000000      0.521465
      9.79585      8.88397     12.04421         0.000000     -0.000000     -0.708909
      9.79585      7.40331     15.30949         0.000001      0.000002      0.662269
      0.00000      8.88397     15.30949         0.000000     -0.000000     -0.716116
     -0.00000      7.40331     18.50738         0.000005      0.000002     -0.009932
      9.79585      8.88397     18.69958        -0.000000      0.000001     -0.006563
      9.79585      7.40331     22.05743        -0.000000     -0.000004      0.003953
      0.00000      8.88397     21.69362         0.000005      0.000001      0.009133
      9.79585     10.36464      8.77892         0.000000      0.000000     -3.479904
      0.00000      0.00000      8.77892        -0.000000     -0.000000      2.775452
      0.00000     10.36464     12.04421        -0.000000     -0.000000      0.521465
      9.79585      0.00000     12.04421         0.000000     -0.000000     -0.708908
      9.79585     10.36464     15.30949         0.000001     -0.000000      0.662271
      0.00000      0.00000     15.30949        -0.000000     -0.000000     -0.716117
     -0.00000     10.36464     18.50738         0.000004     -0.000001     -0.009928
      9.79585     -0.00000     18.69958        -0.000001     -0.000003     -0.006558
      9.79585     10.36464     22.05743        -0.000001      0.000007      0.003953
     -0.00000     -0.00000     21.69362         0.000009     -0.000000      0.009133
      9.79585      1.48066      8.77892         0.000000     -0.000000     -3.479904
      0.00000      2.96132      8.77892        -0.000000      0.000000      2.775452
      0.00000      1.48066     12.04421        -0.000000     -0.000000      0.521465
      9.79585      2.96132     12.04421         0.000000     -0.000000     -0.708909
      9.79585      1.48066     15.30949         0.000001     -0.000001      0.662270
      0.00000      2.96132     15.30949        -0.000000      0.000000     -0.716117
      0.00000      1.48066     18.50738         0.000005     -0.000001     -0.009928
      9.79585      2.96132     18.69958        -0.000001     -0.000000     -0.006559
      9.79585      1.48066     22.05743        -0.000002     -0.000010      0.003949
      0.00000      2.96132     21.69362         0.000006     -0.000001      0.009131
      9.79585      4.44199      8.77892         0.000000     -0.000000     -3.479904
      0.00000      5.92265      8.77892        -0.000000     -0.000000      2.775452
      0.00000      4.44199     12.04421        -0.000000     -0.000000      0.521465
      9.79585      5.92265     12.04421         0.000000      0.000000     -0.708909
      9.79585      4.44199     15.30949         0.000001     -0.000001      0.662269
      0.00000      5.92265     15.30949         0.000000      0.000000     -0.716116
      0.00000      4.44199     18.50738         0.000007      0.000002     -0.009930
      9.79585      5.92265     18.69958         0.000000      0.000002     -0.006555
      9.79585      4.44199     22.05743         0.000003      0.000006      0.003947
     -0.00000      5.92265     21.69362         0.000004     -0.000001      0.009143
      3.26528      7.40331      8.77892        -0.000000     -0.000000     -3.479904
      6.53056      8.88397      8.77892         0.000000     -0.000000      2.775452
      6.53056      7.40331     12.04421        -0.000000     -0.000000      0.521465
      3.26528      8.88397     12.04421        -0.000000     -0.000000     -0.708908
      3.26528      7.40331     15.30949        -0.000001      0.000000      0.662270
      6.53056      8.88397     15.30949        -0.000000      0.000000     -0.716117
      6.53056      7.40331     18.50738        -0.000004     -0.000005     -0.009929
      3.26528      8.88397     18.69958        -0.000002     -0.000002     -0.006563
      3.26528      7.40331     22.05743         0.000000      0.000002      0.003952
      6.53056      8.88397     21.69362        -0.000004     -0.000001      0.009143
      3.26528     10.36464      8.77892        -0.000000      0.000000     -3.479904
      6.53056      0.00000      8.77892         0.000000      0.000000      2.775452
      6.53056     10.36464     12.04421         0.000000     -0.000000      0.521465
      3.26528      0.00000     12.04421        -0.000000     -0.000000     -0.708909
      3.26528     10.36464     15.30949        -0.000000      0.000001      0.662271
      6.53056      0.00000     15.30949        -0.000000     -0.000001     -0.716118
      6.53056     10.36464     18.50738        -0.000002      0.000001     -0.009929
      3.26528      0.00000     18.69958        -0.000001     -0.000003     -0.006566
      3.26528     10.36464     22.05743        -0.000001     -0.000002      0.003951
      6.53056      0.00000     21.69362        -0.000005     -0.000002      0.009130
[...]
      6.53056      5.92265     13.32313         0.000000      0.000000     -0.127827
      4.54421      4.44199     12.04421         0.421336      0.000000      0.050126
      8.51692      4.44199     12.04421        -0.421336      0.000000      0.050126
      3.26528      5.92265     14.03056         0.000000     -0.000000     -0.099424
      3.26528      5.92265     16.58841         0.000000      0.000000      0.002374
      7.80949      4.44199     15.30949        -0.460218      0.000000      0.089677
      5.25164      4.44199     15.30949         0.460218      0.000000      0.089677
      6.53056      5.92265     17.31345         0.000001      0.000000      0.007719
      6.53056      5.92265     19.87654         0.000000      0.000001      0.004796
      4.57269      4.44199     18.59234        -0.005844     -0.000001     -0.001501
      8.48844      4.44199     18.59234         0.005848      0.000001     -0.001502
      3.26528      5.92265     20.56887        -0.000000      0.000001      0.009950
      3.26528      5.92265     23.13744        -0.000001      0.000006     -0.005607
      7.75737      4.44199     22.01361        -0.003835     -0.000001      0.003207
      5.30376      4.44199     22.01361         0.003845      0.000000      0.003205
    total drift:                                0.000001      0.000001     -0.024606

  FREE ENERGIE OF THE ION-ELECTRON SYSTEM (eV)
  free  energy   TOTEN  =     -1740.16148223 eV

  energy  without entropy=    -1740.16148223  energy(sigma->0) =    -1740.16148223

 d Force = 0.1302577E-03[ 0.107E-03, 0.154E-03]  d Energy = 0.1309982E-03-0.741E-06
 d Force = 0.3052657E+02[ 0.305E+02, 0.305E+02]  d Ewald  = 0.3052657E+02 0.620E-08

 Conjugate gradient step on ions:
 trial-energy change:   -0.000131  1 .order   -0.000130   -0.000154   -0.000107
  (g-gl).g = 0.481E-03      g.g   = 0.499E-03  gl.gl    = 0.336E-03
 g(Force)  = 0.499E-03   g(Stress)= 0.000E+00 ortho     = 0.207E-04
 gamma     =   1.43219
 trial     =   0.29089
 opt step  =   0.81139  (harmonic =   0.94804) maximal distance =0.00124276
 next E    = -1740.161582   (d E  =  -0.00023)

 reached required accuracy - stopping structural energy minimisation