 vasp.6.3.0 20Jan22 (build Apr  1 2022 16:44:48) complex
 executed on        HPECrayEX_GCC date 2022.11.13  00:33:41

 INCAR:
   SYSTEM = MgO-rocksalt
   ISMEAR = 0
   SIGMA = 0.05
   EDIFF = 1E-6
   ALGO = ALL
   ISTART = 0
   IBRION = -1
   NSW = 0
   ISYM = 0
   DIPOL = 0.5 0.5 0.5
   IDIPOL = 3
   LDIPOL = .TRUE.
   GGA = RE
   AGGAC = 0.0
   LUSE_VDW = .TRUE.
   LASPH = .TRUE.
   ENCUT = 600
   PREC = Accurate
   LASPH = .TRUE.
   LREAL = .FALSE.
   ISPIN = 2
   MAGMOM = 0.0 0.0 0.0 0.0 0.0 0.0 0.0 0.0 0.0 0.0 0.0 0.0 0.0 0.0 0.0 0.0 0.0 0.0 0.0 0.0 0.0 0.0 0.0 0.0 0.0 0.0 0.0 0.0 0.0 0.0 0.0 0.0 0.0 0.0 0.0 0.0 0.0 0.0 0.0 0.0 0.0 0.0 0.0 0.0 0.0 0.0 0.0 0.0 0.0 0.0 0.0 0.0 0.0 0.0 0.0 0.0 0.0 0.0 0.0 0.0 0.0 0.0 0.0 0.0
   NELM = 200
   NELMIN = 8
   NCORE = 8
   KPAR = 1
   LWAVE = .FALSE.
   LCHARG = .FALSE.

 POTCAR:    PAW_PBE Mg_pv 13Apr2007
 POTCAR:    PAW_PBE O 08Apr2002
|               ----> ADVICE to this user running VASP <----                  |
|     You have switched on vdW-DFT.                                           |
|     This routine was written and supplied by Jiri Klimes. We recommend      |
|     that you carefully read and cite the following publications:            |
|       J. Klimes, D.R. Bowler, A. Michelides                                 |
|          J. Phys.: Cond Matt. 22 022201 (2010)                              |
|       J. Klimes, D.R. Bowler, A. Michelides                                 |
|          Phys. Rev. B. 83, 195131 (2011)                                    |
|     and references therein.                                                 |

   TITEL  = PAW_PBE Mg_pv 13Apr2007
   POMASS =   24.305; ZVAL   =    8.000    mass and valenz
   ENMAX  =  403.929; ENMIN  =  302.947 eV

   TITEL  = PAW_PBE O 08Apr2002
   POMASS =   16.000; ZVAL   =    6.000    mass and valenz
   ENMAX  =  400.000; ENMIN  =  300.000 eV

  PAW_PBE Mg_pv 13Apr2007               :
  PAW_PBE O 08Apr2002                   :

 POSCAR: Mg  O
  positions in direct lattice
 exchange correlation table for  LEXCH =       40
   RHO(1)=    0.500       N(1)  =     2000
   RHO(2)=  100.500       N(2)  =     4000

 ion  position               nearest neighbor table
   1  0.250  0.000  0.351-  33 2.12  35 2.12  36 2.12  43 2.12  52 2.12
   2  0.500  0.250  0.351-  34 2.12  35 2.12  36 2.12  44 2.12  51 2.12
   3  0.250  0.250  0.450-  35 2.12  34 2.12  33 2.12  41 2.12  50 2.12  39 2.12
   4  0.500  0.000  0.450-  36 2.12  34 2.12  33 2.12  42 2.12  49 2.12  40 2.12
   5  0.250  1.000  0.550-  47 2.12  40 2.12  39 2.12  56 2.12  33 2.13  37 2.15
   6  0.500  0.250  0.550-  48 2.11  55 2.12  39 2.12  40 2.12  34 2.13  38 2.14
   7  0.250  0.250  0.648-  39 2.10  54 2.11  37 2.11  45 2.12  38 2.12
   8  0.500  0.000  0.648-  40 2.11  38 2.11  46 2.11  37 2.12  53 2.12
   9  0.250  0.500  0.351-  41 2.12  35 2.12  43 2.12  44 2.12  60 2.12
  10  0.500  0.750  0.351-  42 2.12  36 2.12  43 2.12  44 2.12  59 2.12
  11  0.250  0.750  0.450-  43 2.12  41 2.12  42 2.12  33 2.12  58 2.12  47 2.12
  12  0.500  0.500  0.450-  44 2.12  41 2.12  42 2.12  34 2.12  57 2.12  48 2.13
  13  0.250  0.500  0.550-  48 2.11  47 2.12  39 2.12  64 2.12  41 2.13  45 2.14
  14  0.500  0.750  0.550-  48 2.11  47 2.12  63 2.12  40 2.12  42 2.13  46 2.14
  15  0.250  0.750  0.649-  47 2.11  62 2.12  37 2.12  45 2.12  46 2.12
  16  0.500  0.500  0.650-  38 2.13  46 2.13  45 2.13  61 2.13  48 2.14
  17  0.750  0.000  0.351-  49 2.12  36 2.12  51 2.12  52 2.12  59 2.12
  18  0.000  0.250  0.351-  50 2.12  35 2.12  51 2.12  52 2.12  60 2.12
  19  0.750  0.250  0.450-  51 2.12  49 2.12  50 2.12  34 2.12  57 2.12  55 2.12
  20  0.000  0.000  0.450-  52 2.12  49 2.12  50 2.12  33 2.12  58 2.12  56 2.12
  21  0.750  0.000  0.550-  55 2.12  40 2.12  63 2.12  56 2.12  49 2.13  53 2.15
  22  1.000  0.250  0.550-  55 2.12  64 2.12  39 2.12  56 2.12  50 2.13  54 2.15
  23  0.750  0.250  0.649-  55 2.11  54 2.12  53 2.12  61 2.12  38 2.12
  24  0.000  0.000  0.648-  56 2.11  54 2.12  62 2.12  37 2.12  53 2.12
  25  0.750  0.500  0.351-  57 2.12  51 2.12  44 2.12  59 2.12  60 2.12
  26  0.000  0.750  0.351-  58 2.12  52 2.12  43 2.12  59 2.12  60 2.12
  27  0.750  0.750  0.450-  59 2.12  49 2.12  57 2.12  58 2.12  42 2.12  63 2.12
  28  0.000  0.500  0.450-  60 2.12  50 2.12  57 2.12  58 2.12  41 2.12  64 2.12
  29  0.750  0.500  0.550-  48 2.11  55 2.12  63 2.12  64 2.12  57 2.13  61 2.14
  30  0.000  0.750  0.550-  47 2.12  64 2.12  63 2.12  56 2.12  58 2.13  62 2.15
  31  0.750  0.750  0.648-  63 2.10  62 2.11  53 2.11  61 2.12  46 2.12
  32  0.000  0.500  0.648-  64 2.11  45 2.11  61 2.11  54 2.12  62 2.12
  33  0.250  0.000  0.450-   1 2.12   3 2.12   4 2.12  11 2.12  20 2.12   5 2.13
  34  0.500  0.250  0.450-   2 2.12   3 2.12   4 2.12  12 2.12  19 2.12   6 2.13
  35  0.250  0.250  0.351-   3 2.12   2 2.12   1 2.12   9 2.12  18 2.12
  36  0.500  0.000  0.351-   4 2.12   2 2.12   1 2.12  10 2.12  17 2.12
  37  0.250  1.000  0.651-   7 2.11  15 2.12  24 2.12   8 2.12   5 2.15
  38  0.500  0.249  0.651-   8 2.11   7 2.12  23 2.12  16 2.13   6 2.14
  39  0.250  0.250  0.550-   7 2.10   5 2.12  22 2.12   6 2.12  13 2.12   3 2.12
  40  0.500  0.000  0.550-   8 2.11  21 2.12   5 2.12   6 2.12  14 2.12   4 2.12
  41  0.250  0.500  0.450-   9 2.12   3 2.12  11 2.12  12 2.12  28 2.12  13 2.13
  42  0.500  0.750  0.450-  10 2.12   4 2.12  11 2.12  12 2.12  27 2.12  14 2.13
  43  0.250  0.750  0.351-  11 2.12   9 2.12  10 2.12   1 2.12  26 2.12
  44  0.500  0.500  0.351-  12 2.12   9 2.12  10 2.12   2 2.12  25 2.12
  45  0.249  0.500  0.651-  32 2.11   7 2.12  15 2.12  16 2.13  13 2.14
  46  0.500  0.751  0.651-   8 2.11  31 2.12  15 2.12  16 2.13  14 2.14
  47  0.250  0.750  0.550-  15 2.11   5 2.12  30 2.12  14 2.12  13 2.12  11 2.12
  48  0.500  0.500  0.550-   6 2.11  14 2.11  13 2.11  29 2.11  12 2.13  16 2.14
  49  0.750  0.000  0.450-  17 2.12   4 2.12  19 2.12  20 2.12  27 2.12  21 2.13
  50  0.000  0.250  0.450-  18 2.12   3 2.12  19 2.12  20 2.12  28 2.12  22 2.13
  51  0.750  0.250  0.351-  19 2.12  17 2.12  18 2.12   2 2.12  25 2.12
  52  0.000  0.000  0.351-  20 2.12  17 2.12  18 2.12   1 2.12  26 2.12
  53  0.750  0.000  0.651-  31 2.11  23 2.12  24 2.12   8 2.12  21 2.15
  54  1.000  0.250  0.651-   7 2.11  23 2.12  24 2.12  32 2.12  22 2.15
  55  0.750  0.250  0.550-  23 2.11  21 2.12  22 2.12   6 2.12  29 2.12  19 2.12
  56  1.000  1.000  0.550-  24 2.11  21 2.12   5 2.12  30 2.12  22 2.12  20 2.12
  57  0.750  0.500  0.450-  25 2.12  19 2.12  12 2.12  27 2.12  28 2.12  29 2.13
  58  0.000  0.750  0.450-  26 2.12  20 2.12  11 2.12  27 2.12  28 2.12  30 2.13
  59  0.750  0.750  0.351-  27 2.12  17 2.12  25 2.12  26 2.12  10 2.12
  60  0.000  0.500  0.351-  28 2.12  18 2.12  25 2.12  26 2.12   9 2.12
  61  0.751  0.500  0.651-  32 2.11  31 2.12  23 2.12  16 2.13  29 2.14
  62  0.000  0.750  0.651-  31 2.11  15 2.12  24 2.12  32 2.12  30 2.15
  63  0.750  0.750  0.550-  31 2.10  21 2.12  30 2.12  14 2.12  29 2.12  27 2.12
  64  0.000  0.500  0.550-  32 2.11  30 2.12  22 2.12  13 2.12  29 2.12  28 2.12

IMPORTANT INFORMATION: All symmetrisations will be switched off!
NOSYMM: (Re-)initialisation of all symmetry stuff for point group C_1.

                                     Primitive cell

  volume of cell :    1530.6606

  direct lattice vectors                    reciprocal lattice vectors
     8.467142631  0.000000000  0.000000000     0.118103597  0.000000000  0.000000000
     0.000000000  8.467142631  0.000000000     0.000000000  0.118103597  0.000000000
     0.000000000  0.000000000 21.350356973     0.000000000  0.000000000  0.046837624

  length of vectors
     8.467142631  8.467142631 21.350356973     0.118103597  0.118103597  0.046837624

  position of ions in fractional coordinates (direct lattice)
     0.250000000  0.000000000  0.351282183
     0.500000000  0.250000000  0.351282183
     0.250000000  0.250000000  0.450427394
     0.500000000  0.000000000  0.450427394
     0.250047005  0.999906921  0.550112484
     0.499986885  0.250452920  0.550203293
     0.249617440  0.249618035  0.648233776
     0.499999997  0.000000007  0.648368363
     0.250000000  0.500000000  0.351282183
     0.500000000  0.750000000  0.351282183
     0.250000000  0.750000000  0.450427394
     0.500000000  0.500000000  0.450427394
     0.250452684  0.499986883  0.550203340
     0.500013121  0.749547082  0.550203310
     0.249926952  0.750072444  0.648539027
     0.499999997  0.499999998  0.650393270
     0.750000000  0.000000000  0.351282183
     0.000000000  0.250000000  0.351282183
     0.750000000  0.250000000  0.450427394
     0.000000000  0.000000000  0.450427394
     0.749952997  0.000093079  0.550112488
     0.999906921  0.250047028  0.550112417
     0.750073048  0.249927553  0.648539026
     0.000000003  0.000000003  0.648467728
     0.750000000  0.500000000  0.351282183
     0.000000000  0.750000000  0.351282183
     0.750000000  0.750000000  0.450427394
     0.000000000  0.500000000  0.450427394
     0.749547320  0.500013122  0.550203356
     0.000093078  0.749952973  0.550112422
     0.750382564  0.750381970  0.648233743
     0.000000008  0.499999999  0.648368053
     0.250000000  0.000000000  0.450427394
     0.500000000  0.250000000  0.450427394
     0.250000000  0.250000000  0.351282183
     0.500000000  0.000000000  0.351282183
     0.249844990  0.999921192  0.650754325
     0.499662185  0.248970281  0.650581725
     0.249914125  0.249913788  0.549768950
     0.500000002  0.000000005  0.549760596
     0.250000000  0.500000000  0.450427394
     0.500000000  0.750000000  0.450427394
     0.250000000  0.750000000  0.351282183
     0.500000000  0.500000000  0.351282183
     0.248969517  0.499662200  0.650580817
     0.500337819  0.751029725  0.650581706
     0.250020149  0.749980179  0.549860114
     0.499999997  0.499999999  0.550148442
     0.750000000  0.000000000  0.450427394
     0.000000000  0.250000000  0.450427394
     0.750000000  0.250000000  0.351282183
     0.000000000  0.000000000  0.351282183
     0.750155011  0.000078810  0.650754326
     0.999921194  0.249844687  0.650754259
     0.749979850  0.250019820  0.549860114
     0.999999999  0.999999999  0.549790395
     0.750000000  0.500000000  0.450427394
     0.000000000  0.750000000  0.450427394
     0.750000000  0.750000000  0.351282183
     0.000000000  0.500000000  0.351282183
     0.751030491  0.500337807  0.650580797
     0.000078807  0.750155315  0.650754261
     0.750085882  0.750086215  0.549768949
     0.000000005  0.500000003  0.549760278

  ion indices of the primitive-cell ions
   primitive index   ion index
                 1           1
                 2           2
                 3           3
                 4           4
                 5           5
                 6           6
                 7           7
                 8           8
                 9           9
                10          10
                11          11
                12          12
                13          13
                14          14
                15          15
                16          16
                17          17
[...]
   0.75000000  0.50000000  0.45042739
   0.00000000  0.75000000  0.45042739
   0.75000000  0.75000000  0.35128218
   0.00000000  0.50000000  0.35128218
   0.75103049  0.50033781  0.65058080
   0.00007881  0.75015532  0.65075426
   0.75008588  0.75008622  0.54976895
   0.00000001  0.50000000  0.54976028

 position of ions in cartesian coordinates  (Angst):
   2.11678566  0.00000000  7.50000000
   4.23357132  2.11678566  7.50000000
   2.11678566  2.11678566  9.61678566
   4.23357132  0.00000000  9.61678566
   2.11718366  8.46635452 11.74509790
   4.23346027  2.12062059 11.74703672
   2.11354646  2.11355150 13.84002252
   4.23357129  0.00000006 13.84289599
   2.11678566  4.23357132  7.50000000
   4.23357132  6.35035697  7.50000000
   2.11678566  6.35035697  9.61678566
   4.23357132  4.23357132  9.61678566
   2.12061860  4.23346025 11.74703772
   4.23368241  6.34652205 11.74703708
   2.11616715  6.35097037 13.84653974
   4.23357129  4.23357130 13.88612848
   6.35035697  0.00000000  7.50000000
   0.00000000  2.11678566  7.50000000
   6.35035697  2.11678566  9.61678566
   0.00000000  0.00000000  9.61678566
   6.34995899  0.00078811 11.74509800
   8.46635452  2.11718385 11.74509649
   6.35097548  2.11617224 13.84653972
   0.00000002  0.00000003 13.84501748
   6.35035697  4.23357132  7.50000000
   0.00000000  6.35035697  7.50000000
   6.35035697  6.35035697  9.61678566
   0.00000000  4.23357132  9.61678566
   6.34652407  4.23368242 11.74703806
   0.00078810  6.34995879 11.74509658
   6.35359620  6.35359117 13.84002180
   0.00000007  4.23357131 13.84288939
   2.11678566  0.00000000  9.61678566
   4.23357132  2.11678566  9.61678566
   2.11678566  2.11678566  7.50000000
   4.23357132  0.00000000  7.50000000
   2.11547316  8.46647535 13.89383713
   4.23071099  2.10806688 13.89015206
   2.11605854  2.11605569 11.73776332
   4.23357133  0.00000005 11.73758498
   2.11678566  4.23357132  9.61678566
   4.23357132  6.35035697  9.61678566
   2.11678566  6.35035697  7.50000000
   4.23357132  4.23357132  7.50000000
   2.10806041  4.23071111 13.89013268
   4.23643167  6.35907580 13.89015165
   2.11695626  6.35018914 11.73970973
   4.23357129  4.23357130 11.74586563
   6.35035697  0.00000000  9.61678566
   0.00000000  2.11678566  9.61678566
   6.35035697  2.11678566  7.50000000
   0.00000000  0.00000000  7.50000000
   6.35166947  0.00066730 13.89383716
   8.46647537  2.11547060 13.89383573
   6.35018636  2.11695348 11.73970973
   8.46714262  8.46714262 11.73822119
   6.35035697  4.23357132  9.61678566
   0.00000000  6.35035697  9.61678566
   6.35035697  6.35035697  7.50000000
   0.00000000  4.23357132  7.50000000
   6.35908229  4.23643157 13.89013225
   0.00066727  6.35167205 13.89383576
   6.35108415  6.35108697 11.73776331
   0.00000004  4.23357134 11.73757818

--------------------------------------- Iteration      FINAL  ---------------------------------------

--------------------OUTCAR has been truncated-------------------------

[...]

--------------------OUTCAR has been truncated-------------------------

  FORCE on cell =-STRESS in cart. coord.  units (eV):
  Direction    XX          YY          ZZ          XY          YZ          ZX
  Alpha Z   869.06037   869.06037   869.06037
  Ewald  160144.23692160144.23725************    -0.04395     0.00001     0.00001
  Hartree170194.62514170194.62538************    -0.02343     0.00001     0.00001
  E(xc)   -2521.59891 -2521.59891 -2524.18042    -0.00003     0.00000     0.00000
  Local  ************************340495.02489     0.06613    -0.00001    -0.00002
  n-local -2814.10912 -2814.10912 -2833.16521    -0.00016     0.00000     0.00000
  augment  1077.84481  1077.84481  1069.08048    -0.00007    -0.00000    -0.00000
  Kinetic  7322.47985  7322.47984  7357.96284     0.00042    -0.00001     0.00000
  Fock        0.00000     0.00000     0.00000     0.00000     0.00000     0.00000
  Total     -14.47119   -14.47119     9.59291    -0.00109    -0.00001     0.00000
  in kB     -15.14732   -15.14733    10.04112    -0.00114    -0.00001     0.00000

 VOLUME and BASIS-vectors are now :
  energy-cutoff  :      600.00
  volume of cell :     1530.66
      direct lattice vectors                 reciprocal lattice vectors
     8.467142631  0.000000000  0.000000000     0.118103597  0.000000000  0.000000000
     0.000000000  8.467142631  0.000000000     0.000000000  0.118103597  0.000000000
     0.000000000  0.000000000 21.350356973     0.000000000  0.000000000  0.046837624

  length of vectors
     8.467142631  8.467142631 21.350356973     0.118103597  0.118103597  0.046837624

 FORCES acting on ions:
    Electron-Ion                     Ewald-Force                    Non-Local-Force
   -.627E-01 0.748E-02 0.205E+04   0.620E-01 -.797E-02 -.205E+04   0.526E-03 0.386E-03 -.645E+01
   -.813E-02 -.797E-01 0.205E+04   0.830E-02 0.813E-01 -.205E+04   -.136E-03 -.128E-02 -.645E+01
   -.327E+00 -.327E+00 0.680E+03   0.324E+00 0.324E+00 -.680E+03   0.178E-02 0.179E-02 0.437E+00
   0.196E-06 0.137E-04 0.680E+03   0.371E-06 -.152E-04 -.680E+03   -.894E-06 0.253E-06 0.407E+00
   -.330E+00 0.208E+00 -.684E+03   0.353E+00 -.222E+00 0.684E+03   -.197E-01 0.127E-01 -.214E+00
   -.227E+00 -.121E+01 -.686E+03   0.241E+00 0.130E+01 0.686E+03   -.135E-01 -.996E-01 -.300E+00
   -.133E+01 -.133E+01 -.204E+04   0.123E+01 0.123E+01 0.203E+04   0.956E-01 0.955E-01 0.551E+01
   0.698E-06 0.369E-05 -.204E+04   -.135E-05 -.217E-06 0.203E+04   0.299E-10 -.246E-05 0.547E+01
   -.799E-01 -.813E-02 0.205E+04   0.814E-01 0.830E-02 -.205E+04   -.128E-02 -.137E-03 -.645E+01
   0.813E-02 0.797E-01 0.205E+04   -.830E-02 -.813E-01 -.205E+04   0.135E-03 0.128E-02 -.645E+01
   -.322E+00 0.321E+00 0.679E+03   0.325E+00 -.325E+00 -.680E+03   -.191E-02 0.190E-02 0.467E+00
   -.115E-04 -.115E-04 0.678E+03   0.141E-04 0.141E-04 -.679E+03   -.288E-05 -.106E-05 0.533E+00
   -.122E+01 -.227E+00 -.686E+03   0.130E+01 0.241E+00 0.686E+03   -.996E-01 -.135E-01 -.300E+00
   0.227E+00 0.121E+01 -.686E+03   -.241E+00 -.130E+01 0.686E+03   0.135E-01 0.996E-01 -.300E+00
   -.168E+01 0.168E+01 -.204E+04   0.151E+01 -.151E+01 0.203E+04   0.152E+00 -.152E+00 0.557E+01
   -.118E-04 -.443E-05 -.205E+04   0.102E-04 -.515E-06 0.205E+04   0.110E-06 0.249E-05 0.585E+01
   0.627E-01 -.748E-02 0.205E+04   -.620E-01 0.797E-02 -.205E+04   -.525E-03 -.385E-03 -.645E+01
   0.748E-02 -.626E-01 0.205E+04   -.797E-02 0.619E-01 -.205E+04   0.387E-03 0.523E-03 -.645E+01
   0.322E+00 -.322E+00 0.679E+03   -.325E+00 0.325E+00 -.680E+03   0.191E-02 -.190E-02 0.467E+00
   -.115E-05 0.112E-06 0.680E+03   -.228E-07 0.327E-06 -.680E+03   0.742E-06 -.603E-07 0.439E+00
   0.330E+00 -.208E+00 -.684E+03   -.353E+00 0.222E+00 0.684E+03   0.197E-01 -.127E-01 -.214E+00
   0.208E+00 -.329E+00 -.684E+03   -.222E+00 0.351E+00 0.684E+03   0.127E-01 -.197E-01 -.214E+00
   0.168E+01 -.168E+01 -.204E+04   -.151E+01 0.151E+01 0.203E+04   -.152E+00 0.152E+00 0.557E+01
   -.301E-05 -.456E-06 -.204E+04   0.352E-05 0.162E-05 0.203E+04   -.210E-05 0.652E-06 0.547E+01
   0.799E-01 0.813E-02 0.205E+04   -.814E-01 -.830E-02 -.205E+04   0.128E-02 0.135E-03 -.645E+01
   -.748E-02 0.626E-01 0.205E+04   0.797E-02 -.619E-01 -.205E+04   -.384E-03 -.526E-03 -.645E+01
   0.327E+00 0.327E+00 0.680E+03   -.324E+00 -.324E+00 -.680E+03   -.178E-02 -.179E-02 0.437E+00
   0.114E-04 0.186E-05 0.680E+03   -.133E-04 -.103E-05 -.680E+03   0.114E-05 -.981E-06 0.407E+00
   0.122E+01 0.227E+00 -.686E+03   -.130E+01 -.241E+00 0.686E+03   0.996E-01 0.135E-01 -.300E+00
   -.208E+00 0.329E+00 -.684E+03   0.222E+00 -.351E+00 0.684E+03   -.127E-01 0.197E-01 -.214E+00
   0.133E+01 0.133E+01 -.204E+04   -.123E+01 -.123E+01 0.203E+04   -.956E-01 -.955E-01 0.551E+01
   0.174E-05 0.241E-05 -.204E+04   0.142E-05 -.544E-05 0.203E+04   -.153E-05 -.121E-06 0.547E+01
   -.163E+00 0.443E-01 0.509E+03   0.167E+00 -.362E-01 -.509E+03   -.501E-02 -.111E-01 -.719E-01
   -.541E-01 -.255E+00 0.509E+03   0.530E-01 0.226E+00 -.509E+03   0.168E-02 0.383E-01 -.816E-01
   -.539E-01 -.538E-01 0.154E+04   0.541E-01 0.540E-01 -.155E+04   -.246E-03 -.246E-03 0.356E+01
   0.874E-07 -.665E-07 0.154E+04   0.340E-06 -.163E-05 -.155E+04   -.127E-06 -.110E-05 0.356E+01
   -.418E+00 0.258E+00 -.155E+04   0.456E+00 -.270E+00 0.156E+04   -.353E-01 0.951E-02 -.521E+01
   -.406E+00 -.273E+01 -.155E+04   0.370E+00 0.268E+01 0.155E+04   0.659E-01 0.174E+00 -.486E+01
   -.566E+00 -.565E+00 -.506E+03   0.566E+00 0.566E+00 0.506E+03   0.168E-02 0.172E-02 0.412E+00
   0.136E-04 -.324E-05 -.506E+03   -.134E-04 0.501E-05 0.506E+03   0.285E-06 -.204E-06 0.365E+00
   -.255E+00 -.541E-01 0.509E+03   0.226E+00 0.530E-01 -.509E+03   0.383E-01 0.168E-02 -.816E-01
   0.541E-01 0.255E+00 0.509E+03   -.530E-01 -.226E+00 -.509E+03   -.168E-02 -.383E-01 -.816E-01
   -.544E-01 0.543E-01 0.154E+04   0.543E-01 -.542E-01 -.155E+04   0.125E-03 -.126E-03 0.356E+01
   0.276E-06 -.217E-05 0.154E+04   0.152E-05 0.161E-05 -.155E+04   0.109E-05 -.489E-06 0.356E+01
   -.273E+01 -.406E+00 -.155E+04   0.268E+01 0.370E+00 0.155E+04   0.174E+00 0.659E-01 -.486E+01
   0.406E+00 0.273E+01 -.155E+04   -.370E+00 -.268E+01 0.155E+04   -.659E-01 -.174E+00 -.486E+01
   -.595E+00 0.594E+00 -.508E+03   0.597E+00 -.596E+00 0.507E+03   -.862E-03 0.819E-03 0.333E+00
   0.616E-05 0.110E-04 -.515E+03   -.494E-05 -.109E-04 0.515E+03   0.892E-06 0.974E-07 -.101E+00
   0.163E+00 -.443E-01 0.509E+03   -.167E+00 0.362E-01 -.509E+03   0.501E-02 0.111E-01 -.719E-01
   0.443E-01 -.163E+00 0.509E+03   -.362E-01 0.166E+00 -.509E+03   -.111E-01 -.502E-02 -.719E-01
   0.544E-01 -.543E-01 0.154E+04   -.543E-01 0.542E-01 -.155E+04   -.125E-03 0.125E-03 0.356E+01
   -.293E-05 -.770E-06 0.154E+04   -.323E-06 -.288E-06 -.155E+04   0.327E-06 -.254E-05 0.356E+01
   0.418E+00 -.258E+00 -.155E+04   -.456E+00 0.270E+00 0.156E+04   0.353E-01 -.951E-02 -.521E+01
   0.258E+00 -.417E+00 -.155E+04   -.270E+00 0.455E+00 0.156E+04   0.951E-02 -.352E-01 -.521E+01
   0.595E+00 -.594E+00 -.508E+03   -.597E+00 0.596E+00 0.507E+03   0.862E-03 -.820E-03 0.333E+00
   -.183E-04 -.153E-04 -.507E+03   0.157E-04 0.148E-04 0.507E+03   -.220E-06 0.125E-05 0.324E+00
   0.255E+00 0.541E-01 0.509E+03   -.226E+00 -.530E-01 -.509E+03   -.383E-01 -.169E-02 -.817E-01
   -.443E-01 0.163E+00 0.509E+03   0.362E-01 -.166E+00 -.509E+03   0.111E-01 0.502E-02 -.719E-01
   0.539E-01 0.538E-01 0.154E+04   -.541E-01 -.540E-01 -.155E+04   0.245E-03 0.242E-03 0.356E+01
   0.479E-05 0.384E-07 0.154E+04   -.149E-05 0.268E-06 -.155E+04   -.116E-05 -.267E-05 0.356E+01
   0.273E+01 0.406E+00 -.155E+04   -.268E+01 -.370E+00 0.155E+04   -.174E+00 -.659E-01 -.486E+01
   -.258E+00 0.417E+00 -.155E+04   0.270E+00 -.455E+00 0.156E+04   -.951E-02 0.352E-01 -.521E+01
   0.566E+00 0.565E+00 -.506E+03   -.566E+00 -.566E+00 0.506E+03   -.168E-02 -.172E-02 0.412E+00
   -.132E-04 0.161E-04 -.506E+03   0.103E-04 -.178E-04 0.506E+03   0.128E-05 -.357E-06 0.365E+00
   -.843E-05 -.172E-04 0.157E+02   -.347E-12 0.229E-12 -.387E-11   0.912E-05 -.197E-04 -.156E+02

 POSITION                                       TOTAL-FORCE (eV/Angst)
      2.11679      0.00000      7.50000        -0.000165     -0.000100      0.199871
      4.23357      2.11679      7.50000         0.000034      0.000281      0.199566
      2.11679      2.11679      9.61679        -0.000846     -0.000848      0.028110
      4.23357      0.00000      9.61679        -0.000000     -0.000001      0.037236
      2.11718      8.46635     11.74510         0.002755     -0.001163     -0.004078
      4.23346      2.12062     11.74704         0.001177     -0.010691      0.000182
      2.11355      2.11355     13.84002        -0.004066     -0.004129      0.220804
      4.23357      0.00000     13.84290        -0.000001      0.000002      0.207557
      2.11679      4.23357      7.50000         0.000284      0.000033      0.199566
      4.23357      6.35036      7.50000        -0.000034     -0.000281      0.199567
      2.11679      6.35036      9.61679         0.001258     -0.001252      0.029462
      4.23357      4.23357      9.61679        -0.000000      0.000002      0.035146
      2.12062      4.23346     11.74704        -0.010662      0.001178      0.000126
      4.23368      6.34652     11.74704        -0.001180      0.010691      0.000179
      2.11617      6.35097     13.84654        -0.016312      0.016376      0.169294
      4.23357      4.23357     13.88613        -0.000001     -0.000002     -0.094924
      6.35036      0.00000      7.50000         0.000166      0.000101      0.199867
      0.00000      2.11679      7.50000        -0.000103     -0.000166      0.199870
      6.35036      2.11679      9.61679        -0.001255      0.001254      0.029462
      0.00000      0.00000      9.61679        -0.000000      0.000001      0.027441
      6.34996      0.00079     11.74510        -0.002755      0.001164     -0.004080
      8.46635      2.11718     11.74510        -0.001162      0.002731     -0.004091
      6.35098      2.11617     13.84654         0.016313     -0.016377      0.169298
      0.00000      0.00000     13.84502        -0.000002      0.000002      0.203143
      6.35036      4.23357      7.50000        -0.000284     -0.000033      0.199567
      0.00000      6.35036      7.50000         0.000102      0.000165      0.199870
      6.35036      6.35036      9.61679         0.000846      0.000850      0.028109
      0.00000      4.23357      9.61679        -0.000001      0.000000      0.037218
      6.34652      4.23368     11.74704         0.010663     -0.001180      0.000124
      0.00079      6.34996     11.74510         0.001163     -0.002731     -0.004094
      6.35360      6.35359     13.84002         0.004069      0.004132      0.220801
      0.00000      4.23357     13.84289         0.000002     -0.000003      0.207553
      2.11679      0.00000      9.61679        -0.001550     -0.003041      0.058697
      4.23357      2.11679      9.61679         0.000619      0.009628      0.065837
      2.11679      2.11679      7.50000        -0.000074     -0.000074     -0.519163
      4.23357      0.00000      7.50000         0.000000     -0.000002     -0.519098
      2.11547      8.46648     13.89384         0.002901     -0.002742      0.023525
      4.23071      2.10807     13.89015         0.029967      0.121777      0.113864
      2.11606      2.11606     11.73776         0.001816      0.001844     -0.004431
      4.23357      0.00000     11.73758         0.000000      0.000002     -0.003000
      2.11679      4.23357      9.61679         0.009633      0.000619      0.065837
      4.23357      6.35036      9.61679        -0.000617     -0.009629      0.065834
      2.11679      6.35036      7.50000         0.000040     -0.000039     -0.519200
      4.23357      4.23357      7.50000         0.000003     -0.000000     -0.519401
      2.10806      4.23071     13.89013         0.121783      0.029967      0.113967
      4.23643      6.35908     13.89015        -0.029967     -0.121775      0.113863
      2.11696      6.35019     11.73971         0.001500     -0.001527     -0.009161
      4.23357      4.23357     11.74587         0.000002      0.000001      0.007175
      6.35036      0.00000      9.61679         0.001548      0.003037      0.058698
      0.00000      2.11679      9.61679        -0.003041     -0.001551      0.058698
      6.35036      2.11679      7.50000        -0.000036      0.000037     -0.519198
      0.00000      0.00000      7.50000        -0.000003     -0.000003     -0.519471
      6.35167      0.00067     13.89384        -0.002904      0.002740      0.023524
      8.46648      2.11547     13.89384        -0.002742      0.002947      0.023529
      6.35019      2.11695     11.73971        -0.001500      0.001527     -0.009164
      8.46714      8.46714     11.73822        -0.000003      0.000001     -0.005852
      6.35036      4.23357      9.61679        -0.009633     -0.000618      0.065837
      0.00000      6.35036      9.61679         0.003036      0.001550      0.058697
      6.35036      6.35036      7.50000         0.000078      0.000074     -0.519164
      0.00000      4.23357      7.50000         0.000002     -0.000002     -0.519096
      6.35908      4.23643     13.89013        -0.121785     -0.029968      0.113965
      0.00067      6.35167     13.89384         0.002742     -0.002946      0.023527
      6.35108      6.35109     11.73776        -0.001816     -0.001842     -0.004433
      0.00000      4.23357     11.73758        -0.000002     -0.000002     -0.002961
    total drift:                                0.000001     -0.000037      0.067617

  FREE ENERGIE OF THE ION-ELECTRON SYSTEM (eV)
  free  energy   TOTEN  =      -227.41652163 eV

  energy  without entropy=     -227.41652163  energy(sigma->0) =     -227.41652163