 vasp.6.3.0 20Jan22 (build Apr  1 2022 16:44:48) complex
 executed on        HPECrayEX_GCC date 2022.11.01  21:14:57

 INCAR:
   SYSTEM = MgO-rocksalt
   ISMEAR = 0
   SIGMA = 0.05
   EDIFF = 1E-9
   ALGO = ALL
   ISTART = 0
   IBRION = 2
   NSW = 1000
   ISYM = 0
   ISIF = 2
   EDIFFG = -0.01
   DIPOL = 0.5 0.5 0.5
   IDIPOL = 3
   LDIPOL = .TRUE.
   GGA = MK
   LUSE_VDW = .TRUE.
   PARAM1 = 0.1234
   PARAM2 = 0.711357
   ZAB_VDW = -1.8867
   AGGAC = 0.0
   ENCUT = 600
   PREC = Accurate
   LASPH = .TRUE.
   LREAL = .FALSE.
   ISPIN = 2
   MAGMOM = 1.0 0.0 0.0 0.0 0.0 0.0 0.0 0.0 0.0 0.0 0.0 0.0 0.0 0.0 0.0 0.0 0.0 0.0 0.0 0.0 0.0 0.0 0.0 0.0 0.0 0.0 0.0 0.0 0.0 0.0 0.0 0.0 0.0 0.0 0.0 0.0 0.0 0.0 0.0 0.0 0.0 0.0 0.0 0.0 0.0 0.0 0.0 0.0 0.0 0.0 0.0 0.0 0.0 0.0 0.0 0.0 0.0 0.0 0.0 0.0 0.0 0.0 0.0 0.0 0.0 0.0
   NELM = 200
   NELMIN = 8
   NCORE = 8
   KPAR = 1
   LWAVE = .FALSE.
   LCHARG = .FALSE.

 POTCAR:    PAW_PBE N 08Apr2002
 POTCAR:    PAW_PBE O 08Apr2002
 POTCAR:    PAW_PBE Mg_pv 13Apr2007
 POTCAR:    PAW_PBE O 08Apr2002
|               ----> ADVICE to this user running VASP <----                  |
|     You have switched on vdW-DFT.                                           |
|     This routine was written and supplied by Jiri Klimes. We recommend      |
|     that you carefully read and cite the following publications:            |
|       J. Klimes, D.R. Bowler, A. Michelides                                 |
|          J. Phys.: Cond Matt. 22 022201 (2010)                              |
|       J. Klimes, D.R. Bowler, A. Michelides                                 |
|          Phys. Rev. B. 83, 195131 (2011)                                    |
|     and references therein.                                                 |

   TITEL  = PAW_PBE N 08Apr2002
   POMASS =   14.001; ZVAL   =    5.000    mass and valenz
   ENMAX  =  400.000; ENMIN  =  300.000 eV

[...]

   TITEL  = PAW_PBE Mg_pv 13Apr2007
   POMASS =   24.305; ZVAL   =    8.000    mass and valenz
   ENMAX  =  403.929; ENMIN  =  302.947 eV

   TITEL  = PAW_PBE O 08Apr2002
   POMASS =   16.000; ZVAL   =    6.000    mass and valenz
   ENMAX  =  400.000; ENMIN  =  300.000 eV

  PAW_PBE N 08Apr2002                   :
  PAW_PBE O 08Apr2002                   :
  PAW_PBE Mg_pv 13Apr2007               :
  PAW_PBE O 08Apr2002                   :

 POSCAR:  N  O Mg  O
  positions in direct lattice
 exchange correlation table for  LEXCH =       43
   RHO(1)=    0.500       N(1)  =     2000
   RHO(2)=  100.500       N(2)  =     4000

 ion  position               nearest neighbor table
   1  0.500  0.500  0.756-   2 1.17
   2  0.500  0.500  0.811-   1 1.17
   3  0.250  0.000  0.352-  35 2.11  37 2.11  38 2.11  45 2.11  54 2.11
   4  0.500  0.250  0.352-  36 2.11  37 2.11  38 2.11  46 2.11  53 2.11
   5  0.250  0.250  0.451-  37 2.11  36 2.11  35 2.11  43 2.11  52 2.11  41 2.12
   6  0.500  0.000  0.451-  38 2.11  36 2.11  35 2.11  44 2.11  51 2.11  42 2.12
   7  0.250  0.000  0.550-  41 2.11  42 2.11  49 2.11  58 2.11  35 2.12  39 2.14
   8  0.500  0.250  0.550-  41 2.11  42 2.11  50 2.11  57 2.11  36 2.12  40 2.14
   9  0.250  0.250  0.648-  41 2.10  40 2.11  39 2.11  47 2.11  56 2.11
  10  0.500  0.000  0.648-  42 2.10  40 2.11  39 2.11  48 2.11  55 2.11
  11  0.250  0.500  0.352-  43 2.11  37 2.11  45 2.11  46 2.11  62 2.11
  12  0.500  0.750  0.352-  44 2.11  38 2.11  45 2.11  46 2.11  61 2.11
  13  0.250  0.750  0.451-  45 2.11  43 2.11  44 2.11  35 2.11  60 2.11  49 2.12
  14  0.500  0.500  0.451-  46 2.11  43 2.11  44 2.11  36 2.11  59 2.11  50 2.12
  15  0.250  0.500  0.550-  41 2.11  49 2.11  50 2.11  66 2.11  43 2.12  47 2.14
  16  0.500  0.750  0.550-  42 2.11  49 2.11  50 2.11  65 2.11  44 2.12  48 2.14
  17  0.250  0.750  0.648-  49 2.10  47 2.11  48 2.11  39 2.11  64 2.11
  18  0.500  0.500  0.648-  50 2.10  47 2.11  48 2.11  40 2.11  63 2.11
  19  0.750  0.000  0.352-  51 2.11  38 2.11  53 2.11  54 2.11  61 2.11
  20  0.000  0.250  0.352-  52 2.11  37 2.11  53 2.11  54 2.11  62 2.11
  21  0.750  0.250  0.451-  53 2.11  51 2.11  52 2.11  36 2.11  59 2.11  57 2.12
  22  0.000  0.000  0.451-  54 2.11  51 2.11  52 2.11  35 2.11  60 2.11  58 2.12
  23  0.750  0.000  0.550-  42 2.11  57 2.11  58 2.11  65 2.11  51 2.12  55 2.14
  24  0.000  0.250  0.550-  41 2.11  57 2.11  58 2.11  66 2.11  52 2.12  56 2.14
  25  0.750  0.250  0.648-  57 2.10  55 2.11  56 2.11  40 2.11  63 2.11
  26  0.000  0.000  0.648-  58 2.10  55 2.11  56 2.11  39 2.11  64 2.11
  27  0.750  0.500  0.352-  59 2.11  53 2.11  46 2.11  61 2.11  62 2.11
  28  0.000  0.750  0.352-  60 2.11  54 2.11  45 2.11  61 2.11  62 2.11
  29  0.750  0.750  0.451-  61 2.11  51 2.11  59 2.11  60 2.11  44 2.11  65 2.12
  30  0.000  0.500  0.451-  62 2.11  52 2.11  59 2.11  60 2.11  43 2.11  66 2.12
  31  0.750  0.500  0.550-  50 2.11  57 2.11  65 2.11  66 2.11  59 2.12  63 2.14
  32  0.000  0.750  0.550-  49 2.11  58 2.11  65 2.11  66 2.11  60 2.12  64 2.14
  33  0.750  0.750  0.648-  65 2.10  55 2.11  63 2.11  64 2.11  48 2.11
  34  0.000  0.500  0.648-  66 2.10  56 2.11  63 2.11  64 2.11  47 2.11
  35  0.250  0.000  0.451-   3 2.11   5 2.11   6 2.11  13 2.11  22 2.11   7 2.12
  36  0.500  0.250  0.451-   4 2.11   5 2.11   6 2.11  14 2.11  21 2.11   8 2.12
  37  0.250  0.250  0.352-   5 2.11   4 2.11   3 2.11  11 2.11  20 2.11
  38  0.500  0.000  0.352-   6 2.11   4 2.11   3 2.11  12 2.11  19 2.11
  39  0.250  0.000  0.650-   9 2.11  10 2.11  17 2.11  26 2.11   7 2.14
  40  0.500  0.250  0.650-   9 2.11  10 2.11  18 2.11  25 2.11   8 2.14
  41  0.250  0.250  0.550-   9 2.10   8 2.11   7 2.11  15 2.11  24 2.11   5 2.12
  42  0.500  0.000  0.550-  10 2.10   8 2.11   7 2.11  16 2.11  23 2.11   6 2.12
  43  0.250  0.500  0.451-  11 2.11   5 2.11  13 2.11  14 2.11  30 2.11  15 2.12
  44  0.500  0.750  0.451-  12 2.11   6 2.11  13 2.11  14 2.11  29 2.11  16 2.12
  45  0.250  0.750  0.352-  13 2.11  11 2.11  12 2.11   3 2.11  28 2.11
  46  0.500  0.500  0.352-  14 2.11  11 2.11  12 2.11   4 2.11  27 2.11
  47  0.250  0.500  0.650-   9 2.11  17 2.11  18 2.11  34 2.11  15 2.14
  48  0.500  0.750  0.650-  10 2.11  17 2.11  18 2.11  33 2.11  16 2.14
  49  0.250  0.750  0.550-  17 2.10  15 2.11  16 2.11   7 2.11  32 2.11  13 2.12
  50  0.500  0.500  0.550-  18 2.10  15 2.11  16 2.11   8 2.11  31 2.11  14 2.12
  51  0.750  0.000  0.451-  19 2.11   6 2.11  21 2.11  22 2.11  29 2.11  23 2.12
  52  0.000  0.250  0.451-  20 2.11   5 2.11  21 2.11  22 2.11  30 2.11  24 2.12
  53  0.750  0.250  0.352-  21 2.11  19 2.11  20 2.11   4 2.11  27 2.11
  54  0.000  0.000  0.352-  22 2.11  19 2.11  20 2.11   3 2.11  28 2.11
  55  0.750  0.000  0.650-  10 2.11  25 2.11  26 2.11  33 2.11  23 2.14
  56  0.000  0.250  0.650-   9 2.11  25 2.11  26 2.11  34 2.11  24 2.14
  57  0.750  0.250  0.550-  25 2.10  23 2.11  24 2.11   8 2.11  31 2.11  21 2.12
  58  0.000  0.000  0.550-  26 2.10  23 2.11  24 2.11   7 2.11  32 2.11  22 2.12
  59  0.750  0.500  0.451-  27 2.11  21 2.11  14 2.11  29 2.11  30 2.11  31 2.12
  60  0.000  0.750  0.451-  28 2.11  22 2.11  13 2.11  29 2.11  30 2.11  32 2.12
  61  0.750  0.750  0.352-  29 2.11  19 2.11  27 2.11  28 2.11  12 2.11
  62  0.000  0.500  0.352-  30 2.11  20 2.11  27 2.11  28 2.11  11 2.11
  63  0.750  0.500  0.650-  18 2.11  25 2.11  33 2.11  34 2.11  31 2.14
  64  0.000  0.750  0.650-  17 2.11  26 2.11  33 2.11  34 2.11  32 2.14
  65  0.750  0.750  0.550-  33 2.10  23 2.11  31 2.11  32 2.11  16 2.11  29 2.12
  66  0.000  0.500  0.550-  34 2.10  24 2.11  31 2.11  32 2.11  15 2.11  30 2.12

IMPORTANT INFORMATION: All symmetrisations will be switched off!
NOSYMM: (Re-)initialisation of all symmetry stuff for point group C_1.

                                     Primitive cell

  volume of cell :    1519.6535

  direct lattice vectors                    reciprocal lattice vectors
     8.440582262  0.000000000  0.000000000     0.118475239  0.000000000  0.000000000
     0.000000000  8.440582262  0.000000000     0.000000000  0.118475239  0.000000000
     0.000000000  0.000000000 21.330436697     0.000000000  0.000000000  0.046881366

  length of vectors
     8.440582262  8.440582262 21.330436697     0.118475239  0.118475239  0.046881366

  position of ions in fractional coordinates (direct lattice)
     0.500000000  0.500000000  0.756175500
     0.499999997  0.500000002  0.810916243
     0.250000000  0.000000000  0.351610242
     0.500000000  0.250000000  0.351610242
     0.250000000  0.250000000  0.450536747
     0.500000000  0.000000000  0.450536747
     0.250000000  0.000000000  0.549966382
     0.500000000  0.250000000  0.549966382
     0.250000000  0.250000000  0.648348359
     0.500000000  0.000000000  0.648348359
     0.250000000  0.500000000  0.351610242
     0.500000000  0.750000000  0.351610242
     0.250000000  0.750000000  0.450536747
     0.500000000  0.500000000  0.450536747
     0.250000000  0.500000000  0.549966382
     0.500000000  0.750000000  0.549966382
     0.250000000  0.750000000  0.648348359
     0.500000000  0.500000000  0.648348359
     0.750000000  0.000000000  0.351610242
     0.000000000  0.250000000  0.351610242
     0.750000000  0.250000000  0.450536747
     0.000000000  0.000000000  0.450536747
     0.750000000  0.000000000  0.549966382
     0.000000000  0.250000000  0.549966382
     0.750000000  0.250000000  0.648348359
     0.000000000  0.000000000  0.648348359
     0.750000000  0.500000000  0.351610242
     0.000000000  0.750000000  0.351610242
     0.750000000  0.750000000  0.450536747
     0.000000000  0.500000000  0.450536747
     0.750000000  0.500000000  0.549966382
     0.000000000  0.750000000  0.549966382
     0.750000000  0.750000000  0.648348359
     0.000000000  0.500000000  0.648348359
     0.250000000  0.000000000  0.450536747
     0.500000000  0.250000000  0.450536747
     0.250000000  0.250000000  0.351610242
     0.500000000  0.000000000  0.351610242
     0.250000000  0.000000000  0.650177506
     0.500000000  0.250000000  0.650177506
     0.250000000  0.250000000  0.549707339
     0.500000000  0.000000000  0.549707339
     0.250000000  0.500000000  0.450536747
     0.500000000  0.750000000  0.450536747
     0.250000000  0.750000000  0.351610242
     0.500000000  0.500000000  0.351610242
     0.250000000  0.500000000  0.650177506
     0.500000000  0.750000000  0.650177506
     0.250000000  0.750000000  0.549707339
     0.500000000  0.500000000  0.549707339
     0.750000000  0.000000000  0.450536747
     0.000000000  0.250000000  0.450536747
     0.750000000  0.250000000  0.351610242
     0.000000000  0.000000000  0.351610242
     0.750000000  0.000000000  0.650177506
     0.000000000  0.250000000  0.650177506
     0.750000000  0.250000000  0.549707339
     0.000000000  0.000000000  0.549707339
     0.750000000  0.500000000  0.450536747
     0.000000000  0.750000000  0.450536747
     0.750000000  0.750000000  0.351610242
     0.000000000  0.500000000  0.351610242
     0.750000000  0.500000000  0.650177506
     0.000000000  0.750000000  0.650177506
     0.750000000  0.750000000  0.549707339
     0.000000000  0.500000000  0.549707339

  ion indices of the primitive-cell ions
   primitive index   ion index
[...]
   0.00000000  2.11014557  7.50000000
   6.33043670  2.11014557  9.61014557
   0.00000000  0.00000000  9.61014557
   6.33043670  0.00000000 11.73102311
   0.00000000  2.11014557 11.73102311
   6.33043670  2.11014557 13.82955363
   0.00000000  0.00000000 13.82955363
   6.33043670  4.22029113  7.50000000
   0.00000000  6.33043670  7.50000000
   6.33043670  6.33043670  9.61014557
   0.00000000  4.22029113  9.61014557
   6.33043670  4.22029113 11.73102311
   0.00000000  6.33043670 11.73102311
   6.33043670  6.33043670 13.82955363
   0.00000000  4.22029113 13.82955363
   2.11014557  0.00000000  9.61014557
   4.22029113  2.11014557  9.61014557
   2.11014557  2.11014557  7.50000000
   4.22029113  0.00000000  7.50000000
   2.11014557  0.00000000 13.86857013
   4.22029113  2.11014557 13.86857013
   2.11014557  2.11014557 11.72549760
   4.22029113  0.00000000 11.72549760
   2.11014557  4.22029113  9.61014557
   4.22029113  6.33043670  9.61014557
   2.11014557  6.33043670  7.50000000
   4.22029113  4.22029113  7.50000000
   2.11014557  4.22029113 13.86857013
   4.22029113  6.33043670 13.86857013
   2.11014557  6.33043670 11.72549760
   4.22029113  4.22029113 11.72549760
   6.33043670  0.00000000  9.61014557
   0.00000000  2.11014557  9.61014557
   6.33043670  2.11014557  7.50000000
   0.00000000  0.00000000  7.50000000
   6.33043670  0.00000000 13.86857013
   0.00000000  2.11014557 13.86857013
   6.33043670  2.11014557 11.72549760
   0.00000000  0.00000000 11.72549760
   6.33043670  4.22029113  9.61014557
   0.00000000  6.33043670  9.61014557
   6.33043670  6.33043670  7.50000000
   0.00000000  4.22029113  7.50000000
   6.33043670  4.22029113 13.86857013
   0.00000000  6.33043670 13.86857013
   6.33043670  6.33043670 11.72549760
   0.00000000  4.22029113 11.72549760

--------------------------------------- Iteration      FINAL  ---------------------------------------

--------------------OUTCAR has been truncated-------------------------

[...]

--------------------OUTCAR has been truncated-------------------------

  FORCE on cell =-STRESS in cart. coord.  units (eV):
  Direction    XX          YY          ZZ          XY          YZ          ZX
  Alpha Z   910.35202   910.35202   910.35202
  Ewald  158220.09720158220.08076************     0.26201     0.00013     0.00013
  Hartree168635.00635168635.04839************     6.02551     0.00007     0.00007
  E(xc)   -2506.85028 -2506.84906 -2505.71500     0.13736     0.00000     0.00000
  Local  ************************336290.81648   -17.36634    -0.00018    -0.00019
  n-local -2862.70203 -2862.73757 -2889.32320    -3.96772    -0.00000    -0.00000
  augment  1059.02073  1059.03032  1048.73284     1.05439    -0.00000    -0.00000
  Kinetic  7539.33412  7539.45984  7546.58804    13.64925    -0.00001    -0.00001
  Fock        0.00000     0.00000     0.00000     0.00000     0.00000     0.00000
  Total     -29.58048   -29.57834    -2.14363    -0.20553     0.00000     0.00000
  in kB     -31.18683   -31.18458    -2.26003    -0.21669     0.00000     0.00000

 VOLUME and BASIS-vectors are now :
  energy-cutoff  :      600.00
  volume of cell :     1519.65
      direct lattice vectors                 reciprocal lattice vectors
     8.440582262  0.000000000  0.000000000     0.118475239  0.000000000  0.000000000
     0.000000000  8.440582262  0.000000000     0.000000000  0.118475239  0.000000000
     0.000000000  0.000000000 21.330436697     0.000000000  0.000000000  0.046881366

  length of vectors
     8.440582262  8.440582262 21.330436697     0.118475239  0.118475239  0.046881366

 FORCES acting on ions:
    Electron-Ion                     Ewald-Force                    Non-Local-Force
   0.478E-04 0.701E-04 -.110E+04   -.599E-04 -.832E-04 0.106E+04   0.117E-04 0.132E-04 0.411E+02
   -.741E-04 -.806E-04 -.153E+04   0.892E-04 0.985E-04 0.159E+04   -.149E-04 -.179E-04 -.602E+02
   0.166E+00 -.717E-02 0.208E+04   -.166E+00 0.765E-02 -.208E+04   0.221E-04 -.397E-03 -.679E+01
   0.854E-02 0.191E+00 0.208E+04   -.849E-02 -.190E+00 -.208E+04   -.326E-04 -.123E-02 -.680E+01
   0.745E+00 0.742E+00 0.721E+03   -.735E+00 -.732E+00 -.722E+03   -.666E-02 -.669E-02 0.437E+00
   -.590E-05 0.228E-04 0.721E+03   0.582E-05 -.241E-04 -.722E+03   0.513E-07 0.906E-06 0.388E+00
   0.334E+01 -.207E+00 -.636E+03   -.333E+01 0.211E+00 0.636E+03   -.154E-01 -.651E-02 -.229E+00
   0.247E+00 0.602E+01 -.627E+03   -.256E+00 -.591E+01 0.628E+03   0.792E-02 -.110E+00 -.291E+00
   0.223E+02 0.223E+02 -.198E+04   -.224E+02 -.224E+02 0.198E+04   0.129E+00 0.131E+00 0.603E+01
   0.124E-05 0.200E-04 -.199E+04   -.215E-05 -.179E-04 0.199E+04   0.585E-06 -.217E-05 0.598E+01
   0.192E+00 0.854E-02 0.208E+04   -.191E+00 -.849E-02 -.208E+04   -.124E-02 -.326E-04 -.680E+01
   -.854E-02 -.191E+00 0.208E+04   0.850E-02 0.190E+00 -.208E+04   0.325E-04 0.123E-02 -.680E+01
   0.743E+00 -.740E+00 0.722E+03   -.743E+00 0.740E+00 -.722E+03   -.110E-03 0.134E-03 0.410E+00
   -.165E-04 -.232E-04 0.722E+03   0.171E-04 0.246E-04 -.723E+03   -.392E-06 -.940E-06 0.500E+00
   0.603E+01 0.247E+00 -.627E+03   -.592E+01 -.256E+00 0.628E+03   -.111E+00 0.793E-02 -.287E+00
   -.247E+00 -.602E+01 -.627E+03   0.256E+00 0.591E+01 0.628E+03   -.792E-02 0.110E+00 -.291E+00
   0.224E+02 -.224E+02 -.198E+04   -.225E+02 0.225E+02 0.197E+04   0.841E-01 -.859E-01 0.603E+01
   -.408E-05 -.230E-04 -.189E+04   0.307E-05 0.217E-04 0.188E+04   0.101E-05 0.151E-05 0.474E+01
   -.166E+00 0.718E-02 0.208E+04   0.166E+00 -.766E-02 -.208E+04   -.221E-04 0.397E-03 -.679E+01
   -.717E-02 0.165E+00 0.208E+04   0.766E-02 -.165E+00 -.208E+04   -.397E-03 0.307E-04 -.679E+01
   -.743E+00 0.740E+00 0.722E+03   0.743E+00 -.740E+00 -.722E+03   0.110E-03 -.135E-03 0.410E+00
   0.559E-05 0.129E-04 0.720E+03   -.608E-05 -.133E-04 -.720E+03   0.304E-06 0.256E-06 0.395E+00
   -.334E+01 0.207E+00 -.636E+03   0.333E+01 -.211E+00 0.636E+03   0.154E-01 0.651E-02 -.229E+00
   -.207E+00 0.334E+01 -.636E+03   0.211E+00 -.332E+01 0.636E+03   -.651E-02 -.154E-01 -.229E+00
   -.224E+02 0.224E+02 -.198E+04   0.225E+02 -.225E+02 0.197E+04   -.841E-01 0.859E-01 0.603E+01
   0.539E-05 0.937E-05 -.201E+04   -.423E-05 -.874E-05 0.200E+04   -.109E-05 -.716E-06 0.597E+01
   -.192E+00 -.855E-02 0.208E+04   0.191E+00 0.850E-02 -.208E+04   0.124E-02 0.325E-04 -.680E+01
   0.718E-02 -.165E+00 0.208E+04   -.766E-02 0.165E+00 -.208E+04   0.397E-03 -.307E-04 -.679E+01
   -.745E+00 -.742E+00 0.721E+03   0.735E+00 0.732E+00 -.722E+03   0.666E-02 0.669E-02 0.437E+00
   0.162E-04 -.126E-04 0.721E+03   -.172E-04 0.131E-04 -.722E+03   0.675E-06 -.360E-06 0.389E+00
   -.603E+01 -.247E+00 -.627E+03   0.592E+01 0.256E+00 0.628E+03   0.111E+00 -.792E-02 -.287E+00
   0.207E+00 -.334E+01 -.636E+03   -.211E+00 0.332E+01 0.636E+03   0.651E-02 0.154E-01 -.229E+00
   -.223E+02 -.223E+02 -.198E+04   0.224E+02 0.224E+02 0.198E+04   -.129E+00 -.131E+00 0.603E+01
   0.121E-04 -.140E-04 -.199E+04   -.106E-04 0.129E-04 0.199E+04   -.161E-05 0.125E-05 0.598E+01
   0.491E+00 -.359E-01 0.540E+03   -.489E+00 0.250E-01 -.540E+03   -.217E-02 0.148E-01 -.669E-01
   0.614E-01 0.690E+00 0.541E+03   -.630E-01 -.716E+00 -.541E+03   0.186E-02 0.337E-01 -.873E-01
   0.133E+00 0.133E+00 0.156E+04   -.133E+00 -.132E+00 -.157E+04   -.651E-03 -.633E-03 0.360E+01
   -.883E-06 0.315E-05 0.156E+04   0.959E-06 -.333E-05 -.157E+04   -.103E-06 0.258E-06 0.360E+01
   0.868E+01 -.285E+00 -.152E+04   -.863E+01 0.316E+00 0.152E+04   -.481E-01 -.328E-01 -.493E+01
   0.262E+00 0.306E+02 -.148E+04   -.276E+00 -.304E+02 0.149E+04   0.127E-01 -.249E+00 -.496E+01
   0.339E+01 0.339E+01 -.469E+03   -.338E+01 -.337E+01 0.469E+03   -.152E-01 -.148E-01 0.254E+00
   -.177E-06 0.108E-04 -.469E+03   -.128E-06 -.118E-04 0.469E+03   0.691E-06 0.917E-06 0.258E+00
   0.694E+00 0.614E-01 0.541E+03   -.720E+00 -.630E-01 -.541E+03   0.335E-01 0.186E-02 -.871E-01
   -.614E-01 -.690E+00 0.541E+03   0.630E-01 0.716E+00 -.541E+03   -.186E-02 -.337E-01 -.873E-01
   0.134E+00 -.134E+00 0.156E+04   -.134E+00 0.133E+00 -.157E+04   -.125E-02 0.123E-02 0.360E+01
   -.180E-05 -.316E-05 0.156E+04   0.194E-05 0.335E-05 -.157E+04   -.191E-06 -.258E-06 0.360E+01
   0.306E+02 0.262E+00 -.148E+04   -.304E+02 -.276E+00 0.149E+04   -.248E+00 0.127E-01 -.496E+01
   -.262E+00 -.306E+02 -.148E+04   0.276E+00 0.304E+02 0.149E+04   -.127E-01 0.249E+00 -.496E+01
   0.346E+01 -.346E+01 -.468E+03   -.347E+01 0.346E+01 0.467E+03   0.968E-02 -.101E-01 0.336E+00
   -.542E-05 -.134E-04 -.467E+03   0.632E-05 0.148E-04 0.467E+03   -.496E-06 -.134E-05 -.250E+00
   -.491E+00 0.359E-01 0.540E+03   0.489E+00 -.250E-01 -.540E+03   0.217E-02 -.148E-01 -.669E-01
   -.359E-01 0.487E+00 0.540E+03   0.250E-01 -.486E+00 -.540E+03   0.148E-01 -.194E-02 -.670E-01
   -.134E+00 0.134E+00 0.156E+04   0.134E+00 -.133E+00 -.157E+04   0.125E-02 -.123E-02 0.360E+01
   0.929E-06 0.221E-05 0.156E+04   -.979E-06 -.231E-05 -.157E+04   0.716E-07 0.139E-06 0.360E+01
   -.868E+01 0.285E+00 -.152E+04   0.863E+01 -.316E+00 0.152E+04   0.481E-01 0.328E-01 -.493E+01
   -.285E+00 0.867E+01 -.152E+04   0.316E+00 -.862E+01 0.152E+04   -.328E-01 -.477E-01 -.493E+01
   -.346E+01 0.346E+01 -.468E+03   0.347E+01 -.346E+01 0.467E+03   -.968E-02 0.101E-01 0.336E+00
   0.974E-05 0.106E-04 -.474E+03   -.110E-04 -.109E-04 0.474E+03   0.111E-05 0.148E-06 0.246E+00
   -.694E+00 -.615E-01 0.541E+03   0.720E+00 0.630E-01 -.541E+03   -.335E-01 -.186E-02 -.871E-01
   0.359E-01 -.487E+00 0.540E+03   -.250E-01 0.486E+00 -.540E+03   -.148E-01 0.194E-02 -.670E-01
   -.133E+00 -.133E+00 0.156E+04   0.133E+00 0.132E+00 -.157E+04   0.651E-03 0.633E-03 0.360E+01
   0.183E-05 -.222E-05 0.156E+04   -.195E-05 0.232E-05 -.157E+04   0.164E-06 -.130E-06 0.360E+01
   -.306E+02 -.262E+00 -.148E+04   0.304E+02 0.276E+00 0.149E+04   0.248E+00 -.127E-01 -.496E+01
   0.285E+00 -.867E+01 -.152E+04   -.316E+00 0.862E+01 0.152E+04   0.328E-01 0.477E-01 -.493E+01
   -.339E+01 -.339E+01 -.469E+03   0.338E+01 0.337E+01 0.469E+03   0.152E-01 0.148E-01 0.254E+00
   0.134E-04 -.113E-04 -.469E+03   -.155E-04 0.122E-04 0.469E+03   0.171E-05 -.892E-06 0.259E+00
   0.225E-05 0.319E-05 0.351E+02   -.112E-13 0.306E-12 -.614E-11   -.248E-05 -.336E-05 -.351E+02

 POSITION                                       TOTAL-FORCE (eV/Angst)
      4.22029      4.22029     16.19655        -0.000000      0.000000     -0.006020
      4.22029      4.22029     17.36773         0.000000      0.000000      0.006752
      2.11015      0.00000      7.50000         0.000013      0.000085      0.317994
      4.22029      2.11015      7.50000         0.000016      0.000275      0.318272
      2.11015      2.11015      9.61015         0.003552      0.003557      0.023553
      4.22029      0.00000      9.61015        -0.000000     -0.000000      0.030302
      2.11064      0.00125     11.72805         0.001171     -0.001904      0.008060
      4.22085      2.11404     11.73078        -0.001313     -0.003987      0.005032
      2.11013      2.11009     13.82727        -0.003498     -0.003528      0.007615
      4.22029      0.00000     13.82486        -0.000000     -0.000000      0.004426
      2.11015      4.22029      7.50000         0.000278      0.000016      0.318259
      4.22029      6.33044      7.50000        -0.000016     -0.000275      0.318272
      2.11015      6.33044      9.61015        -0.000190      0.000186      0.023095
      4.22029      4.22029      9.61015         0.000000      0.000000      0.035027
      2.11406      4.22085     11.73078        -0.003980     -0.001314      0.005002
      4.21973      6.32654     11.73078         0.001314      0.003987      0.005032
      2.10630      6.33432     13.82060         0.000024      0.000007      0.008547
      4.22029      4.22029     13.86978        -0.000000      0.000000      0.001072
      6.33044      0.00000      7.50000        -0.000013     -0.000085      0.317994
      0.00000      2.11015      7.50000         0.000085      0.000009      0.317994
      6.33044      2.11015      9.61015         0.000190     -0.000185      0.023094
      0.00000      0.00000      9.61015        -0.000000     -0.000000      0.021798
      6.32994     -0.00125     11.72805        -0.001170      0.001903      0.008060
      0.00125      2.11064     11.72806        -0.001903      0.001171      0.008062
      6.33428      2.10627     13.82060        -0.000024     -0.000006      0.008547
     -0.00000      0.00000     13.82532         0.000000     -0.000000      0.005946
      6.33044      4.22029      7.50000        -0.000278     -0.000016      0.318259
      0.00000      6.33044      7.50000        -0.000086     -0.000009      0.317994
      6.33044      6.33044      9.61015        -0.003553     -0.003557      0.023554
      0.00000      4.22029      9.61015        -0.000000      0.000000      0.030318
      6.32653      4.21973     11.73078         0.003980      0.001314      0.005003
     -0.00125      6.32994     11.72806         0.001904     -0.001171      0.008062
      6.33046      6.33050     13.82727         0.003498      0.003528      0.007616
     -0.00000      4.22029     13.82491        -0.000000      0.000000      0.004424
      2.11015      0.00000      9.61015        -0.000502      0.003908      0.041801
      4.22029      2.11015      9.61015         0.000314      0.007987      0.049609
      2.11015      2.11015      7.50000        -0.000163     -0.000159     -0.402913
      4.22029      0.00000      7.50000        -0.000000      0.000000     -0.402815
      2.10851      0.00116     13.86476         0.002699     -0.001681      0.005291
      4.22366      2.10143     13.86352        -0.001330      0.002727     -0.001945
      2.11093      2.11095     11.72459         0.000124      0.000128     -0.001635
      4.22029      0.00000     11.72272         0.000000     -0.000000     -0.001870
      2.11015      4.22029      9.61015         0.007920      0.000315      0.049657
      4.22029      6.33044      9.61015        -0.000315     -0.007987      0.049610
      2.11015      6.33044      7.50000        -0.000353      0.000348     -0.402792
      4.22029      4.22029      7.50000        -0.000000     -0.000000     -0.403041
      2.10147      4.22366     13.86366         0.002781     -0.001331     -0.001814
      4.21692      6.33916     13.86352         0.001330     -0.002728     -0.001945
      2.10925      6.33131     11.72267         0.002479     -0.002484     -0.001449
      4.22029      4.22029     11.73180         0.000000      0.000000     -0.003489
      6.33044      0.00000      9.61015         0.000502     -0.003907      0.041801
      0.00000      2.11015      9.61015         0.003907     -0.000434      0.041821
      6.33044      2.11015      7.50000         0.000353     -0.000348     -0.402792
      0.00000      0.00000      7.50000         0.000000      0.000000     -0.402891
      6.33207     -0.00116     13.86476        -0.002699      0.001680      0.005291
      0.00116      2.10853     13.86478        -0.001681      0.002714      0.005293
      6.33133      2.10927     11.72267        -0.002479      0.002484     -0.001448
     -0.00000      0.00000     11.72239        -0.000000     -0.000000     -0.000107
      6.33044      4.22029      9.61015        -0.007920     -0.000315      0.049657
      0.00000      6.33044      9.61015        -0.003907      0.000434      0.041821
      6.33044      6.33044      7.50000         0.000163      0.000159     -0.402914
      0.00000      4.22029      7.50000         0.000000     -0.000000     -0.402803
      6.33911      4.21692     13.86366        -0.002781      0.001331     -0.001813
     -0.00116      6.33206     13.86478         0.001681     -0.002714      0.005294
      6.32966      6.32964     11.72459        -0.000124     -0.000128     -0.001635
      0.00000      4.22029     11.72278        -0.000000      0.000000     -0.001848
    total drift:                               -0.000000     -0.000000     -0.010110

  FREE ENERGIE OF THE ION-ELECTRON SYSTEM (eV)
  free  energy   TOTEN  =      -274.52577202 eV

  energy  without entropy=     -274.52547938  energy(sigma->0) =     -274.52562570

 d Force = 0.1543905E-04[ 0.430E-05, 0.266E-04]  d Energy = 0.1483657E-04 0.602E-06
 d Force = 0.2514362E+01[ 0.251E+01, 0.251E+01]  d Ewald  = 0.2514361E+01 0.811E-06

 Conjugate gradient step on ions:
 trial-energy change:   -0.000015  1 .order   -0.000015   -0.000027   -0.000004
  (g-gl).g = 0.188E-03      g.g   = 0.186E-03  gl.gl    = 0.142E-03
 g(Force)  = 0.186E-03   g(Stress)= 0.000E+00 ortho     =-0.186E-05
 gamma     =   1.32653
 trial     =   0.14489
 opt step  =   0.17993  (harmonic =   0.17287) maximal distance =0.00053165
 next E    =  -274.525773   (d E  =  -0.00002)

 reached required accuracy - stopping structural energy minimisation