 vasp.6.3.0 20Jan22 (build Mar 11 2022 13:48:16) complex

 executed on             LinuxIFC date 2023.12.26  17:55:11

 INCAR:
   SYSTEM = MgO-rocksalt
   ISMEAR = 0
   SIGMA = 0.05
   EDIFF = 1E-6
   ALGO = ALL
   ISTART = 0
   IBRION = -1
   NSW = 0
   ISYM = 0
   DIPOL = 0.5 0.5 0.5
   IDIPOL = 3
   LDIPOL = .TRUE.
   GGA = MK
   LUSE_VDW = .TRUE.
   PARAM1 = 0.1234
   PARAM2 = 0.711357
   ZAB_VDW = -1.8867
   AGGAC = 0.0
   ENCUT = 520
   PREC = Accurate
   LASPH = .TRUE.
   LREAL = Auto
   ISPIN = 1
   NELM = 200
   NELMIN = 8
   NCORE = 2
   KPAR = 1
   LWAVE = .FALSE.
   LCHARG = .FALSE.

 POTCAR:    PAW_PBE C 08Apr2002
 POTCAR:    PAW_PBE H 15Jun2001
 POTCAR:    PAW_PBE Mg_pv 13Apr2007
 POTCAR:    PAW_PBE O 08Apr2002
|           W    W    AA    RRRRR   N    N  II  N    N   GGGG   !!!           |
|           W    W   A  A   R    R  NN   N  II  NN   N  G    G  !!!           |
|           W    W  A    A  R    R  N N  N  II  N N  N  G       !!!           |
|           W WW W  AAAAAA  RRRRR   N  N N  II  N  N N  G  GGG   !            |
|           WW  WW  A    A  R   R   N   NN  II  N   NN  G    G                |
|           W    W  A    A  R    R  N    N  II  N    N   GGGG   !!!           |
|     For optimal performance we recommend to set                             |
|       NCORE = 2 up to number-of-cores-per-socket                            |
|     This setting can greatly improve the performance of VASP for DFT.       |
|     The default, NCORE=1 might be grossly inefficient on modern             |
|     multi-core architectures or massively parallel machines. Do your        |
|     Unfortunately you need to use the default for GW and RPA                |
|     calculations (for HF NCORE is supported but not extensively tested      |
|     yet).                                                                   |

   TITEL  = PAW_PBE C 08Apr2002
   POMASS =   12.011; ZVAL   =    4.000    mass and valenz
   ENMAX  =  400.000; ENMIN  =  300.000 eV

   TITEL  = PAW_PBE H 15Jun2001
   POMASS =    1.000; ZVAL   =    1.000    mass and valenz
   ENMAX  =  250.000; ENMIN  =  200.000 eV

   TITEL  = PAW_PBE Mg_pv 13Apr2007
   POMASS =   24.305; ZVAL   =    8.000    mass and valenz
   ENMAX  =  403.929; ENMIN  =  302.947 eV

   TITEL  = PAW_PBE O 08Apr2002
   POMASS =   16.000; ZVAL   =    6.000    mass and valenz
   ENMAX  =  400.000; ENMIN  =  300.000 eV

 Optimization of the real space projectors (new method)

 maximal supplied QI-value         = 25.13
 optimisation between [QCUT,QGAM] = [ 11.56, 23.12] = [ 37.43,149.72] Ry
 Optimized for a Real-space Cutoff    1.04 Angstroem

   l    n(q)    QCUT    max X(q) W(low)/X(q) W(high)/X(q)  e(spline)
   0      7    11.561   115.676    0.20E-03    0.60E-03    0.21E-06
   0      7    11.561    87.132    0.20E-03    0.59E-03    0.21E-06
   1      7    11.561     4.429    0.23E-03    0.35E-03    0.15E-06
   1      7    11.561     2.733    0.18E-03    0.25E-03    0.12E-06
 Optimization of the real space projectors (new method)

[...]

   l    n(q)    QCUT    max X(q) W(low)/X(q) W(high)/X(q)  e(spline)
   1      8    11.527     2.974    0.44E-04    0.56E-04    0.12E-06
   1      8    11.527     4.279    0.12E-03    0.12E-03    0.26E-06
   0      9    11.527    16.381    0.46E-04    0.64E-04    0.78E-07
   0      9    11.527     5.611    0.26E-04    0.43E-04    0.55E-07
   2      8    11.527     4.652    0.22E-03    0.72E-04    0.47E-07
 Optimization of the real space projectors (new method)

 maximal supplied QI-value         = 24.76
 optimisation between [QCUT,QGAM] = [ 11.64, 23.27] = [ 37.91,151.63] Ry
 Optimized for a Real-space Cutoff    1.14 Angstroem

   l    n(q)    QCUT    max X(q) W(low)/X(q) W(high)/X(q)  e(spline)
   0      8    11.635    20.381    0.10E-03    0.33E-03    0.24E-06
   0      8    11.635    15.268    0.11E-03    0.35E-03    0.26E-06
   1      7    11.635     5.964    0.24E-03    0.31E-03    0.30E-06
   1      7    11.635     5.382    0.22E-03    0.25E-03    0.26E-06
|               ----> ADVICE to this user running VASP <----                  |
|     You enforced a specific xc type in the INCAR file but a different       |
|     type was found in the POTCAR file.                                      |
|     I HOPE YOU KNOW WHAT YOU ARE DOING!                                     |

  PAW_PBE C 08Apr2002                   :
  PAW_PBE H 15Jun2001                   :
  PAW_PBE Mg_pv 13Apr2007               :
  PAW_PBE O 08Apr2002                   :

 POSCAR:  C  H Mg  O
  positions in direct lattice
 exchange correlation table for  LEXCH =       43
   RHO(1)=    0.500       N(1)  =     2000
   RHO(2)=  100.500       N(2)  =     4000

 ion  position               nearest neighbor table
   1  0.478  0.468  0.808-   7 1.09   2 1.40   6 1.40
   2  0.559  0.458  0.807-   8 1.09   1 1.40   3 1.40
   3  0.591  0.382  0.809-   9 1.09   4 1.40   2 1.40
   4  0.542  0.317  0.812-  10 1.09   3 1.40   5 1.40
   5  0.461  0.327  0.813-  11 1.09   6 1.40   4 1.40
   6  0.428  0.402  0.811-  12 1.09   5 1.40   1 1.40
   7  0.453  0.526  0.806-   1 1.09
   8  0.597  0.509  0.804-   2 1.09
   9  0.655  0.375  0.808-   3 1.09
  10  0.567  0.258  0.813-   4 1.09
  11  0.422  0.276  0.815-   5 1.09
  12  0.365  0.410  0.812-   6 1.09
  13  0.000  0.375  0.350- 141 2.14 144 2.14 151 2.14 175 2.14 224 2.14
  14  0.125  0.000  0.350- 142 2.14 143 2.14 152 2.14 159 2.14 176 2.14
  15  0.000  0.000  0.450- 143 2.14 142 2.14 149 2.14 173 2.14 222 2.14 147 2.14
  16  0.125  0.375  0.450- 144 2.14 141 2.14 150 2.14 157 2.14 174 2.14 148 2.14
  17  0.000  0.375  0.550- 179 2.14 155 2.14 228 2.14 148 2.14 141 2.14 145 2.16
  18  0.125  0.000  0.550- 163 2.14 156 2.14 180 2.14 147 2.14 142 2.14 146 2.16
  19  0.000  0.000  0.649- 147 2.12 146 2.14 226 2.14 177 2.14 153 2.14
  20  0.125  0.375  0.649- 148 2.12 154 2.14 178 2.14 161 2.14 145 2.14
  21  0.000  0.125  0.350- 149 2.14 143 2.14 151 2.14 152 2.14 232 2.14
  22  0.125  0.250  0.350- 150 2.14 144 2.14 151 2.14 152 2.14 167 2.14
  23  0.000  0.250  0.450- 151 2.14 149 2.14 150 2.14 141 2.14 230 2.14 155 2.14
  24  0.125  0.125  0.450- 152 2.14 149 2.14 150 2.14 142 2.14 165 2.14 156 2.14
  25  1.000  0.125  0.550- 155 2.14 236 2.14 156 2.14 147 2.14 149 2.14 153 2.16
  26  0.125  0.250  0.550- 171 2.14 148 2.14 156 2.14 155 2.14 150 2.14 154 2.16
  27  1.000  0.250  0.649- 155 2.12 153 2.14 145 2.14 234 2.14 154 2.14
  28  0.125  0.125  0.649- 156 2.12 169 2.14 154 2.14 153 2.14 146 2.14
  29  0.250  0.375  0.350- 157 2.14 144 2.14 160 2.14 167 2.14 191 2.14
  30  0.375  0.000  0.350- 158 2.14 159 2.14 168 2.14 192 2.14 207 2.14
  31  0.250  0.000  0.450- 159 2.14 158 2.14 142 2.14 165 2.14 189 2.14 163 2.14
  32  0.375  0.375  0.450- 164 2.13 160 2.14 157 2.14 166 2.14 190 2.14 205 2.14
  33  0.250  0.375  0.550- 164 2.13 195 2.14 171 2.14 148 2.14 157 2.14 161 2.17
  34  0.375  0.000  0.550- 172 2.14 211 2.14 163 2.14 196 2.14 158 2.14 162 2.16
  35  0.250  0.000  0.649- 163 2.12 169 2.14 162 2.14 193 2.14 146 2.14
  36  0.375  0.375  0.649- 164 2.13 209 2.13 194 2.14 170 2.14 161 2.14
  37  0.250  0.125  0.350- 165 2.14 159 2.14 152 2.14 167 2.14 168 2.14
  38  0.375  0.250  0.350- 166 2.14 160 2.14 167 2.14 168 2.14 215 2.14
  39  0.250  0.250  0.450- 167 2.14 157 2.14 165 2.14 166 2.14 150 2.14 171 2.14
  40  0.375  0.125  0.450- 168 2.14 165 2.14 166 2.14 158 2.14 213 2.14 172 2.14
  41  0.250  0.125  0.550- 171 2.14 172 2.14 156 2.14 163 2.14 165 2.14 169 2.16
  42  0.375  0.250  0.550- 164 2.13 219 2.14 171 2.14 172 2.14 166 2.14 170 2.16
  43  0.250  0.250  0.649- 171 2.12 170 2.13 161 2.14 169 2.14 154 2.14
  44  0.375  0.125  0.649- 172 2.12 170 2.13 217 2.14 169 2.14 162 2.14
  45  0.000  0.875  0.350- 173 2.14 143 2.14 176 2.14 183 2.14 256 2.14
  46  0.125  0.500  0.350- 174 2.14 144 2.14 175 2.14 184 2.14 191 2.14
  47  0.000  0.500  0.450- 175 2.14 174 2.14 141 2.14 181 2.14 254 2.14 179 2.14
  48  0.125  0.875  0.450- 176 2.14 173 2.14 142 2.14 182 2.14 189 2.14 180 2.14
  49  0.000  0.875  0.550- 260 2.14 187 2.14 147 2.14 180 2.14 173 2.14 177 2.16
  50  0.125  0.500  0.550- 195 2.13 148 2.14 179 2.14 188 2.14 174 2.14 178 2.16
  51  1.000  0.500  0.649- 179 2.12 145 2.14 185 2.14 258 2.14 178 2.14
  52  0.125  0.875  0.649- 180 2.12 186 2.14 146 2.14 177 2.14 193 2.14
  53  0.000  0.625  0.350- 181 2.14 175 2.14 183 2.14 184 2.14 264 2.14
  54  0.125  0.750  0.350- 182 2.14 176 2.14 183 2.14 184 2.14 199 2.14
  55  0.000  0.750  0.450- 183 2.14 181 2.14 182 2.14 173 2.14 262 2.14 187 2.14
  56  0.125  0.625  0.450- 184 2.14 181 2.14 182 2.14 174 2.14 197 2.14 188 2.14
  57  0.000  0.625  0.550- 268 2.14 188 2.14 179 2.14 187 2.14 181 2.14 185 2.16
  58  0.125  0.750  0.550- 188 2.14 203 2.14 187 2.14 180 2.14 182 2.14 186 2.16
  59  0.000  0.750  0.649- 187 2.12 266 2.14 177 2.14 186 2.14 185 2.14
  60  0.125  0.625  0.649- 188 2.12 201 2.14 178 2.14 186 2.14 185 2.14
[...]
 254  0.875  0.500  0.450- 126 2.14  96 2.14  47 2.14 127 2.14 136 2.14 130 2.14
 255  0.750  0.500  0.350- 127 2.14 110 2.14 126 2.14  93 2.14 133 2.14
 256  0.875  0.875  0.350- 128 2.14  94 2.14 125 2.14  45 2.14 134 2.14
 257  0.750  0.875  0.651- 116 2.14 139 2.14 132 2.14  99 2.14 129 2.16
 258  0.875  0.500  0.651- 140 2.14 100 2.14  51 2.14 131 2.14 130 2.16
 259  0.750  0.500  0.550- 131 2.12 130 2.13 137 2.14 127 2.14  97 2.14 114 2.14
 260  0.875  0.875  0.550- 132 2.12  49 2.14  98 2.14 129 2.14 138 2.14 128 2.14
 261  0.750  0.625  0.450- 133 2.14 127 2.14 120 2.14 135 2.14 136 2.14 137 2.14
 262  0.875  0.750  0.450- 134 2.14 128 2.14  55 2.14 135 2.14 136 2.14 138 2.14
 263  0.750  0.750  0.350- 135 2.14 125 2.14 133 2.14 134 2.14 118 2.14
 264  0.875  0.625  0.350- 136 2.14 126 2.14 133 2.14 134 2.14  53 2.14
 265  0.750  0.625  0.651- 139 2.14 140 2.14 131 2.14 124 2.14 137 2.16
 266  0.875  0.750  0.651- 132 2.14  59 2.14 140 2.14 139 2.14 138 2.16
 267  0.750  0.750  0.550- 139 2.12 138 2.14 129 2.14 137 2.14 122 2.14 135 2.14
 268  0.875  0.625  0.550- 140 2.12 138 2.14  57 2.14 137 2.14 130 2.14 136 2.14

IMPORTANT INFORMATION: All symmetrisations will be switched off!
NOSYMM: (Re-)initialisation of all symmetry stuff for point group C_1.

                                     Primitive cell

  volume of cell :    6254.6868

  direct lattice vectors                    reciprocal lattice vectors
    17.092227251  0.000000000  0.000000000     0.058506126  0.000000000  0.000000000
     0.000000000 17.092227251  0.000000000     0.000000000  0.058506126  0.000000000
     0.000000000  0.000000000 21.409585219     0.000000000  0.000000000  0.046708051

  length of vectors
    17.092227251 17.092227251 21.409585219     0.058506126  0.058506126  0.046708051

  position of ions in fractional coordinates (direct lattice)
     0.477570141  0.467837201  0.807940107
     0.559060570  0.457949773  0.806737159
     0.591310963  0.382416287  0.808544181
     0.542068370  0.316845892  0.811749661
     0.460531517  0.326745150  0.813063201
     0.428309770  0.402203781  0.811036139
     0.452510173  0.526389982  0.806488361
     0.597315136  0.508757180  0.804118514
[...]
   0.00000000 10.68264203  7.50000000
   2.13652841 12.81917044  7.50000000
   0.00000000 12.81917044  9.63652841
   2.13652841 10.68264203  9.63652841
   0.00001727 10.68259278 11.77991770
   2.13663337 12.81912143 11.77985658
   0.00003418 12.81940996 13.89774492
   2.13675465 10.68264525 13.89806550
[...]
  14.95569884  8.54611363  9.63652841
  12.81917044  8.54611363  7.50000000
  14.95569884 14.95569884  7.50000000
  12.81910491 14.95582605 13.94043473
  14.95559363  8.54640075 13.94119863
  12.82108962  8.54669525 11.77279630
  14.95577252 14.95591614 11.77378388
  12.81917044 10.68264203  9.63652841
  14.95569884 12.81917044  9.63652841
  12.81917044 12.81917044  7.50000000
  14.95569884 10.68264203  7.50000000
  12.81972867 10.68338684 13.94236776
  14.95583824 12.81945874 13.94015560
  12.81932694 12.81942376 11.77398300
  14.95584897 10.68291173 11.77401692

--------------------------------------- Iteration      FINAL  ---------------------------------------

--------------------OUTCAR has been truncated-------------------------

[...]

--------------------OUTCAR has been truncated-------------------------

  FORCE on cell =-STRESS in cart. coord.  units (eV):
  Direction    XX          YY          ZZ          XY          YZ          ZX
  Alpha Z  3499.97307  3499.97307  3499.97307
  Ewald  614979.80909614977.35055************    -1.79434   -56.82336   -33.32959
  Hartree655794.53523655793.01100************    -1.06592   -32.87710   -19.32115
  E(xc)   -9911.99444 -9912.00464 -9915.86219    -0.00471    -0.12790    -0.07558
  Local  ************************************     2.75172    87.42106    51.33870
  n-local-11366.69975-11366.70123-11435.61641     0.00372     0.20588     0.11611
  augment  4205.03434  4205.03531  4169.90599     0.00044     0.01411     0.00626
  Kinetic 29537.95164 29538.12153 29762.70360     0.11698     2.07797     1.23475
  Fock        0.00000     0.00000     0.00000     0.00000     0.00000     0.00000
  Total    -192.72634  -192.70354   -59.40828     0.00790    -0.10935    -0.03050
  in kB     -49.36806   -49.36222   -15.21780     0.00202    -0.02801    -0.00781

 VOLUME and BASIS-vectors are now :
  energy-cutoff  :      520.00
  volume of cell :     6254.69
      direct lattice vectors                 reciprocal lattice vectors
    17.092227251  0.000000000  0.000000000     0.058506126  0.000000000  0.000000000
     0.000000000 17.092227251  0.000000000     0.000000000  0.058506126  0.000000000
     0.000000000  0.000000000 21.409585219     0.000000000  0.000000000  0.046708051

  length of vectors
    17.092227251 17.092227251 21.409585219     0.058506126  0.058506126  0.046708051

 FORCES acting on ions:
    Electron-Ion                     Ewald-Force                    Non-Local-Force
   0.690E+02 -.161E+03 -.848E+03   -.693E+02 0.162E+03 0.848E+03   0.467E+00 -.960E+00 -.858E-01
   -.105E+03 -.140E+03 -.850E+03   0.106E+03 0.141E+03 0.850E+03   -.716E+00 -.906E+00 -.666E-01
   -.174E+03 0.210E+02 -.847E+03   0.175E+03 -.211E+02 0.847E+03   -.988E+00 0.134E+00 -.601E-01
   -.687E+02 0.161E+03 -.841E+03   0.690E+02 -.162E+03 0.841E+03   -.417E+00 0.955E+00 -.992E-01
   0.105E+03 0.140E+03 -.839E+03   -.105E+03 -.141E+03 0.839E+03   0.653E+00 0.853E+00 -.140E+00
   0.174E+03 -.213E+02 -.842E+03   -.175E+03 0.214E+02 0.842E+03   0.971E+00 -.129E+00 -.627E-01
   0.312E+02 -.728E+02 -.213E+03   -.335E+02 0.783E+02 0.212E+03   0.231E+01 -.537E+01 0.166E+00
   -.476E+02 -.633E+02 -.213E+03   0.512E+02 0.680E+02 0.213E+03   -.353E+01 -.468E+01 0.323E+00
   -.785E+02 0.951E+01 -.212E+03   0.844E+02 -.102E+02 0.212E+03   -.579E+01 0.701E+00 0.974E-01
   -.312E+02 0.727E+02 -.210E+03   0.336E+02 -.782E+02 0.210E+03   -.232E+01 0.537E+01 -.151E+00
   0.475E+02 0.632E+02 -.209E+03   -.511E+02 -.680E+02 0.209E+03   0.352E+01 0.467E+01 -.262E+00
   0.785E+02 -.964E+01 -.210E+03   -.844E+02 0.104E+02 0.210E+03   0.580E+01 -.719E+00 -.118E+00
   -.448E+00 0.501E+00 0.201E+04   0.448E+00 -.500E+00 -.201E+04   0.642E-03 -.829E-03 -.673E+01
   0.288E+01 0.273E+01 0.201E+04   -.288E+01 -.273E+01 -.200E+04   -.215E-02 -.205E-02 -.673E+01
   -.412E+00 0.340E+01 0.677E+03   0.412E+00 -.340E+01 -.678E+03   -.567E-05 -.770E-03 0.407E+00
   0.760E+01 0.844E+00 0.685E+03   -.758E+01 -.842E+00 -.685E+03   -.176E-01 -.164E-02 0.420E+00
   -.150E+01 0.118E+01 -.645E+03   0.150E+01 -.118E+01 0.645E+03   0.146E-02 -.147E-03 -.272E+00
   0.655E+01 0.624E+01 -.652E+03   -.655E+01 -.624E+01 0.652E+03   -.589E-02 -.500E-02 -.280E+00
   -.960E+00 0.783E+01 -.198E+04   0.961E+00 -.783E+01 0.198E+04   -.367E-03 -.332E-03 0.596E+01
   0.307E+02 0.236E+01 -.196E+04   -.307E+02 -.236E+01 0.196E+04   -.237E-01 -.726E-03 0.594E+01
   -.343E+00 0.409E+01 0.201E+04   0.343E+00 -.409E+01 -.201E+04   0.405E-03 -.290E-02 -.673E+01
   0.420E+01 0.356E+01 0.201E+04   -.419E+01 -.356E+01 -.201E+04   -.605E-02 -.395E-02 -.673E+01
   -.691E+00 0.453E+01 0.682E+03   0.691E+00 -.452E+01 -.682E+03   0.110E-03 -.322E-02 0.416E+00
   0.524E+01 0.629E+01 0.681E+03   -.523E+01 -.629E+01 -.681E+03   -.460E-02 -.343E-02 0.412E+00
   -.942E+00 0.885E+01 -.650E+03   0.942E+00 -.885E+01 0.651E+03   0.643E-03 -.102E-02 -.283E+00
   0.134E+02 0.892E+01 -.642E+03   -.134E+02 -.891E+01 0.643E+03   -.263E-01 -.116E-01 -.272E+00
   -.223E+01 0.113E+02 -.197E+04   0.223E+01 -.113E+02 0.197E+04   0.549E-03 -.165E-02 0.596E+01
   0.162E+02 0.170E+02 -.197E+04   -.162E+02 -.170E+02 0.197E+04   -.123E-01 -.956E-02 0.595E+01
   0.716E+01 0.667E+00 0.202E+04   -.714E+01 -.666E+00 -.201E+04   -.986E-02 -.104E-02 -.674E+01
   0.338E+01 0.398E+01 0.201E+04   -.337E+01 -.397E+01 -.201E+04   -.359E-02 -.560E-02 -.673E+01
   0.624E+01 0.499E+01 0.681E+03   -.623E+01 -.498E+01 -.681E+03   -.307E-02 -.473E-02 0.412E+00
   0.101E+02 0.149E+01 0.702E+03   -.101E+02 -.149E+01 -.703E+03   0.259E-02 -.189E-02 0.342E+00
   0.290E+02 0.244E+01 -.622E+03   -.288E+02 -.244E+01 0.623E+03   -.136E+00 -.152E-02 -.186E+00
   0.833E+01 0.127E+02 -.643E+03   -.832E+01 -.127E+02 0.643E+03   -.102E-01 -.248E-01 -.273E+00
   0.167E+02 0.157E+02 -.197E+04   -.167E+02 -.157E+02 0.197E+04   -.859E-02 -.129E-01 0.595E+01
   0.786E+02 0.112E+02 -.185E+04   -.783E+02 -.112E+02 0.184E+04   -.299E+00 -.191E-01 0.588E+01
   0.539E+01 0.543E+01 0.201E+04   -.539E+01 -.543E+01 -.201E+04   -.665E-02 -.683E-02 -.673E+01
   0.509E+01 0.535E+01 0.202E+04   -.508E+01 -.534E+01 -.201E+04   -.709E-02 -.763E-02 -.674E+01
   0.110E+02 0.712E+01 0.690E+03   -.109E+02 -.710E+01 -.690E+03   -.168E-01 -.124E-01 0.418E+00
   0.669E+01 0.110E+02 0.689E+03   -.667E+01 -.110E+02 -.690E+03   -.110E-01 -.172E-01 0.416E+00
   0.159E+02 0.161E+02 -.640E+03   -.158E+02 -.161E+02 0.640E+03   -.157E-01 -.166E-01 -.248E+00
   0.214E+02 0.226E+02 -.609E+03   -.213E+02 -.226E+02 0.609E+03   -.533E-01 -.653E-01 -.256E+00
   0.513E+02 0.300E+02 -.194E+04   -.512E+02 -.299E+02 0.193E+04   -.811E-01 -.364E-01 0.594E+01
   0.277E+02 0.513E+02 -.194E+04   -.277E+02 -.512E+02 0.194E+04   -.355E-01 -.819E-01 0.594E+01
   -.269E+00 -.480E+00 0.201E+04   0.269E+00 0.480E+00 -.200E+04   0.165E-03 0.333E-03 -.673E+01
   0.436E+01 -.281E+01 0.201E+04   -.435E+01 0.281E+01 -.201E+04   -.613E-02 0.301E-02 -.673E+01
   -.743E+00 -.354E+01 0.682E+03   0.743E+00 0.353E+01 -.683E+03   0.747E-04 0.212E-02 0.418E+00
   0.365E+01 -.751E+00 0.677E+03   -.365E+01 0.752E+00 -.678E+03   -.547E-03 -.543E-03 0.407E+00
   -.591E+00 -.104E+01 -.655E+03   0.591E+00 0.104E+01 0.655E+03   0.688E-03 0.411E-03 -.275E+00
   0.146E+02 -.705E+01 -.641E+03   -.145E+02 0.704E+01 0.641E+03   -.377E-01 0.930E-02 -.259E+00
   -.240E+01 -.911E+01 -.197E+04   0.240E+01 0.911E+01 0.197E+04   -.773E-03 0.434E-02 0.595E+01
   0.836E+01 -.174E+01 -.198E+04   -.836E+01 0.174E+01 0.198E+04   0.770E-03 0.657E-03 0.596E+01
   -.372E+00 -.411E+01 0.201E+04   0.372E+00 0.411E+01 -.201E+04   0.268E-03 0.331E-02 -.673E+01
   0.303E+01 -.348E+01 0.201E+04   -.302E+01 0.347E+01 -.201E+04   -.259E-02 0.290E-02 -.673E+01
   -.450E+00 -.439E+01 0.678E+03   0.451E+00 0.439E+01 -.678E+03   -.380E-03 0.546E-03 0.406E+00
   0.575E+01 -.638E+01 0.682E+03   -.574E+01 0.638E+01 -.682E+03   -.398E-02 0.425E-02 0.414E+00
   -.105E+01 -.898E+01 -.649E+03   0.105E+01 0.899E+01 0.649E+03   -.302E-03 0.266E-03 -.281E+00
   0.721E+01 -.809E+01 -.651E+03   -.720E+01 0.808E+01 0.651E+03   -.239E-02 0.555E-02 -.283E+00
   -.107E+01 -.999E+01 -.198E+04   0.107E+01 0.999E+01 0.197E+04   0.151E-02 -.283E-02 0.596E+01
   0.188E+02 -.176E+02 -.197E+04   -.188E+02 0.176E+02 0.197E+04   -.163E-01 0.825E-02 0.595E+01
[...]
   -.513E+01 -.271E+01 0.151E+04   0.512E+01 0.270E+01 -.152E+04   0.119E-01 0.738E-02 0.362E+01
   -.231E+01 -.401E+00 0.151E+04   0.231E+01 0.401E+00 -.151E+04   0.215E-02 0.346E-03 0.363E+01
   -.104E+02 -.220E+01 -.150E+04   0.104E+02 0.220E+01 0.151E+04   -.122E-02 -.218E-02 -.503E+01
   -.246E+02 -.103E+02 -.149E+04   0.245E+02 0.103E+02 0.150E+04   0.229E-01 0.195E-02 -.504E+01
   -.194E+02 -.925E+01 -.460E+03   0.193E+02 0.924E+01 0.460E+03   0.635E-01 0.115E-01 0.340E+00
   -.489E+01 -.919E+00 -.484E+03   0.489E+01 0.917E+00 0.484E+03   0.162E-02 0.118E-02 0.297E+00
   -.696E+01 -.682E+01 0.515E+03   0.695E+01 0.681E+01 -.515E+03   0.144E-01 0.145E-01 -.541E-01
   -.375E+01 -.386E+01 0.509E+03   0.375E+01 0.386E+01 -.509E+03   0.122E-02 0.196E-02 -.614E-01
   -.350E+01 -.329E+01 0.151E+04   0.350E+01 0.329E+01 -.152E+04   0.521E-02 0.517E-02 0.363E+01
   -.319E+01 -.345E+01 0.151E+04   0.319E+01 0.344E+01 -.152E+04   0.488E-02 0.534E-02 0.363E+01
   -.281E+02 -.274E+02 -.148E+04   0.281E+02 0.274E+02 0.149E+04   0.227E-01 0.221E-01 -.504E+01
   -.991E+01 -.101E+02 -.150E+04   0.991E+01 0.101E+02 0.151E+04   0.578E-02 0.541E-02 -.503E+01
   -.883E+01 -.951E+01 -.478E+03   0.882E+01 0.950E+01 0.478E+03   0.104E-01 0.183E-02 0.295E+00
   -.928E+01 -.860E+01 -.479E+03   0.928E+01 0.859E+01 0.478E+03   0.119E-02 0.923E-02 0.295E+00
   -.282E-01 -.146E-01 0.608E+02   -.383E-11 0.355E-14 0.409E-11   0.252E-01 0.776E-02 -.609E+02

 POSITION                                       TOTAL-FORCE (eV/Angst)
      8.16274      7.99638     17.29766         0.154876     -0.365694     -0.017006
      9.55559      7.82738     17.27191        -0.234327     -0.318262     -0.012458
     10.10682      6.53635     17.31060        -0.390189      0.040983     -0.019685
      9.26516      5.41560     17.37922        -0.152611      0.356669     -0.036699
      7.87151      5.58480     17.40735         0.235506      0.310498     -0.047314
      7.32077      6.87456     17.36395         0.391085     -0.055994     -0.033528
      7.73441      8.99718     17.26658        -0.049104      0.112790     -0.003661
     10.20945      8.69579     17.21584         0.072394      0.095536     -0.008512
     11.18863      6.40552     17.29050         0.111543     -0.014403     -0.001772
      9.69476      4.41511     17.40835         0.042230     -0.103348      0.001964
      7.21779      4.71531     17.45750        -0.071098     -0.092352      0.004255
      6.23967      7.00717     17.38435        -0.118874      0.014271      0.001876
      0.00000      6.40959      7.50000        -0.000171      0.000279      0.481449
      2.13653      0.00000      7.50000         0.000628      0.000598      0.481899
      0.00000      0.00000      9.63653         0.000012      0.000417      0.009542
      2.13653      6.40959      9.63653         0.005485      0.000648      0.009961
      0.00002      6.40970     11.78051         0.000117     -0.000568     -0.001657
      2.13677      0.00034     11.77996        -0.001132     -0.000982      0.000129
      0.00002      0.00020     13.89784         0.000089      0.000665     -0.125747
      2.13740      6.40981     13.89881        -0.001196      0.000404     -0.126565
      0.00000      2.13653      7.50000        -0.000105      0.000857      0.481649
      2.13653      4.27306      7.50000         0.001758      0.001231      0.481782
      0.00000      4.27306      9.63653         0.000200      0.001303      0.009108
      2.13653      2.13653      9.63653         0.001474      0.001346      0.009379
     17.09221      2.13680     11.77990         0.000342     -0.000563      0.000774
      2.13702      4.27352     11.78002        -0.000408     -0.000969      0.000505
     17.09219      4.27333     13.89797         0.000076      0.000640     -0.124516
      2.13679      2.13705     13.89819        -0.000186     -0.000457     -0.125956
      4.27306      6.40959      7.50000         0.002992      0.000361      0.484022
      6.40959      0.00000      7.50000         0.001111      0.001651      0.481794
      4.27306      0.00000      9.63653         0.001164      0.001664      0.009249
      6.40959      6.40959      9.63653        -0.000035      0.000850      0.013272
      4.27498      6.40971     11.78019        -0.000861      0.000506     -0.001252
      6.40992      0.00052     11.78006        -0.000658     -0.000075      0.000295
      4.27335      0.00042     13.89817         0.000137     -0.000459     -0.125768
      6.41717      6.41094     13.90010         0.011521      0.001523     -0.084870
      4.27306      2.13653      7.50000         0.001940      0.001995      0.481868
      6.40959      4.27306      7.50000         0.002093      0.002291      0.484029
      4.27306      4.27306      9.63653         0.005760      0.004222      0.010499
      6.40959      2.13653      9.63653         0.003756      0.005987      0.010689
      4.27339      2.13697     11.78003         0.000444      0.000329      0.000044
      6.41088      4.27466     11.78036        -0.000921     -0.001187     -0.001942
      4.27475      4.27410     13.89753         0.000213      0.001784     -0.124007
      6.41041      2.13833     13.89734         0.002346     -0.000548     -0.124232
      0.00000     14.95570      7.50000        -0.000026     -0.000051      0.481922
      2.13653      8.54611      7.50000         0.001796     -0.000909      0.482032
      0.00000      8.54611      9.63653         0.000272     -0.000771      0.008046
      2.13653     14.95570      9.63653         0.000254      0.000301      0.009425
      0.00001     14.95585     11.77979         0.000253      0.000095     -0.000036
      2.13675      8.54588     11.77991         0.000411      0.000581     -0.000612
     17.09220      8.54617     13.89823         0.000249      0.000073     -0.125702
      2.13654     14.95585     13.89782         0.000788      0.000280     -0.126042
      0.00000     10.68264      7.50000        -0.000067     -0.000961      0.481613
      2.13653     12.81917      7.50000         0.000746     -0.000783      0.481752
      0.00000     12.81917      9.63653         0.000165     -0.000150      0.009114
      2.13653     10.68264      9.63653         0.001012     -0.001466      0.008578
      0.00002     10.68259     11.77992         0.000239      0.000844      0.000476
      2.13663     12.81912     11.77986        -0.000316      0.001101      0.000246
      0.00003     12.81941     13.89774        -0.000164     -0.001062     -0.126021
      2.13675     10.68265     13.89807        -0.000648     -0.000404     -0.125551
[...]
     14.95570      8.54611      9.63653         0.005914      0.001402      0.030073
     12.81917      8.54611      7.50000         0.003312      0.002070     -0.254579
     14.95570     14.95570      7.50000         0.000595      0.000117     -0.253389
     12.81910     14.95583     13.94043         0.000584     -0.000271     -0.143579
     14.95559      8.54640     13.94120        -0.000232     -0.000188     -0.146148
     12.82109      8.54670     11.77280        -0.001409     -0.000703      0.002494
     14.95577     14.95592     11.77378        -0.000489     -0.000582      0.001730
     12.81917     10.68264      9.63653         0.004138      0.004196      0.029699
     14.95570     12.81917      9.63653         0.000414      0.000641      0.031810
     12.81917     12.81917      7.50000         0.001428      0.001438     -0.253223
     14.95570     10.68264      7.50000         0.001347      0.001482     -0.253274
     12.81973     10.68339     13.94237        -0.001331     -0.001012     -0.146526
     14.95584     12.81946     13.94016         0.000123     -0.000064     -0.142928
     12.81933     12.81942     11.77398        -0.000062     -0.000633      0.000613
     14.95585     10.68291     11.77402        -0.000416     -0.000513      0.000686
    total drift:                               -0.003023     -0.006815     -0.123636

  FREE ENERGIE OF THE ION-ELECTRON SYSTEM (eV)
  free  energy   TOTEN  =     -1125.00270340 eV

  energy  without entropy=    -1125.00270340  energy(sigma->0) =    -1125.00270340