 vasp.6.2.1 16May21 (build Aug 23 2021 11:19:13) complex

 executed on SGIICEXA-Intel19-HMP date 2024.11.04  10:25:12

 INCAR:
   SYSTEM = Oxide-Surface
   ISMEAR = 0
   SIGMA = 0.05
   EDIFF = 1E-5
   ALGO = Normal
   IBRION = -1
   NSW = 0
   ISYM = 0
   DIPOL = 0.5 0.5 0.5
   IDIPOL = 3
   LDIPOL = .TRUE.
   ISTART = 0
   GGA = PE
   IVDW = 11
   ENCUT = 520
   PREC = Normal
   PRECFOCK = Normal
   LASPH = .TRUE.
   LREAL = Auto
   ISPIN = 1
   NELM = 200
   NELMIN = 8
   NCORE = 1
   KPAR = 1
   LWAVE = .TRUE.
   LCHARG = .FALSE.

 POTCAR:    PAW_PBE Ti_sv 26Sep2005
 POTCAR:    PAW_PBE O 08Apr2002
 POTCAR:    PAW_PBE Ti_sv 26Sep2005
   VRHFIN =Ti: 3p4s3d

   TITEL  = PAW_PBE Ti_sv 26Sep2005
   POMASS =   47.880; ZVAL   =   12.000    mass and valenz
   ENMAX  =  274.610; ENMIN  =  205.957 eV

   TITEL  = PAW_PBE O 08Apr2002
   POMASS =   16.000; ZVAL   =    6.000    mass and valenz
   ENMAX  =  400.000; ENMIN  =  300.000 eV

 Optimization of the real space projectors (new method)

 maximal supplied QI-value         = 16.25
 optimisation between [QCUT,QGAM] = [ 11.54, 23.24] = [ 37.28,151.24] Ry
 Optimized for a Real-space Cutoff    1.28 Angstroem

   l    n(q)    QCUT    max X(q) W(low)/X(q) W(high)/X(q)  e(spline)
   0      9    11.539    12.277    0.48E-04    0.33E-04    0.20E-07
   0      9    11.539    11.419    0.83E-04    0.33E-04    0.30E-07
   1      8    11.539     4.010    0.33E-04    0.76E-04    0.41E-07
   1      8    11.539     6.182    0.83E-04    0.12E-03    0.13E-06
   2      8    11.539    47.177    0.11E-03    0.55E-03    0.26E-06
   2      8    11.539    42.437    0.11E-03    0.53E-03    0.25E-06
 Optimization of the real space projectors (new method)

 maximal supplied QI-value         = 24.76
 optimisation between [QCUT,QGAM] = [ 11.64, 23.27] = [ 37.91,151.63] Ry
 Optimized for a Real-space Cutoff    1.04 Angstroem

   l    n(q)    QCUT    max X(q) W(low)/X(q) W(high)/X(q)  e(spline)
   0      7    11.635    20.381    0.14E-03    0.49E-03    0.18E-06
   0      7    11.635    15.268    0.16E-03    0.52E-03    0.19E-06
   1      7    11.635     5.964    0.30E-03    0.44E-03    0.22E-06
   1      7    11.635     5.382    0.27E-03    0.34E-03    0.19E-06
  PAW_PBE Ti_sv 26Sep2005               :
  PAW_PBE O 08Apr2002                   :

 POSCAR: Ti  O
  positions in direct lattice
 exchange correlation table for  LEXCH =        8
   RHO(1)=    0.500       N(1)  =     2000
   RHO(2)=  100.500       N(2)  =     4000

 ion  position               nearest neighbor table
   1  0.750  0.625  0.287-  82 1.95 142 1.95 141 1.95  81 1.95  84 1.98 163 1.98
   2  0.000  0.750  0.287-  83 1.95  84 1.95 103 1.95 104 1.95  85 1.98
   3  0.000  0.625  0.394-  85 1.95 145 1.95  86 1.95 146 1.95  87 1.98  88 1.98
   4  0.750  0.750  0.394-  87 1.95 107 1.95 168 1.95 188 1.95  89 1.98  82 1.98
   5  0.750  0.625  0.500-  89 1.95  90 1.95 149 1.95 150 1.95  92 1.98 171 1.98
   6  0.000  0.750  0.500-  91 1.95  92 1.95 111 1.95 112 1.95  86 1.98  93 2.00
   7  0.007  0.625  0.604-  96 1.87 153 1.90  93 1.90  94 2.02 154 2.02  95 2.03
   8  0.756  0.750  0.610-  97 1.87  95 1.93 115 1.93 176 2.01 196 2.01  90 2.10
   9  0.752  0.626  0.719-  98 1.83 158 1.86 179 2.01 100 2.02  97 2.08 157 2.09
  10  0.001  0.750  0.708-  94 1.81 119 1.94 120 1.94  99 1.95 100 1.96
  11  0.750  0.875  0.287-  82 1.95 102 1.95 101 1.95  81 1.95 104 1.98 183 1.98
  12  0.000  0.000  0.287- 103 1.95 104 1.95 123 1.95 124 1.95 105 1.98
  13  0.000  0.875  0.394-  85 1.95 105 1.95  86 1.95 106 1.95 107 1.98 108 1.98
  14  0.750  0.000  0.394- 107 1.95 127 1.95 188 1.95 208 1.95 109 1.98 102 1.98
  15  0.750  0.875  0.500-  89 1.95  90 1.95 109 1.95 110 1.95 112 1.98 191 1.98
  16  0.000  0.000  0.500- 111 1.95 112 1.95 131 1.95 132 1.95 106 1.98 113 2.00
  17  0.007  0.875  0.604- 116 1.87  93 1.90 113 1.90 114 2.02  94 2.02 115 2.04
  18  0.756  1.000  0.611- 117 1.87 115 1.93 135 1.93 216 2.01 196 2.01 110 2.10
  19  0.751  0.875  0.720- 118 1.84  98 1.84 199 2.02 120 2.04  97 2.09 117 2.10
  20  0.001  1.000  0.708- 114 1.81 120 1.95 140 1.95 139 1.95 119 1.95
  21  0.750  0.125  0.287- 102 1.95 122 1.95 121 1.95 101 1.95 124 1.98 203 1.98
  22  0.000  0.250  0.287- 123 1.95 124 1.95 143 1.95 144 1.95 125 1.98
  23  0.000  0.125  0.394- 105 1.95 125 1.95 106 1.95 126 1.95 127 1.98 128 1.98
  24  0.750  0.250  0.394- 127 1.95 147 1.95 208 1.95 228 1.95 129 1.98 122 1.98
  25  0.750  0.125  0.500- 109 1.95 110 1.95 129 1.95 130 1.95 132 1.98 211 1.98
  26  0.000  0.250  0.500- 131 1.95 132 1.95 151 1.95 152 1.95 126 1.98 133 2.00
  27  0.007  0.125  0.604- 136 1.87 133 1.90 113 1.90 114 2.02 134 2.02 135 2.04
  28  0.756  0.250  0.610- 137 1.87 155 1.93 135 1.93 216 2.01 236 2.02 130 2.10
  29  0.750  0.124  0.720- 118 1.83 138 1.84 219 2.02 140 2.04 117 2.09 137 2.10
  30  0.001  0.250  0.708- 134 1.81 139 1.94 140 1.94 159 1.95 160 1.96
  31  0.750  0.375  0.287- 122 1.95 142 1.95 141 1.95 121 1.95 144 1.98 223 1.98
  32  0.000  0.500  0.287-  83 1.95  84 1.95 143 1.95 144 1.95 145 1.98
  33  0.000  0.375  0.394- 125 1.95 145 1.95 126 1.95 146 1.95 147 1.98 148 1.98
  34  0.750  0.500  0.394-  87 1.95 147 1.95 168 1.95 228 1.95 142 1.98 149 1.98
  35  0.750  0.375  0.500- 129 1.95 130 1.95 149 1.95 150 1.95 152 1.98 231 1.98
  36  0.000  0.500  0.500-  91 1.95  92 1.95 151 1.95 152 1.95 146 1.98 153 2.00
  37  0.007  0.375  0.604- 156 1.87 153 1.90 133 1.90 134 2.02 154 2.02 155 2.03
  38  0.757  0.500  0.610- 157 1.86 155 1.93  95 1.93 236 2.02 176 2.02 150 2.10
  39  0.752  0.373  0.719- 138 1.83 158 1.87 160 2.01 239 2.02 137 2.07 157 2.10
  40  0.002  0.500  0.708- 154 1.81  99 1.94 159 1.94 100 1.95 160 1.95
  41  0.250  0.625  0.287- 162 1.95 222 1.95 221 1.95 161 1.95  83 1.98 164 1.98
  42  0.500  0.750  0.287- 163 1.95 164 1.95 183 1.95 184 1.95 165 1.98
  43  0.500  0.625  0.394- 165 1.95 225 1.95 166 1.95 226 1.95 167 1.98 168 1.98
  44  0.250  0.750  0.394-  88 1.95 108 1.95 167 1.95 187 1.95 169 1.98 162 1.98
  45  0.250  0.625  0.500- 169 1.95 170 1.95 229 1.95 230 1.95  91 1.98 172 1.98
  46  0.500  0.750  0.500- 171 1.95 172 1.95 191 1.95 192 1.95 166 1.98 173 1.99
  47  0.507  0.623  0.605- 176 1.87 233 1.90 173 1.93 234 1.99 174 2.01 175 2.04  77 2.91
  48  0.256  0.750  0.611- 177 1.87 175 1.92 195 1.93  96 2.02 116 2.02 170 2.10
  49  0.251  0.625  0.720- 178 1.83 238 1.84  99 2.03 180 2.04 177 2.09 237 2.09
  50  0.502  0.750  0.707- 174 1.80 179 1.91 199 1.94 180 1.95 200 1.96
  51  0.250  0.875  0.287- 162 1.95 182 1.95 181 1.95 161 1.95 103 1.98 184 1.98
  52  0.500  0.000  0.287- 183 1.95 184 1.95 203 1.95 204 1.95 185 1.98
  53  0.500  0.875  0.394- 165 1.95 185 1.95 166 1.95 186 1.95 187 1.98 188 1.98
  54  0.250  0.000  0.394- 108 1.95 128 1.95 187 1.95 207 1.95 189 1.98 182 1.98
  55  0.250  0.875  0.500- 169 1.95 170 1.95 189 1.95 190 1.95 111 1.98 192 1.98
  56  0.500  0.000  0.500- 191 1.95 192 1.95 211 1.95 212 1.95 186 1.98 193 1.98
  57  0.507  0.874  0.603- 196 1.88 173 1.88 193 1.90 174 2.00 194 2.03 195 2.04
  58  0.256  1.000  0.611- 197 1.86 195 1.92 215 1.92 136 2.02 116 2.02 190 2.11
  59  0.252  0.875  0.720- 198 1.83 178 1.84 200 2.02 119 2.04 197 2.10 177 2.10
  60  0.500  1.000  0.707- 194 1.80 200 1.94 220 1.94 219 1.95 199 1.96
[...]
 226  0.500  0.500  0.435-  43 1.95  73 1.95  76 1.98
 227  0.348  0.375  0.394-  64 1.95  74 1.95  73 1.98
 228  0.652  0.375  0.394-  24 1.95  34 1.95  73 1.98
 229  0.250  0.500  0.458-  45 1.95  75 1.95  74 1.98
 230  0.250  0.500  0.542-  45 1.95  75 1.95  78 2.11
 231  0.598  0.375  0.500-  66 1.95  76 1.95  35 1.98
 232  0.402  0.375  0.500-  66 1.95  76 1.95  75 1.98
 233  0.501  0.500  0.566-  47 1.90  77 1.90  76 2.00
 234  0.500  0.500  0.650-  80 1.89  47 1.99  77 1.99
 235  0.350  0.375  0.607-  68 1.92  78 1.93  77 2.04
 236  0.651  0.375  0.608-  77 1.87  28 2.02  38 2.02
 237  0.251  0.500  0.672-  78 1.86  49 2.09  79 2.10
 238  0.252  0.500  0.756-  79 1.84  49 1.84
 239  0.598  0.371  0.714-  70 1.92  80 1.96  39 2.02
 240  0.407  0.374  0.718-  80 1.93  70 1.94  79 2.03

IMPORTANT INFORMATION: All symmetrisations will be switched off!
NOSYMM: (Re-)initialisation of all symmetry stuff for point group C_1.

                                     Primitive cell

  volume of cell :    4700.2961

  direct lattice vectors                    reciprocal lattice vectors
    13.003980404  0.000000000  0.000000000     0.076899531  0.000000000  0.000000000
     0.000000000 11.830378115  0.000000000     0.000000000  0.084528152  0.000000000
     0.000000000  0.000000000 30.552748813     0.000000000  0.000000000  0.032730279

  length of vectors
    13.003980404 11.830378115 30.552748813     0.076899531  0.084528152  0.032730279

  position of ions in fractional coordinates (direct lattice)
     0.750000000  0.625000000  0.287188045
     0.000000000  0.750000000  0.287188045
     0.000000000  0.625000000  0.393594023
     0.750000000  0.750000000  0.393594023
     0.750000000  0.625000000  0.500000000
     0.000000000  0.750000000  0.500000000
     0.007153851  0.625014308  0.604051248
     0.756304002  0.750075782  0.610262489
     0.751644692  0.625562917  0.719252858
     0.000794862  0.750172552  0.708180947
     0.750000000  0.875000000  0.287188045
     0.000000000  0.000000000  0.287188045
     0.000000000  0.875000000  0.393594023
     0.750000000  0.000000000  0.393594023
     0.750000000  0.875000000  0.500000000
     0.000000000  0.000000000  0.500000000
     0.007277969  0.874988203  0.604120477
     0.755823970  0.999936719  0.610540702
     0.750558456  0.874801778  0.720210742
     0.000972366  0.999860664  0.708137749
     0.750000000  0.125000000  0.287188045
     0.000000000  0.250000000  0.287188045
     0.000000000  0.125000000  0.393594023
     0.750000000  0.250000000  0.393594023
     0.750000000  0.125000000  0.500000000
     0.000000000  0.250000000  0.500000000
     0.007298258  0.124917644  0.604100230
     0.756284959  0.249808457  0.610237489
     0.750454270  0.124164987  0.720199614
     0.000891816  0.249547152  0.708163781
     0.750000000  0.375000000  0.287188045
     0.000000000  0.500000000  0.287188045
     0.000000000  0.375000000  0.393594023
     0.750000000  0.500000000  0.393594023
     0.750000000  0.375000000  0.500000000
     0.000000000  0.500000000  0.500000000
     0.007178713  0.374943068  0.604052437
     0.756563247  0.499958319  0.610421053
     0.752182607  0.373375021  0.719287257
     0.001629605  0.499997807  0.708113155
     0.250000000  0.625000000  0.287188045
     0.500000000  0.750000000  0.287188045
     0.500000000  0.625000000  0.393594023
     0.250000000  0.750000000  0.393594023
     0.250000000  0.625000000  0.500000000
     0.500000000  0.750000000  0.500000000
     0.507320083  0.622908111  0.605197857
     0.256313719  0.749863999  0.610535728
     0.251324883  0.625073828  0.720260147
     0.501526304  0.750046487  0.706999378
     0.250000000  0.875000000  0.287188045
     0.500000000  0.000000000  0.287188045
     0.500000000  0.875000000  0.393594023
     0.250000000  0.000000000  0.393594023
     0.250000000  0.875000000  0.500000000
[...]
     0.000000000  0.000000000 30.552748813     0.000000000  0.000000000  0.032730279

  length of vectors
    13.003980404 11.830378115 30.552748813     0.076899531  0.084528152  0.032730279

 FORCES acting on ions
    electron-ion (+dipol)            ewald-force                    non-local-force                 convergence-correction
   0.153E-01 0.353E-01 0.498E+04   -.174E-01 -.347E-01 -.499E+04   0.825E-03 -.859E-02 0.113E+01   -.635E-05 -.350E-04 -.296E-04
   -.270E-01 0.293E-01 0.520E+04   0.279E-01 -.293E-01 -.519E+04   -.229E-03 -.825E-05 -.567E+01   0.663E-05 -.139E-04 0.168E-03
   -.804E-01 0.746E-01 0.253E+04   0.844E-01 -.742E-01 -.252E+04   -.110E-02 -.451E-02 -.161E+00   0.189E-04 0.145E-05 0.297E-03
   -.556E-01 0.228E+00 0.252E+04   0.500E-01 -.227E+00 -.252E+04   0.213E-02 -.176E-03 0.368E+00   -.143E-04 0.236E-04 0.382E-03
   0.318E+00 0.817E+00 -.257E+02   -.337E+00 -.836E+00 0.266E+02   0.621E-02 0.249E-01 -.259E+00   -.228E-04 0.466E-05 0.285E-03
   0.257E+01 0.380E-02 -.874E+01   -.257E+01 0.105E-02 0.746E+01   -.411E-02 -.264E-02 0.564E+00   0.195E-04 0.388E-05 0.276E-03
   0.189E+02 0.529E-01 -.248E+04   -.182E+02 -.416E-01 0.248E+04   -.686E+00 -.885E-02 0.781E+00   0.119E-04 -.835E-05 0.361E-03
   0.127E+02 -.150E+01 -.257E+04   -.121E+02 0.153E+01 0.257E+04   -.614E+00 -.189E-01 -.108E+01   -.118E-04 0.119E-04 0.373E-03
   -.160E+02 0.179E+02 -.498E+04   0.160E+02 -.184E+02 0.498E+04   0.214E+00 0.149E-01 -.158E+01   -.721E-04 -.187E-04 0.424E-03
   -.109E+01 0.581E+01 -.499E+04   0.107E+01 -.576E+01 0.499E+04   -.550E-01 -.803E-01 0.274E+01   0.176E-04 0.140E-04 0.285E-03
   -.770E-02 0.275E-01 0.498E+04   0.533E-02 -.279E-01 -.499E+04   0.946E-03 0.856E-02 0.113E+01   -.374E-05 -.246E-05 -.128E-04
   -.252E-01 -.346E-02 0.520E+04   0.261E-01 0.341E-02 -.519E+04   -.230E-03 0.985E-05 -.567E+01   -.879E-05 0.887E-05 0.189E-03
   -.502E-01 0.528E-01 0.253E+04   0.542E-01 -.535E-01 -.252E+04   -.110E-02 0.462E-02 -.161E+00   -.176E-05 0.571E-05 0.303E-03
   -.212E+00 -.240E-01 0.252E+04   0.205E+00 0.235E-01 -.252E+04   0.231E-02 0.103E-03 0.371E+00   -.113E-04 -.139E-04 0.387E-03
   -.198E+01 0.286E+00 -.251E+02   0.198E+01 -.259E+00 0.260E+02   0.286E-02 -.264E-01 -.263E+00   -.245E-04 0.108E-04 0.281E-03
   0.303E+01 -.471E-01 -.913E+01   -.303E+01 0.432E-01 0.786E+01   -.447E-02 0.182E-02 0.563E+00   0.231E-04 -.524E-06 0.278E-03
   0.218E+02 0.348E+00 -.249E+04   -.212E+02 -.341E+00 0.249E+04   -.711E+00 -.925E-02 0.807E+00   0.724E-05 0.166E-05 0.354E-03
   0.118E+02 -.963E-01 -.258E+04   -.112E+02 0.893E-01 0.258E+04   -.607E+00 0.588E-02 -.108E+01   -.198E-04 0.167E-05 0.362E-03
   0.281E+00 -.141E+01 -.499E+04   -.320E+00 0.129E+01 0.499E+04   0.922E-01 0.170E-01 -.161E+01   -.109E-04 0.117E-05 0.388E-03
   -.256E+01 0.281E+00 -.499E+04   0.248E+01 -.295E+00 0.499E+04   0.432E-01 -.350E-02 0.280E+01   0.155E-04 -.991E-05 0.291E-03
   -.575E-02 -.345E-01 0.498E+04   0.343E-02 0.346E-01 -.499E+04   0.923E-03 -.849E-02 0.113E+01   0.122E-05 0.227E-04 0.213E-04
   -.272E-01 -.294E-01 0.520E+04   0.281E-01 0.293E-01 -.519E+04   -.236E-03 0.554E-05 -.567E+01   0.105E-04 0.118E-04 0.176E-03
   -.499E-01 -.701E-01 0.253E+04   0.541E-01 0.702E-01 -.252E+04   -.116E-02 -.453E-02 -.160E+00   -.748E-05 -.644E-05 0.294E-03
   -.293E-01 -.229E+00 0.252E+04   0.240E-01 0.228E+00 -.252E+04   0.200E-02 0.170E-03 0.368E+00   -.104E-04 0.219E-04 0.349E-03
   -.188E+01 -.422E+00 -.251E+02   0.188E+01 0.385E+00 0.261E+02   0.289E-02 0.285E-01 -.262E+00   -.262E-04 -.105E-04 0.279E-03
   0.262E+01 -.377E-01 -.875E+01   -.262E+01 0.341E-01 0.747E+01   -.456E-02 0.259E-02 0.566E+00   0.256E-04 -.543E-05 0.280E-03
   0.227E+02 -.322E+00 -.249E+04   -.221E+02 0.308E+00 0.248E+04   -.721E+00 0.136E-01 0.809E+00   0.890E-05 0.390E-05 0.358E-03
   0.126E+02 0.105E+01 -.257E+04   -.120E+02 -.110E+01 0.257E+04   -.620E+00 0.258E-01 -.107E+01   -.692E-05 -.164E-04 0.369E-03
   0.471E+00 -.210E+01 -.499E+04   -.474E+00 0.209E+01 0.499E+04   0.840E-01 0.603E-01 -.160E+01   -.228E-04 -.427E-05 0.386E-03
   -.244E+00 -.601E+01 -.499E+04   0.214E+00 0.596E+01 0.499E+04   -.515E-01 0.768E-01 0.274E+01   0.180E-04 -.779E-05 0.271E-03
   0.173E-01 -.283E-01 0.498E+04   -.193E-01 0.280E-01 -.499E+04   0.805E-03 0.852E-02 0.113E+01   -.477E-05 0.160E-04 0.515E-04
   -.289E-01 0.350E-02 0.520E+04   0.297E-01 -.345E-02 -.519E+04   -.228E-03 -.860E-05 -.567E+01   -.144E-04 -.716E-05 0.171E-03
   -.807E-01 -.573E-01 0.253E+04   0.849E-01 0.574E-01 -.252E+04   -.115E-02 0.436E-02 -.160E+00   -.474E-05 -.302E-06 0.288E-03
   0.123E+00 0.251E-01 0.252E+04   -.127E+00 -.246E-01 -.252E+04   0.164E-02 -.116E-03 0.371E+00   -.106E-04 -.313E-04 0.325E-03
   0.465E+00 -.671E+00 -.259E+02   -.486E+00 0.699E+00 0.268E+02   0.654E-02 -.268E-01 -.257E+00   -.160E-04 -.498E-05 0.275E-03
   0.245E+01 0.493E-02 -.839E+01   -.244E+01 -.445E-02 0.711E+01   -.537E-02 0.265E-03 0.562E+00   0.231E-04 0.235E-05 0.280E-03
   0.194E+02 0.106E+00 -.248E+04   -.188E+02 -.104E+00 0.248E+04   -.688E+00 0.140E-02 0.789E+00   0.138E-04 0.287E-05 0.366E-03
   0.151E+02 0.175E+00 -.257E+04   -.144E+02 -.173E+00 0.257E+04   -.674E+00 0.381E-02 -.112E+01   0.365E-05 0.204E-05 0.363E-03
   -.139E+02 -.213E+02 -.498E+04   0.140E+02 0.218E+02 0.498E+04   0.656E-01 0.561E-01 -.158E+01   -.707E-04 0.167E-04 0.422E-03
   -.243E+00 0.475E+00 -.499E+04   0.768E-01 -.451E+00 0.498E+04   0.460E-01 -.108E-01 0.268E+01   0.103E-04 0.314E-05 0.261E-03
   -.230E-01 0.379E-01 0.498E+04   0.251E-01 -.376E-01 -.499E+04   -.774E-03 -.859E-02 0.113E+01   0.597E-05 0.136E-03 -.831E-04
   0.349E-01 0.649E-01 0.520E+04   -.357E-01 -.645E-01 -.519E+04   0.214E-03 -.112E-03 -.568E+01   -.502E-05 0.386E-05 0.155E-03
   0.261E+00 0.367E+00 0.252E+04   -.265E+00 -.351E+00 -.252E+04   0.944E-03 -.900E-02 -.164E+00   0.435E-05 -.298E-05 0.301E-03
   -.120E+00 0.268E+00 0.252E+04   0.125E+00 -.267E+00 -.252E+04   -.149E-02 -.249E-03 0.363E+00   0.463E-06 0.725E-05 0.386E-03
   -.225E+01 0.977E+00 -.276E+02   0.228E+01 -.987E+00 0.285E+02   -.109E-01 0.235E-01 -.274E+00   -.200E-04 -.430E-05 0.276E-03
   0.421E+01 0.337E+01 -.811E+01   -.423E+01 -.344E+01 0.699E+01   -.517E-03 0.419E-01 0.473E+00   0.351E-04 0.125E-05 0.275E-03
   0.237E+02 -.704E+01 -.250E+04   -.230E+02 0.722E+01 0.250E+04   -.705E+00 0.504E-01 0.634E+00   0.138E-04 0.113E-04 0.350E-03
   0.140E+02 -.327E+00 -.258E+04   -.135E+02 0.331E+00 0.258E+04   -.604E+00 0.152E-01 -.109E+01   -.873E-05 -.131E-04 0.375E-03
   -.667E+00 0.141E+01 -.498E+04   0.261E+00 -.132E+01 0.498E+04   0.230E+00 -.173E-01 -.164E+01   -.526E-04 0.457E-04 0.336E-03
   0.125E+02 -.665E+01 -.497E+04   -.122E+02 0.693E+01 0.497E+04   -.289E+00 0.977E-02 0.283E+01   0.764E-04 -.139E-04 0.270E-03
   -.218E-03 0.304E-01 0.498E+04   0.258E-02 -.305E-01 -.499E+04   -.905E-03 0.854E-02 0.113E+01   0.429E-05 -.127E-03 -.324E-04
   0.333E-01 -.656E-02 0.520E+04   -.341E-01 0.644E-02 -.519E+04   0.210E-03 0.275E-04 -.567E+01   0.739E-05 0.311E-05 0.165E-03
   0.238E+00 0.298E+00 0.253E+04   -.243E+00 -.295E+00 -.253E+04   0.110E-02 0.289E-02 -.165E+00   0.469E-05 -.991E-06 0.307E-03
   0.288E-01 -.260E-01 0.252E+04   -.225E-01 0.257E-01 -.252E+04   -.179E-02 0.905E-04 0.367E+00   0.449E-05 -.280E-04 0.386E-03
   -.326E+00 0.768E+00 -.264E+02   0.352E+00 -.760E+00 0.273E+02   -.704E-02 -.235E-01 -.273E+00   -.225E-04 -.233E-05 0.275E-03
   0.378E+01 -.339E+00 -.231E+01   -.381E+01 0.334E+00 0.102E+01   0.794E-02 0.120E-02 0.484E+00   0.389E-04 -.382E-05 0.270E-03
   0.206E+02 -.691E+01 -.246E+04   -.199E+02 0.687E+01 0.246E+04   -.710E+00 0.106E+00 0.692E+00   0.390E-04 -.554E-05 0.374E-03
   0.138E+02 0.270E+00 -.258E+04   -.132E+02 -.279E+00 0.258E+04   -.649E+00 0.499E-02 -.108E+01   -.105E-04 0.769E-05 0.378E-03
   0.432E+01 0.228E+01 -.498E+04   -.428E+01 -.227E+01 0.498E+04   -.999E-01 -.190E-01 -.165E+01   -.337E-04 0.522E-05 0.361E-03
   -.632E+01 0.525E+00 -.497E+04   0.622E+01 -.602E+00 0.497E+04   0.146E+00 0.245E-01 0.271E+01   0.342E-04 0.206E-05 0.256E-03
[...]
   -.628E+02 -.120E+00 0.126E+04   0.668E+02 0.119E+00 -.126E+04   -.356E+01 0.856E-02 0.157E+00   -.124E-04 -.119E-05 0.167E-03
   0.629E+02 -.112E+00 0.126E+04   -.669E+02 0.111E+00 -.126E+04   0.357E+01 0.833E-02 0.161E+00   0.202E-04 -.311E-06 0.164E-03
   -.624E+00 0.419E-01 0.548E+03   0.638E+00 -.418E-01 -.552E+03   -.216E-01 -.165E-03 0.416E+01   -.469E-05 0.240E-05 0.120E-03
   0.982E+00 0.223E+00 -.595E+03   -.127E+01 -.217E+00 0.603E+03   0.289E+00 -.912E-02 -.709E+01   -.415E-05 -.193E-06 0.144E-03
   -.646E+02 -.922E+00 -.570E+01   0.693E+02 0.918E+00 0.547E+01   -.511E+01 0.287E-01 0.297E+00   0.793E-06 -.130E-05 0.136E-03
   0.652E+02 -.972E+00 -.872E+01   -.698E+02 0.965E+00 0.855E+01   0.513E+01 0.325E-01 0.266E+00   0.713E-06 0.137E-05 0.139E-03
   0.139E+02 0.817E+00 -.692E+03   -.149E+02 -.902E+00 0.685E+03   0.107E+01 0.797E-01 0.694E+01   0.293E-05 0.184E-06 0.157E-03
   0.178E+02 -.169E+01 -.181E+04   -.190E+02 0.180E+01 0.181E+04   0.115E+01 -.140E+00 0.510E+00   0.156E-04 0.107E-06 0.195E-03
   -.664E+02 -.688E+00 -.125E+04   0.725E+02 0.612E+00 0.125E+04   -.610E+01 0.855E-01 0.137E+01   0.118E-04 -.499E-06 0.173E-03
   0.481E+01 0.877E+00 -.127E+04   -.470E+01 -.105E+01 0.127E+04   -.157E+00 0.173E+00 0.439E+00   -.123E-04 -.537E-05 0.181E-03
   0.511E+01 -.406E+00 -.201E+04   -.562E+01 0.408E+00 0.201E+04   0.545E+00 -.208E-01 -.210E+01   -.106E-04 0.469E-05 0.142E-03
   -.167E+01 0.673E+00 -.301E+04   0.171E+01 -.647E+00 0.303E+04   -.124E-01 -.711E-01 -.209E+02   -.403E-05 0.791E-05 0.821E-04
   -.358E+02 -.684E+01 -.252E+04   0.423E+02 0.722E+01 0.252E+04   -.705E+01 0.714E-02 0.240E+00   -.142E-04 0.204E-04 0.156E-03
   0.345E+02 0.229E+01 -.258E+04   -.410E+02 -.254E+01 0.258E+04   0.679E+01 0.517E+00 -.221E+01   0.514E-04 0.971E-05 0.136E-03
   0.344E+02 -.112E+01 0.951E+02   0.170E-11 -.138E-11 0.268E-10   -.344E+02 0.110E+01 -.951E+02   0.137E-03 -.267E-05 0.436E-01

 POSITION                                       TOTAL-FORCE (eV/Angst)
      9.75299      7.39399      8.77438        -0.001236     -0.008046     -3.549263
      0.00000      8.87278      8.77438         0.000614      0.000071      2.737305
      0.00000      7.39399     12.02538         0.002934     -0.003970      0.543792
      9.75299      8.87278     12.02538        -0.003554      0.000723     -0.691109
      9.75299      7.39399     15.27637        -0.013414      0.006454      0.641778
      0.00000      8.87278     15.27637        -0.005783      0.002224     -0.707881
      0.09303      7.39416     18.45543        -0.067597      0.002456      0.078179
      9.83496      8.87368     18.64520         0.015262      0.018402      0.024106
      9.77437      7.40065     21.97515         0.150773     -0.476425      0.639475
      0.01034      8.87482     21.63687        -0.081678     -0.027220      0.135908
      9.75299     10.35158      8.77438        -0.001424      0.008276     -3.549185
      0.00000      0.00000      8.77438         0.000625      0.000023      2.740997
      0.00000     10.35158     12.02538         0.002916      0.004009      0.543901
      9.75299      0.00000     12.02538        -0.004028     -0.000387     -0.688882
      9.75299     10.35158     15.27637        -0.001670      0.001103      0.646615
      0.00000      0.00000     15.27637        -0.006048     -0.002017     -0.706113
      0.09464     10.35144     18.45754        -0.059761     -0.002592      0.083785
      9.82872     11.82963     18.65370        -0.008582     -0.000891      0.021125
      9.76025     10.34924     22.00442         0.051619     -0.106949      0.253609
      0.01264     11.82873     21.63555        -0.034315     -0.018004      0.125930
      9.75299      1.47880      8.77438        -0.001393     -0.008383     -3.549316
      0.00000      2.95759      8.77438         0.000634      0.000034      2.737254
      0.00000      1.47880     12.02538         0.003009     -0.004327      0.543583
      9.75299      2.95759     12.02538        -0.003314     -0.000588     -0.692330
      9.75299      1.47880     15.27637        -0.000333     -0.008408      0.641802
      0.00000      2.95759     15.27637        -0.004509     -0.000933     -0.709516
      0.09491      1.47782     18.45692        -0.065197     -0.000134      0.081239
      9.83471      2.95533     18.64443         0.018313     -0.017013      0.021423
      9.75889      1.46892     22.00408         0.079882      0.052674      0.232779
      0.01160      2.95224     21.63635        -0.080637      0.027770      0.129642
      9.75299      4.43639      8.77438        -0.001206      0.008367     -3.549379
      0.00000      5.91519      8.77438         0.000620      0.000088      2.741009
      0.00000      4.43639     12.02538         0.003037      0.004500      0.543542
      9.75299      5.91519     12.02538        -0.002923      0.000459     -0.688004
      9.75299      4.43639     15.27637        -0.014538      0.001175      0.637844
      0.00000      5.91519     15.27637        -0.005315      0.000812     -0.710543
      0.09335      4.43572     18.45546        -0.068288      0.003564      0.075010
      9.83833      5.91470     18.65004         0.050359      0.005451      0.072698
      9.78137      4.41717     21.97620         0.164293      0.549790      0.602119
      0.02119      5.91516     21.63480        -0.120252      0.014028      0.170006
      3.25100      7.39399      8.77438         0.001282     -0.008068     -3.547924
      6.50199      8.87278      8.77438        -0.000547      0.000405      2.740336
      6.50199      7.39399     12.02538        -0.002820      0.006955      0.553197
      3.25100      8.87278     12.02538         0.003922      0.000868     -0.682092
      3.25100      7.39399     15.27637         0.024944      0.014058      0.672548
      6.50199      8.87278     15.27637        -0.020511     -0.030980     -0.645378
      6.59718      7.36924     18.49046         0.006583      0.229634     -0.146205
      3.33310      8.87117     18.65354        -0.075254      0.019691     -0.062142
      3.26822      7.39486     22.00593        -0.178117      0.072204      0.189960
      6.52184      8.87333     21.60077         0.004489      0.291312      0.159751
      3.25100     10.35158      8.77438         0.001466      0.008348     -3.547837
      6.50199      0.00000      8.77438        -0.000546     -0.000036      2.744556
      6.50199     10.35158     12.02538        -0.003103      0.005753      0.558438
      3.25100      0.00000     12.02538         0.004503     -0.000184     -0.679068
      3.25100     10.35158     15.27637         0.019614     -0.015164      0.670744
      6.50199      0.00000     15.27637        -0.024867     -0.003523     -0.796446
      6.59416     10.34079     18.42794        -0.017284      0.065682      0.050041
      3.33068     11.82974     18.65475        -0.073802     -0.003679     -0.036503
      3.27347     10.35117     22.00633        -0.052273     -0.007722      0.177120
      6.50573     11.82874     21.60687         0.042251     -0.052449      0.118402
[...]
      6.50199      5.91519     13.29976         0.002604     -0.000853     -0.112695
      4.52538      4.43639     12.02538         0.417026      0.007598      0.050071
      8.47860      4.43639     12.02538        -0.413790      0.007530      0.051217
      3.25100      5.91519     14.00199        -0.007352     -0.000039     -0.096448
      3.25100      5.91519     16.55076         0.002245     -0.003472      0.054499
      7.77637      4.43639     15.27637        -0.453946      0.024825      0.066783
      5.22761      4.43639     15.27637         0.480570      0.026544      0.092092
      6.51652      5.91257     17.27859        -0.000981     -0.005443      0.073319
      6.49826      5.91976     19.84679        -0.054639     -0.030088      0.730156
      4.55649      4.43633     18.54881         0.064035      0.009982      0.009857
      8.46983      4.43629     18.56617        -0.051783      0.003600     -0.003346
      3.26637      5.91968     20.51974         0.043175     -0.018198      0.058821
      3.28156      5.91325     23.09083         0.031038     -0.045231     -0.061426
      7.77014      4.39492     21.81608        -0.508416      0.389345      0.473573
      5.29699      4.42315     21.93300         0.262524      0.270005      0.341721
    total drift:                               -0.000594     -0.013200      0.061715

  FREE ENERGIE OF THE ION-ELECTRON SYSTEM (eV)
  free  energy   TOTEN  =     -2164.27074652 eV

  energy  without entropy=    -2164.27074652  energy(sigma->0) =    -2164.27074652

 writing wavefunctions