 vasp.6.3.0 20Jan22 (build Apr  1 2022 16:44:48) complex
 executed on        HPECrayEX_GCC date 2023.01.23  22:50:01

 INCAR:
   SYSTEM = MgO-rocksalt
   ISMEAR = 0
   SIGMA = 0.05
   EDIFF = 1E-8
   ALGO = ALL
   ISTART = 0
   IBRION = 5
   POTIM = 0.01
   NFREE = 2
   ISYM = 0
   DIPOL = 0.5 0.5 0.5
   IDIPOL = 3
   LDIPOL = .TRUE.
   GGA = RE
   IVDW = 13
   VDW_S8 = 1.7468
   VDW_A1 = 0.5363
   VDW_A2 = 3.0726
   ENCUT = 600
   PREC = Accurate
   LASPH = .TRUE.
   LREAL = .FALSE.
   ISPIN = 1
   NELM = 200
   NELMIN = 8
   NCORE = 8
   KPAR = 1
   LWAVE = .FALSE.
   LCHARG = .FALSE.

 POTCAR:    PAW_PBE N 08Apr2002
 POTCAR:    PAW_PBE O 08Apr2002
 POTCAR:    PAW_PBE Mg_pv 13Apr2007
 POTCAR:    PAW_PBE O 08Apr2002
 POTCAR:    PAW_PBE N 08Apr2002
   VRHFIN =N: s2p3

   TITEL  = PAW_PBE N 08Apr2002
   POMASS =   14.001; ZVAL   =    5.000    mass and valenz
   ENMAX  =  400.000; ENMIN  =  300.000 eV

[...]

   TITEL  = PAW_PBE Mg_pv 13Apr2007
   POMASS =   24.305; ZVAL   =    8.000    mass and valenz
   ENMAX  =  403.929; ENMIN  =  302.947 eV

   TITEL  = PAW_PBE O 08Apr2002
   POMASS =   16.000; ZVAL   =    6.000    mass and valenz
   ENMAX  =  400.000; ENMIN  =  300.000 eV

  PAW_PBE N 08Apr2002                   :
  PAW_PBE O 08Apr2002                   :
  PAW_PBE Mg_pv 13Apr2007               :
  PAW_PBE O 08Apr2002                   :

 POSCAR:  N  O Mg  O
  positions in direct lattice
|           W    W    AA    RRRRR   N    N  II  N    N   GGGG   !!!           |
|           W    W   A  A   R    R  NN   N  II  NN   N  G    G  !!!           |
|           W    W  A    A  R    R  N N  N  II  N N  N  G       !!!           |
|           W WW W  AAAAAA  RRRRR   N  N N  II  N  N N  G  GGG   !            |
|           WW  WW  A    A  R   R   N   NN  II  N   NN  G    G                |
|           W    W  A    A  R    R  N    N  II  N    N   GGGG   !!!           |
|     Specifying the vdW parameters                                           |
|     VDW_S8 = 1.747                                                          |
|     VDW_A1 = 0.536                                                          |
|     VDW_A2 = 3.073                                                          |
|     in the INCAR file will overwrite the defaults for revpbe. Please        |
|     make sure that is what you intended.                                    |

 ion  position               nearest neighbor table
   1  0.546  0.546  0.754-   3 1.18
   2  0.706  0.706  0.754-   4 1.18
   3  0.520  0.520  0.807-   1 1.18
   4  0.732  0.732  0.807-   2 1.18
   5  0.000  0.750  0.352-  37 2.11  39 2.11  40 2.11  47 2.11  56 2.11
   6  0.250  0.000  0.352-  38 2.11  39 2.11  40 2.11  48 2.11  55 2.11
   7  0.000  0.000  0.451-  39 2.11  38 2.11  37 2.11  45 2.11  54 2.11  43 2.12
   8  0.250  0.750  0.451-  40 2.11  38 2.11  37 2.11  46 2.11  53 2.11  44 2.12
   9  1.000  0.750  0.550-  43 2.11  60 2.11  51 2.11  44 2.12  37 2.13  41 2.14
  10  0.250  0.000  0.550-  52 2.11  43 2.11  59 2.11  44 2.11  38 2.12  42 2.15
  11  0.000  0.000  0.649-  49 2.11  42 2.11  58 2.11  41 2.11  43 2.11
  12  0.249  0.750  0.649-  41 2.09  57 2.11  44 2.11  42 2.11  50 2.11
  13  0.000  0.250  0.352-  45 2.11  39 2.11  47 2.11  48 2.11  64 2.11
  14  0.250  0.500  0.352-  46 2.11  40 2.11  47 2.11  48 2.11  63 2.11
  15  0.000  0.500  0.451-  47 2.11  45 2.11  46 2.11  37 2.11  62 2.11  51 2.12
  16  0.250  0.250  0.451-  48 2.11  45 2.11  46 2.11  38 2.11  61 2.11  52 2.12
  17  0.000  0.250  0.550-  52 2.11  43 2.11  51 2.11  68 2.11  45 2.12  49 2.15
  18  0.250  0.500  0.550-  52 2.11  67 2.11  44 2.11  51 2.12  46 2.13  50 2.14
  19  0.001  0.500  0.649-  50 2.09  66 2.11  51 2.11  49 2.11  41 2.11
  20  0.250  0.250  0.649-  49 2.11  42 2.11  50 2.11  65 2.11  52 2.11
  21  0.500  0.750  0.352-  53 2.11  40 2.11  55 2.11  56 2.11  63 2.11
  22  0.750  0.000  0.352-  54 2.11  39 2.11  55 2.11  56 2.11  64 2.11
  23  0.500  0.000  0.451-  55 2.11  53 2.11  54 2.11  38 2.11  61 2.11  59 2.12
  24  0.750  0.750  0.451-  56 2.11  53 2.11  54 2.11  37 2.11  62 2.11  60 2.13
  25  0.501  0.750  0.550-  67 2.10  60 2.10  44 2.11  59 2.11  53 2.12  57 2.16
  26  0.750  1.000  0.550-  43 2.11  60 2.11  59 2.11  68 2.12  54 2.13  58 2.14
  27  0.500  0.001  0.649-  65 2.09  57 2.11  59 2.11  42 2.11  58 2.11
  28  0.752  0.752  0.651-  41 2.10  58 2.10  60 2.14  66 2.14  57 2.14
  29  0.500  0.250  0.352-  61 2.11  55 2.11  48 2.11  63 2.11  64 2.11
  30  0.750  0.500  0.352-  62 2.11  56 2.11  47 2.11  63 2.11  64 2.11
  31  0.500  0.500  0.451-  63 2.11  53 2.11  61 2.11  62 2.11  46 2.11  67 2.13
  32  0.750  0.250  0.451-  64 2.11  54 2.11  61 2.11  62 2.11  45 2.11  68 2.12
  33  0.500  0.250  0.550-  52 2.11  67 2.11  68 2.11  59 2.12  61 2.13  65 2.14
  34  0.750  0.501  0.550-  67 2.10  60 2.10  68 2.11  51 2.11  62 2.12  66 2.16
  35  0.498  0.498  0.651-  65 2.10  50 2.10  67 2.14  66 2.14  57 2.14
  36  0.750  0.249  0.649-  58 2.09  66 2.11  68 2.11  49 2.11  65 2.11
  37  0.000  0.750  0.451-   5 2.11   7 2.11   8 2.11  15 2.11  24 2.11   9 2.13
  38  0.250  0.000  0.451-   6 2.11   7 2.11   8 2.11  16 2.11  23 2.11  10 2.12
  39  0.000  0.000  0.352-   7 2.11   6 2.11   5 2.11  13 2.11  22 2.11
  40  0.250  0.750  0.352-   8 2.11   6 2.11   5 2.11  14 2.11  21 2.11
  41  0.001  0.750  0.650-  12 2.09  28 2.10  11 2.11  19 2.11   9 2.14
  42  0.250  0.000  0.651-  11 2.11  20 2.11  12 2.11  27 2.11  10 2.15
  43  0.000  0.000  0.550-  10 2.11  17 2.11  26 2.11   9 2.11  11 2.11   7 2.12
  44  0.251  0.750  0.550-  12 2.11  25 2.11  10 2.11  18 2.11   9 2.12   8 2.12
  45  0.000  0.250  0.451-  13 2.11   7 2.11  15 2.11  16 2.11  32 2.11  17 2.12
  46  0.250  0.500  0.451-  14 2.11   8 2.11  15 2.11  16 2.11  31 2.11  18 2.13
  47  0.000  0.500  0.352-  15 2.11  13 2.11  14 2.11   5 2.11  30 2.11
  48  0.250  0.250  0.352-  16 2.11  13 2.11  14 2.11   6 2.11  29 2.11
  49  0.000  0.250  0.651-  11 2.11  20 2.11  36 2.11  19 2.11  17 2.15
  50  0.249  0.500  0.650-  19 2.09  35 2.10  20 2.11  12 2.11  18 2.14
  51  1.000  0.500  0.550-  19 2.11  17 2.11  34 2.11   9 2.11  18 2.12  15 2.12
  52  0.250  0.250  0.550-  17 2.11  10 2.11  33 2.11  18 2.11  20 2.11  16 2.12
  53  0.500  0.750  0.451-  21 2.11   8 2.11  23 2.11  24 2.11  31 2.11  25 2.12
  54  0.750  0.000  0.451-  22 2.11   7 2.11  23 2.11  24 2.11  32 2.11  26 2.13
  55  0.500  0.000  0.352-  23 2.11  21 2.11  22 2.11   6 2.11  29 2.11
  56  0.750  0.750  0.352-  24 2.11  21 2.11  22 2.11   5 2.11  30 2.11
  57  0.498  0.752  0.651-  27 2.11  12 2.11  35 2.14  28 2.14  25 2.16
  58  0.750  0.001  0.650-  36 2.09  28 2.10  11 2.11  27 2.11  26 2.14
  59  0.500  1.000  0.550-  27 2.11  10 2.11  25 2.11  26 2.11  33 2.12  23 2.12
  60  0.750  0.750  0.550-  25 2.10  34 2.10   9 2.11  26 2.11  24 2.13  28 2.14
  61  0.500  0.250  0.451-  29 2.11  23 2.11  16 2.11  31 2.11  32 2.11  33 2.13
  62  0.750  0.500  0.451-  30 2.11  24 2.11  15 2.11  31 2.11  32 2.11  34 2.12
  63  0.500  0.500  0.352-  31 2.11  21 2.11  29 2.11  30 2.11  14 2.11
  64  0.750  0.250  0.352-  32 2.11  22 2.11  29 2.11  30 2.11  13 2.11
  65  0.500  0.249  0.650-  27 2.09  35 2.10  20 2.11  36 2.11  33 2.14
  66  0.752  0.498  0.651-  19 2.11  36 2.11  35 2.14  28 2.14  34 2.16
  67  0.500  0.500  0.550-  34 2.10  25 2.10  18 2.11  33 2.11  31 2.13  35 2.14
  68  0.750  0.251  0.550-  36 2.11  34 2.11  17 2.11  33 2.11  26 2.12  32 2.12

IMPORTANT INFORMATION: All symmetrisations will be switched off!
NOSYMM: (Re-)initialisation of all symmetry stuff for point group C_1.

                                     Primitive cell

  volume of cell :    1519.8199

  direct lattice vectors                    reciprocal lattice vectors
     8.440984654  0.000000000  0.000000000     0.118469591  0.000000000  0.000000000
     0.000000000  8.440984654  0.000000000     0.000000000  0.118469591  0.000000000
     0.000000000  0.000000000 21.330738491     0.000000000  0.000000000  0.046880702

  length of vectors
     8.440984654  8.440984654 21.330738491     0.118469591  0.118469591  0.046880702

  position of ions in fractional coordinates (direct lattice)
     0.546043464  0.546043554  0.753982351
     0.705518136  0.705518155  0.753866875
     0.519545987  0.519546255  0.807369252
     0.732328213  0.732328328  0.807205629
     0.000000000  0.750000000  0.351605267
     0.250000000  0.000000000  0.351605267
     0.000000000  0.000000000  0.450535089
     0.250000000  0.750000000  0.450535089
     0.999798239  0.750144775  0.550245717
     0.250027098  0.000053474  0.550129252
     0.000371466  0.000371472  0.648882746
     0.248696284  0.750225333  0.648718344
     0.000000000  0.250000000  0.351605267
     0.250000000  0.500000000  0.351605267
     0.000000000  0.500000000  0.450535089
     0.250000000  0.250000000  0.450535089
     0.000053477  0.250027114  0.550129253
     0.250298833  0.499926265  0.550268463
     0.001389620  0.499880676  0.648721670
     0.249712485  0.249712492  0.648907263
     0.500000000  0.750000000  0.351605267
     0.750000000  0.000000000  0.351605267
     0.500000000  0.000000000  0.450535089
     0.750000000  0.750000000  0.450535089
     0.500518719  0.749529162  0.550035840
     0.750144785  0.999798249  0.550245716
     0.499880675  0.001389626  0.648721670
     0.752263329  0.752263326  0.650736108
     0.500000000  0.250000000  0.351605267
     0.750000000  0.500000000  0.351605267
     0.500000000  0.500000000  0.450535089
     0.750000000  0.250000000  0.450535089
     0.499926254  0.250298819  0.550268463
     0.749529159  0.500518710  0.550035844
     0.497885295  0.497885281  0.650846849
     0.750225336  0.248696295  0.648718342
     0.000000000  0.750000000  0.450535089
     0.250000000  0.000000000  0.450535089
     0.000000000  0.000000000  0.351605267
     0.250000000  0.750000000  0.351605267
     0.001311888  0.750248159  0.650411303
     0.249885529  0.000191560  0.650896300
     0.000086314  0.000086309  0.549757436
     0.250507912  0.750014892  0.549832485
     0.000000000  0.250000000  0.450535089
     0.250000000  0.500000000  0.450535089
     0.000000000  0.500000000  0.351605267
     0.250000000  0.250000000  0.351605267
     0.000191566  0.249885533  0.650896301
     0.248805130  0.499862101  0.650472785
     0.999573666  0.500041977  0.549829729
     0.249988858  0.249988862  0.549775761
     0.500000000  0.750000000  0.450535089
     0.750000000  0.000000000  0.450535089
     0.500000000  0.000000000  0.351605267
     0.750000000  0.750000000  0.351605267
     0.498266584  0.751869440  0.651164077
     0.750248154  0.001311885  0.650411303
     0.500041974  0.999573651  0.549829728
     0.749750316  0.749750318  0.550374590
     0.500000000  0.250000000  0.450535089
     0.750000000  0.500000000  0.450535089
     0.500000000  0.500000000  0.351605267
     0.750000000  0.250000000  0.351605267
     0.499862110  0.248805133  0.650472788
     0.751869449  0.498266590  0.651164068
     0.500318883  0.500318880  0.550401686
     0.750014891  0.250507906  0.549832487

  ion indices of the primitive-cell ions
   primitive index   ion index
[...]
  1Z     9.647973    9.639502  -84.365485   -2.063099   -2.061588   -1.346255  -11.569502  -11.576215   77.676075    3.626115    3.626962    6.315885
  2X     1.161941   -0.718882   -2.051610  -10.423400   -5.531178   -9.750285    1.829689    2.696235   -1.395796    6.203656    4.029153   13.857421
  2Y    -0.724258    1.155022   -2.065418   -5.537384  -10.415858   -9.751954    2.695448    1.828253   -1.401831    4.030883    6.218626   13.847383
  2Z     2.047334    2.045666   -1.346427   -9.769496   -9.774070  -84.340959   -3.622559   -3.623265    6.342938   11.724934   11.719963   77.552970
  3X     6.156746    3.972045  -11.545027    1.829812    2.697295   -3.621091   -6.596138   -5.579640   15.363789   -0.969063   -1.455390   -0.083495
  3Y     3.971889    6.160252  -11.545497    2.695899    1.828407   -3.620387   -5.582548   -6.592157   15.366265   -1.458520   -0.971940   -0.086337
  3Z   -13.719180  -13.719479   77.660544   -1.396164   -1.396527    6.335800   15.375660   15.386256  -79.506228    0.080382    0.080795   -4.994952
  4X     1.837879    2.702549    3.633435    6.219371    4.031202   11.701429   -0.967726   -1.454992    0.070321   -6.678473   -5.645441  -15.512692
  4Y     2.700660    1.835608    3.623501    4.034476    6.219956   11.699516   -1.459695   -0.972665    0.077807   -5.637296   -6.686421  -15.516439
  4Z     1.402649    1.402997    6.314922   13.878216   13.882091   77.551149   -0.089897   -0.089463   -4.994283  -15.533848  -15.518628  -79.369677

 Eigenvectors and eigenvalues of the dynamical matrix

   1 f  =   54.037349 THz   339.526676 2PiTHz 1802.491934 cm-1   223.480417 meV
             X         Y         Z           dx          dy          dz
      4.609144  4.609145 16.083000    -0.077591   -0.077583    0.503299
      5.955268  5.955268 16.080537     0.078783    0.078792    0.503699
      4.385480  4.385482 17.221782     0.086954    0.086978   -0.467837
      6.181571  6.181572 17.218292    -0.088144   -0.088104   -0.467967
      0.000000  6.330738  7.500000            0           0           0
      2.110246  0.000000  7.500000            0           0           0
      0.000000  0.000000  9.610246            0           0           0
      2.110246  6.330738  9.610246            0           0           0
      8.439282  6.331961 11.737147            0           0           0
      2.110475  0.000451 11.734663            0           0           0
      0.003136  0.003136 13.841148            0           0           0
      2.099242  6.332641 13.837641            0           0           0
      0.000000  2.110246  7.500000            0           0           0
      2.110246  4.220492  7.500000            0           0           0
      0.000000  4.220492  9.610246            0           0           0
      2.110246  2.110246  9.610246            0           0           0
      0.000451  2.110475 11.734663            0           0           0
      2.112769  4.219870 11.737633            0           0           0
      0.011730  4.219485 13.837712            0           0           0
      2.107819  2.107819 13.841671            0           0           0
      4.220492  6.330738  7.500000            0           0           0
      6.330738  0.000000  7.500000            0           0           0
      4.220492  0.000000  9.610246            0           0           0
      6.330738  6.330738  9.610246            0           0           0
      4.224871  6.326764 11.732671            0           0           0
      6.331961  8.439282 11.737147            0           0           0
      4.219485  0.011730 13.837712            0           0           0
      6.349843  6.349843 13.880682            0           0           0
      4.220492  2.110246  7.500000            0           0           0
      6.330738  4.220492  7.500000            0           0           0
      4.220492  4.220492  9.610246            0           0           0
      6.330738  2.110246  9.610246            0           0           0
      4.219870  2.112768 11.737633            0           0           0
      6.326764  4.224871 11.732671            0           0           0
      4.202642  4.202642 13.883044            0           0           0
      6.332641  2.099242 13.837641            0           0           0
      0.000000  6.330738  9.610246            0           0           0
      2.110246  0.000000  9.610246            0           0           0
      0.000000  0.000000  7.500000            0           0           0
      2.110246  6.330738  7.500000            0           0           0
      0.011074  6.332833 13.873753            0           0           0
      2.109280  0.001617 13.884099            0           0           0
      0.000729  0.000729 11.726732            0           0           0
      2.114533  6.330864 11.728333            0           0           0
      0.000000  2.110246  9.610246            0           0           0
      2.110246  4.220492  9.610246            0           0           0
      0.000000  4.220492  7.500000            0           0           0
      2.110246  2.110246  7.500000            0           0           0
      0.001617  2.109280 13.884099            0           0           0
      2.100160  4.219328 13.875065            0           0           0
      8.437386  4.220847 11.728274            0           0           0
      2.110152  2.110152 11.727123            0           0           0
      4.220492  6.330738  9.610246            0           0           0
      6.330738  0.000000  9.610246            0           0           0
      4.220492  0.000000  7.500000            0           0           0
      6.330738  6.330738  7.500000            0           0           0
      4.205861  6.346518 13.889811            0           0           0
      6.332833  0.011074 13.873753            0           0           0
      4.220847  8.437386 11.728274            0           0           0
      6.328631  6.328631 11.739896            0           0           0
      4.220492  2.110246  9.610246            0           0           0
      6.330738  4.220492  9.610246            0           0           0
      4.220492  4.220492  7.500000            0           0           0
      6.330738  2.110246  7.500000            0           0           0
      4.219328  2.100160 13.875065            0           0           0
      6.346518  4.205861 13.889810            0           0           0
      4.223184  4.223184 11.740474            0           0           0
      6.330864  2.114533 11.728333            0           0           0

[...]

  11 f  =    1.347841 THz     8.468737 2PiTHz   44.959150 cm-1     5.574222 meV
             X         Y         Z           dx          dy          dz
      4.609144  4.609145 16.083000     0.177611   -0.184255   -0.002406
      5.955268  5.955268 16.080537    -0.214374    0.208668    0.001592
      4.385480  4.385482 17.221782     0.416980   -0.428425   -0.003450
      6.181571  6.181572 17.218292    -0.498931    0.488494    0.002576
      0.000000  6.330738  7.500000            0           0           0
      2.110246  0.000000  7.500000            0           0           0
      0.000000  0.000000  9.610246            0           0           0
      2.110246  6.330738  9.610246            0           0           0
      8.439282  6.331961 11.737147            0           0           0
      2.110475  0.000451 11.734663            0           0           0
      0.003136  0.003136 13.841148            0           0           0
      2.099242  6.332641 13.837641            0           0           0
      0.000000  2.110246  7.500000            0           0           0
      2.110246  4.220492  7.500000            0           0           0
      0.000000  4.220492  9.610246            0           0           0
      2.110246  2.110246  9.610246            0           0           0
      0.000451  2.110475 11.734663            0           0           0
      2.112769  4.219870 11.737633            0           0           0
      0.011730  4.219485 13.837712            0           0           0
      2.107819  2.107819 13.841671            0           0           0
      4.220492  6.330738  7.500000            0           0           0
      6.330738  0.000000  7.500000            0           0           0
      4.220492  0.000000  9.610246            0           0           0
      6.330738  6.330738  9.610246            0           0           0
      4.224871  6.326764 11.732671            0           0           0
      6.331961  8.439282 11.737147            0           0           0
      4.219485  0.011730 13.837712            0           0           0
      6.349843  6.349843 13.880682            0           0           0
      4.220492  2.110246  7.500000            0           0           0
      6.330738  4.220492  7.500000            0           0           0
      4.220492  4.220492  9.610246            0           0           0
      6.330738  2.110246  9.610246            0           0           0
      4.219870  2.112768 11.737633            0           0           0
      6.326764  4.224871 11.732671            0           0           0
      4.202642  4.202642 13.883044            0           0           0
      6.332641  2.099242 13.837641            0           0           0
      0.000000  6.330738  9.610246            0           0           0
      2.110246  0.000000  9.610246            0           0           0
      0.000000  0.000000  7.500000            0           0           0
      2.110246  6.330738  7.500000            0           0           0
      0.011074  6.332833 13.873753            0           0           0
      2.109280  0.001617 13.884099            0           0           0
      0.000729  0.000729 11.726732            0           0           0
      2.114533  6.330864 11.728333            0           0           0
      0.000000  2.110246  9.610246            0           0           0
      2.110246  4.220492  9.610246            0           0           0
      0.000000  4.220492  7.500000            0           0           0
      2.110246  2.110246  7.500000            0           0           0
      0.001617  2.109280 13.884099            0           0           0
      2.100160  4.219328 13.875065            0           0           0
      8.437386  4.220847 11.728274            0           0           0
      2.110152  2.110152 11.727123            0           0           0
      4.220492  6.330738  9.610246            0           0           0
      6.330738  0.000000  9.610246            0           0           0
      4.220492  0.000000  7.500000            0           0           0
      6.330738  6.330738  7.500000            0           0           0
      4.205861  6.346518 13.889811            0           0           0
      6.332833  0.011074 13.873753            0           0           0
      4.220847  8.437386 11.728274            0           0           0
      6.328631  6.328631 11.739896            0           0           0
      4.220492  2.110246  9.610246            0           0           0
      6.330738  4.220492  9.610246            0           0           0
      4.220492  4.220492  7.500000            0           0           0
      6.330738  2.110246  7.500000            0           0           0
      4.219328  2.100160 13.875065            0           0           0
      6.346518  4.205861 13.889810            0           0           0
      4.223184  4.223184 11.740474            0           0           0
      6.330864  2.114533 11.728333            0           0           0

  12 f/i=    0.712509 THz     4.476823 2PiTHz   23.766726 cm-1     2.946697 meV
             X         Y         Z           dx          dy          dz
      4.609144  4.609145 16.083000     0.202515   -0.202921    0.000946
      5.955268  5.955268 16.080537     0.172339   -0.172929    0.000168
      4.385480  4.385482 17.221782     0.497293   -0.497579    0.000991
      6.181571  6.181572 17.218292     0.426658   -0.425771   -0.000112
      0.000000  6.330738  7.500000            0           0           0
      2.110246  0.000000  7.500000            0           0           0
      0.000000  0.000000  9.610246            0           0           0
      2.110246  6.330738  9.610246            0           0           0
      8.439282  6.331961 11.737147            0           0           0
      2.110475  0.000451 11.734663            0           0           0
      0.003136  0.003136 13.841148            0           0           0
      2.099242  6.332641 13.837641            0           0           0
      0.000000  2.110246  7.500000            0           0           0
      2.110246  4.220492  7.500000            0           0           0
      0.000000  4.220492  9.610246            0           0           0
      2.110246  2.110246  9.610246            0           0           0
      0.000451  2.110475 11.734663            0           0           0
      2.112769  4.219870 11.737633            0           0           0
      0.011730  4.219485 13.837712            0           0           0
      2.107819  2.107819 13.841671            0           0           0
      4.220492  6.330738  7.500000            0           0           0
      6.330738  0.000000  7.500000            0           0           0
      4.220492  0.000000  9.610246            0           0           0
      6.330738  6.330738  9.610246            0           0           0
      4.224871  6.326764 11.732671            0           0           0
      6.331961  8.439282 11.737147            0           0           0
      4.219485  0.011730 13.837712            0           0           0
      6.349843  6.349843 13.880682            0           0           0
      4.220492  2.110246  7.500000            0           0           0
      6.330738  4.220492  7.500000            0           0           0
      4.220492  4.220492  9.610246            0           0           0
      6.330738  2.110246  9.610246            0           0           0
      4.219870  2.112768 11.737633            0           0           0
      6.326764  4.224871 11.732671            0           0           0
      4.202642  4.202642 13.883044            0           0           0
      6.332641  2.099242 13.837641            0           0           0
      0.000000  6.330738  9.610246            0           0           0
      2.110246  0.000000  9.610246            0           0           0
      0.000000  0.000000  7.500000            0           0           0
      2.110246  6.330738  7.500000            0           0           0
      0.011074  6.332833 13.873753            0           0           0
      2.109280  0.001617 13.884099            0           0           0
      0.000729  0.000729 11.726732            0           0           0
      2.114533  6.330864 11.728333            0           0           0
      0.000000  2.110246  9.610246            0           0           0
      2.110246  4.220492  9.610246            0           0           0
      0.000000  4.220492  7.500000            0           0           0
      2.110246  2.110246  7.500000            0           0           0
      0.001617  2.109280 13.884099            0           0           0
      2.100160  4.219328 13.875065            0           0           0
      8.437386  4.220847 11.728274            0           0           0
      2.110152  2.110152 11.727123            0           0           0
      4.220492  6.330738  9.610246            0           0           0
      6.330738  0.000000  9.610246            0           0           0
      4.220492  0.000000  7.500000            0           0           0
      6.330738  6.330738  7.500000            0           0           0
      4.205861  6.346518 13.889811            0           0           0
      6.332833  0.011074 13.873753            0           0           0
      4.220847  8.437386 11.728274            0           0           0
      6.328631  6.328631 11.739896            0           0           0
      4.220492  2.110246  9.610246            0           0           0
      6.330738  4.220492  9.610246            0           0           0
      4.220492  4.220492  7.500000            0           0           0
      6.330738  2.110246  7.500000            0           0           0
      4.219328  2.100160 13.875065            0           0           0
      6.346518  4.205861 13.889810            0           0           0
      4.223184  4.223184 11.740474            0           0           0
      6.330864  2.114533 11.728333            0           0           0

 Finite differences POTIM=   1.0000000000000000E-002