 vasp.6.3.0 20Jan22 (build Apr  1 2022 16:44:48) complex
 executed on        HPECrayEX_GCC date 2022.11.14  08:34:44

 INCAR:
   SYSTEM = MgO-rocksalt
   ISMEAR = 0
   SIGMA = 0.05
   EDIFF = 1E-6
   ALGO = ALL
   ISTART = 0
   IBRION = -1
   NSW = 0
   ISYM = 0
   DIPOL = 0.5 0.5 0.5
   IDIPOL = 3
   LDIPOL = .TRUE.
   LHFCALC = .TRUE.
   GGA = B5
   AEXX = 0.2
   AGGAX = 0.72
   AGGAC = 0.81
   ALDAC = 0.19
   IVDW = 1
   VDW_S6 = 1.05
   VDW_C6 = 0.63 0.70
   VDW_R0 = 1.243 1.342
   ENCUT = 600
   PREC = Accurate
   LASPH = .TRUE.
   LREAL = .FALSE.
   ISPIN = 2
   MAGMOM = 0.0 0.0 0.0 0.0 0.0 0.0 0.0 0.0 0.0 0.0 0.0 0.0 0.0 0.0 0.0 0.0 0.0 0.0 0.0 0.0 0.0 0.0 0.0 0.0 0.0 0.0 0.0 0.0 0.0 0.0 0.0 0.0 0.0 0.0 0.0 0.0 0.0 0.0 0.0 0.0 0.0 0.0 0.0 0.0 0.0 0.0 0.0 0.0 0.0 0.0 0.0 0.0 0.0 0.0 0.0 0.0 0.0 0.0 0.0 0.0 0.0 0.0 0.0 0.0
   NELM = 200
   NELMIN = 8
   NCORE = 8
   KPAR = 1
   LWAVE = .FALSE.
   LCHARG = .FALSE.

 POTCAR:    PAW_PBE Mg_pv 13Apr2007
 POTCAR:    PAW_PBE O 08Apr2002
 POTCAR:    PAW_PBE Mg_pv 13Apr2007
   VRHFIN =Mg: p6s2

   TITEL  = PAW_PBE Mg_pv 13Apr2007
   POMASS =   24.305; ZVAL   =    8.000    mass and valenz
   ENMAX  =  403.929; ENMIN  =  302.947 eV

   TITEL  = PAW_PBE O 08Apr2002
   POMASS =   16.000; ZVAL   =    6.000    mass and valenz
   ENMAX  =  400.000; ENMIN  =  300.000 eV

  PAW_PBE Mg_pv 13Apr2007               :
  PAW_PBE O 08Apr2002                   :

 POSCAR: Mg  O
  positions in direct lattice
 exchange correlation table for  LEXCH =       12
   RHO(1)=    0.500       N(1)  =     2000
   RHO(2)=  100.500       N(2)  =     4000

 ion  position               nearest neighbor table
   1  0.250  0.000  0.353-  35 2.09  36 2.09  43 2.09  52 2.09  33 2.09
   2  0.500  0.250  0.353-  35 2.09  36 2.09  44 2.09  51 2.09  34 2.09
   3  0.250  0.250  0.451-  33 2.09  34 2.09  41 2.09  50 2.09  35 2.09  39 2.10
   4  0.500  0.000  0.451-  33 2.09  34 2.09  42 2.09  49 2.09  36 2.09  40 2.09
   5  0.250  0.000  0.550-  47 2.09  40 2.09  56 2.09  39 2.09  33 2.10  37 2.13
   6  0.500  0.250  0.550-  48 2.09  40 2.09  55 2.09  39 2.09  34 2.10  38 2.12
   7  0.250  0.250  0.647-  39 2.08  37 2.09  54 2.09  45 2.09  38 2.09
   8  0.500  0.000  0.647-  40 2.08  46 2.08  38 2.09  37 2.09  53 2.09
   9  0.250  0.500  0.353-  35 2.09  43 2.09  44 2.09  60 2.09  41 2.09
  10  0.500  0.750  0.353-  36 2.09  43 2.09  44 2.09  59 2.09  42 2.09
  11  0.250  0.750  0.451-  33 2.09  41 2.09  42 2.09  58 2.09  43 2.09  47 2.09
  12  0.500  0.500  0.451-  34 2.09  41 2.09  42 2.09  57 2.09  44 2.09  48 2.10
  13  0.250  0.500  0.550-  48 2.09  64 2.09  47 2.09  39 2.09  41 2.10  45 2.12
  14  0.500  0.750  0.550-  63 2.09  48 2.09  47 2.09  40 2.09  42 2.10  46 2.11
  15  0.250  0.750  0.647-  47 2.08  46 2.08  62 2.09  37 2.09  45 2.09
  16  0.500  0.500  0.648-  38 2.09  45 2.09  48 2.09  61 2.09  46 2.09
  17  0.750  0.000  0.353-  36 2.09  51 2.09  52 2.09  59 2.09  49 2.09
  18  0.000  0.250  0.353-  35 2.09  51 2.09  52 2.09  60 2.09  50 2.09
  19  0.750  0.250  0.451-  34 2.09  49 2.09  50 2.09  57 2.09  51 2.09  55 2.09
  20  0.000  0.000  0.451-  33 2.09  49 2.09  50 2.09  58 2.09  52 2.09  56 2.10
  21  0.750  1.000  0.550-  63 2.09  55 2.09  40 2.09  56 2.09  49 2.10  53 2.12
  22  0.000  0.250  0.550-  55 2.09  64 2.09  56 2.09  39 2.09  50 2.10  54 2.13
  23  0.750  0.250  0.647-  55 2.08  61 2.08  53 2.09  54 2.09  38 2.09
  24  1.000  1.000  0.647-  56 2.08  54 2.09  37 2.09  62 2.09  53 2.09
  25  0.750  0.500  0.353-  44 2.09  51 2.09  59 2.09  60 2.09  57 2.09
  26  0.000  0.750  0.353-  43 2.09  52 2.09  59 2.09  60 2.09  58 2.09
  27  0.750  0.750  0.451-  42 2.09  49 2.09  57 2.09  58 2.09  59 2.09  63 2.10
  28  0.000  0.500  0.451-  41 2.09  50 2.09  57 2.09  58 2.09  60 2.09  64 2.09
  29  0.750  0.500  0.550-  63 2.09  48 2.09  55 2.09  64 2.09  57 2.10  61 2.11
  30  1.000  0.750  0.550-  63 2.09  47 2.09  64 2.09  56 2.09  58 2.10  62 2.12
  31  0.750  0.750  0.648-  53 2.09  62 2.09  63 2.09  46 2.09  61 2.09
  32  0.000  0.500  0.647-  64 2.08  61 2.08  45 2.09  54 2.09  62 2.09
  33  0.250  0.000  0.451-   3 2.09   4 2.09  11 2.09  20 2.09   1 2.09   5 2.10
  34  0.500  0.250  0.451-   3 2.09   4 2.09  12 2.09  19 2.09   2 2.09   6 2.10
  35  0.250  0.250  0.353-   1 2.09   2 2.09   9 2.09  18 2.09   3 2.09
  36  0.500  0.000  0.353-   1 2.09   2 2.09  10 2.09  17 2.09   4 2.09
  37  0.250  0.000  0.650-  24 2.09   7 2.09  15 2.09   8 2.09   5 2.13
  38  0.500  0.250  0.650-   8 2.09  23 2.09   7 2.09  16 2.09   6 2.12
  39  0.250  0.250  0.549-   7 2.08  22 2.09   5 2.09   6 2.09  13 2.09   3 2.10
  40  0.500  0.000  0.549-   8 2.08   5 2.09   6 2.09  21 2.09  14 2.09   4 2.09
  41  0.250  0.500  0.451-   3 2.09  11 2.09  12 2.09  28 2.09   9 2.09  13 2.10
  42  0.500  0.750  0.451-   4 2.09  11 2.09  12 2.09  27 2.09  10 2.09  14 2.10
  43  0.250  0.750  0.353-   1 2.09   9 2.09  10 2.09  26 2.09  11 2.09
  44  0.500  0.500  0.353-   2 2.09   9 2.09  10 2.09  25 2.09  12 2.09
  45  0.250  0.500  0.650-  32 2.09  15 2.09   7 2.09  16 2.09  13 2.12
  46  0.499  0.751  0.649-   8 2.08  15 2.08  31 2.09  16 2.09  14 2.11
  47  0.250  0.750  0.549-  15 2.08   5 2.09  30 2.09  13 2.09  14 2.09  11 2.09
  48  0.500  0.500  0.549-   6 2.09  13 2.09  29 2.09  14 2.09  16 2.09  12 2.10
  49  0.750  0.000  0.451-   4 2.09  19 2.09  20 2.09  27 2.09  17 2.09  21 2.10
  50  0.000  0.250  0.451-   3 2.09  19 2.09  20 2.09  28 2.09  18 2.09  22 2.10
  51  0.750  0.250  0.353-   2 2.09  17 2.09  18 2.09  25 2.09  19 2.09
  52  0.000  0.000  0.353-   1 2.09  17 2.09  18 2.09  26 2.09  20 2.09
  53  0.750  1.000  0.650-  23 2.09   8 2.09  24 2.09  31 2.09  21 2.12
  54  0.000  0.250  0.650-  24 2.09   7 2.09  23 2.09  32 2.09  22 2.13
  55  0.750  0.250  0.549-  23 2.08  22 2.09  21 2.09   6 2.09  29 2.09  19 2.09
  56  1.000  1.000  0.549-  24 2.08   5 2.09  22 2.09  21 2.09  30 2.09  20 2.10
  57  0.750  0.500  0.451-  12 2.09  19 2.09  27 2.09  28 2.09  25 2.09  29 2.10
  58  0.000  0.750  0.451-  11 2.09  20 2.09  27 2.09  28 2.09  26 2.09  30 2.10
  59  0.750  0.750  0.353-  10 2.09  17 2.09  25 2.09  26 2.09  27 2.09
  60  0.000  0.500  0.353-   9 2.09  18 2.09  25 2.09  26 2.09  28 2.09
  61  0.751  0.499  0.649-  32 2.08  23 2.08  31 2.09  16 2.09  29 2.11
  62  1.000  0.750  0.650-  15 2.09  32 2.09  24 2.09  31 2.09  30 2.12
  63  0.750  0.750  0.549-  21 2.09  30 2.09  14 2.09  29 2.09  31 2.09  27 2.10
  64  0.000  0.500  0.549-  32 2.08  22 2.09  13 2.09  30 2.09  29 2.09  28 2.09

IMPORTANT INFORMATION: All symmetrisations will be switched off!
NOSYMM: (Re-)initialisation of all symmetry stuff for point group C_1.

                                     Primitive cell

  volume of cell :    1482.1129

  direct lattice vectors                    reciprocal lattice vectors
     8.349111827  0.000000000  0.000000000     0.119773219  0.000000000  0.000000000
     0.000000000  8.349111827  0.000000000     0.000000000  0.119773219  0.000000000
     0.000000000  0.000000000 21.261833870     0.000000000  0.000000000  0.047032632

  length of vectors
     8.349111827  8.349111827 21.261833870     0.119773219  0.119773219  0.047032632

  position of ions in fractional coordinates (direct lattice)
     0.250000000  0.000000000  0.352744737
     0.500000000  0.250000000  0.352744737
     0.250000000  0.250000000  0.450914912
     0.500000000  0.000000000  0.450914912
     0.249948450  0.000051335  0.549665683
     0.500063798  0.250218749  0.549698116
     0.250093767  0.250093727  0.647365192
     0.499871913  0.000237558  0.647157840
     0.250000000  0.500000000  0.352744737
     0.500000000  0.750000000  0.352744737
     0.250000000  0.750000000  0.450914912
     0.500000000  0.500000000  0.450914912
     0.250218766  0.500063760  0.549698132
     0.499961740  0.750038720  0.549689812
     0.249762703  0.750130592  0.647159122
     0.500235009  0.500234993  0.647793814
     0.750000000  0.000000000  0.352744737
     0.000000000  0.250000000  0.352744737
     0.750000000  0.250000000  0.450914912
     0.000000000  0.000000000  0.450914912
     0.749937724  0.999782428  0.549698292
     0.000051410  0.249948530  0.549665690
     0.750130651  0.249762710  0.647159110
     0.999908464  0.999908525  0.647365789
     0.750000000  0.500000000  0.352744737
     0.000000000  0.750000000  0.352744737
     0.750000000  0.750000000  0.450914912
     0.000000000  0.500000000  0.450914912
     0.750038749  0.499961771  0.549689822
     0.999782411  0.749937738  0.549698303
     0.749766598  0.749766660  0.647793883
     0.000237574  0.499871971  0.647157849
     0.250000000  0.000000000  0.450914912
     0.500000000  0.250000000  0.450914912
     0.250000000  0.250000000  0.352744737
     0.500000000  0.000000000  0.352744737
     0.249889427  0.000112354  0.649663693
     0.500124343  0.250090537  0.649628757
     0.250012766  0.250012709  0.549453619
     0.499906227  0.000246350  0.549357116
     0.250000000  0.500000000  0.450914912
     0.500000000  0.750000000  0.450914912
     0.250000000  0.750000000  0.352744737
     0.500000000  0.500000000  0.352744737
     0.250090551  0.500124217  0.649628760
     0.499226526  0.750775330  0.649054066
     0.249755087  0.750094918  0.549357888
     0.500014243  0.500014163  0.549460223
     0.750000000  0.000000000  0.450914912
     0.000000000  0.250000000  0.450914912
     0.750000000  0.250000000  0.352744737
     0.000000000  0.000000000  0.352744737
     0.749877684  0.999910959  0.649629429
     0.000112329  0.249889427  0.649663678
     0.750094950  0.249755092  0.549357895
     0.999988051  0.999988088  0.549453445
     0.750000000  0.500000000  0.450914912
     0.000000000  0.750000000  0.450914912
     0.750000000  0.750000000  0.352744737
     0.000000000  0.500000000  0.352744737
     0.750775336  0.499226584  0.649054096
     0.999910975  0.749877804  0.649629424
     0.749985820  0.749985888  0.549460607
     0.000246334  0.499906260  0.549357122

  ion indices of the primitive-cell ions
   primitive index   ion index
                 1           1
                 2           2
                 3           3
                 4           4
                 5           5
                 6           6
                 7           7
                 8           8
                 9           9
                10          10
                11          11
                12          12
                13          13
                14          14
                15          15
                16          16
                17          17
                18          18
                19          19
                20          20
                21          21
                22          22
                23          23
                24          24
                25          25
                26          26
                27          27
                28          28
                29          29
                30          30
                31          31
                32          32
                33          33
                34          34
                35          35
[...]
   0.50000000  0.75000000  0.45091491
   0.25000000  0.75000000  0.35274474
   0.50000000  0.50000000  0.35274474
   0.25009055  0.50012422  0.64962876
   0.49922653  0.75077533  0.64905407
   0.24975509  0.75009492  0.54935789
   0.50001424  0.50001416  0.54946022
   0.75000000  0.00000000  0.45091491
   0.00000000  0.25000000  0.45091491
   0.75000000  0.25000000  0.35274474
   0.00000000  0.00000000  0.35274474
   0.74987768  0.99991096  0.64962943
   0.00011233  0.24988943  0.64966368
   0.75009495  0.24975509  0.54935790
   0.99998805  0.99998809  0.54945345
   0.75000000  0.50000000  0.45091491
   0.00000000  0.75000000  0.45091491
   0.75000000  0.75000000  0.35274474
   0.00000000  0.50000000  0.35274474
   0.75077534  0.49922658  0.64905410
   0.99991097  0.74987780  0.64962942
   0.74998582  0.74998589  0.54946061
   0.00024633  0.49990626  0.54935712

 position of ions in cartesian coordinates  (Angst):
   2.08727796  0.00000000  7.50000000
   4.17455591  2.08727796  7.50000000
   2.08727796  2.08727796  9.58727796
   4.17455591  0.00000000  9.58727796
   2.08684756  0.00042860 11.68690044
   4.17508857  2.08910432 11.68759002
   2.08806083  2.08806050 13.76417117
   4.17348650  0.00198340 13.75976248
   2.08727796  4.17455591  7.50000000
   4.17455591  6.26183387  7.50000000
   2.08727796  6.26183387  9.58727796
   4.17455591  4.17455591  9.58727796
   2.08910446  4.17508825 11.68759036
   4.17423648  6.26215715 11.68741346
   2.08529674  6.26292420 13.75978973
   4.17651803  4.17651789 13.77328445
   6.26183387  0.00000000  7.50000000
   0.00000000  2.08727796  7.50000000
   6.26183387  2.08727796  9.58727796
   0.00000000  0.00000000  9.58727796
   6.26131392  8.34729529 11.68759376
   0.00042923  2.08684823 11.68690058
   6.26292469  2.08529680 13.75978949
   8.34834759  8.34834810 13.76418387
   6.26183387  4.17455591  7.50000000
   0.00000000  6.26183387  7.50000000
   6.26183387  6.26183387  9.58727796
   0.00000000  4.17455591  9.58727796
   6.26215739  4.17423673 11.68741367
   8.34729515  6.26131403 11.68759399
   6.25988517  6.25988569 13.77328592
   0.00198353  4.17348699 13.75976267
   2.08727796  0.00000000  9.58727796
   4.17455591  2.08727796  9.58727796
   2.08727796  2.08727796  7.50000000
   4.17455591  0.00000000  7.50000000
   2.08635477  0.00093805 13.81304152
   4.17559407  2.08803386 13.81229871
   2.08738454  2.08738406 11.68239156
   4.17377299  0.00205680 11.68033974
   2.08727796  4.17455591  9.58727796
   4.17455591  6.26183387  9.58727796
   2.08727796  6.26183387  7.50000000
   4.17455591  4.17455591  7.50000000
   2.08803397  4.17559301 13.81229877
   4.16809810  6.26830718 13.80007973
   2.08523315  6.26262635 11.68035616
   4.17467483  4.17467416 11.68253197
   6.26183387  0.00000000  9.58727796
   0.00000000  2.08727796  9.58727796
   6.26183387  2.08727796  7.50000000
   0.00000000  0.00000000  7.50000000
   6.26081264  8.34836841 13.81231300
   0.00093785  2.08635477 13.81304120
   6.26262662  2.08523319 11.68035631
   8.34901206  8.34901237 11.68238787
   6.26183387  4.17455591  9.58727796
   0.00000000  6.26183387  9.58727796
   6.26183387  6.26183387  7.50000000
   0.00000000  4.17455591  7.50000000
   6.26830724  4.16809858 13.80008036
   8.34836854  6.26081365 13.81231289
   6.26171548  6.26171605 11.68254015
   0.00205667  4.17377327 11.68033987

--------------------------------------- Iteration      FINAL  ---------------------------------------

--------------------OUTCAR has been truncated-------------------------

[...]

--------------------OUTCAR has been truncated-------------------------

  DFT-D2 method for vdW energy calculation

  Parameters of vdW forcefield:
         C6(Jnm^6/mol)     R0(A)
   Mg       0.630          1.243
   O        0.700          1.342

  vdW correction parametrized for the method {Èý      

  IVDW =   1
  VDW_RADIUS =    50.000 A
  VDW_S6 =     1.050
  VDW_SR =     1.000
  VDW_D =    20.000
  LVDW_EWALD = F

  Number of pair interactions contributing to vdW energy:  742680
  Edisp (eV):   -5.30735

 VOLUME and BASIS-vectors are now :
  energy-cutoff  :      600.00
  volume of cell :     1482.11
      direct lattice vectors                 reciprocal lattice vectors
     8.349111827  0.000000000  0.000000000     0.119773219  0.000000000  0.000000000
     0.000000000  8.349111827  0.000000000     0.000000000  0.119773219  0.000000000
     0.000000000  0.000000000 21.261833870     0.000000000  0.000000000  0.047032632

  length of vectors
     8.349111827  8.349111827 21.261833870     0.119773219  0.119773219  0.047032632

 FORCES acting on ions:
    Electron-Ion                     Ewald-Force                    Non-Local-Force
   0.961E-03 -.903E-03 0.212E+04   -.129E-02 0.124E-02 -.212E+04   0.244E-03 -.248E-03 -.644E+01
   0.127E-02 -.193E-01 0.212E+04   -.135E-02 0.200E-01 -.212E+04   0.462E-04 -.478E-03 -.644E+01
   -.629E-01 -.630E-01 0.703E+03   0.698E-01 0.698E-01 -.703E+03   -.421E-02 -.420E-02 0.436E+00
   -.714E-01 0.741E-01 0.703E+03   0.728E-01 -.560E-01 -.703E+03   -.924E-03 -.114E-01 0.404E+00
   0.202E+00 -.204E+00 -.709E+03   -.213E+00 0.216E+00 0.709E+03   0.737E-02 -.725E-02 -.133E+00
   0.185E+00 -.479E+00 -.710E+03   -.200E+00 0.505E+00 0.710E+03   0.834E-02 -.235E-01 -.139E+00
   -.284E+00 -.284E+00 -.211E+04   0.234E+00 0.234E+00 0.210E+04   0.360E-01 0.360E-01 0.536E+01
   -.392E+00 -.374E+00 -.211E+04   0.355E+00 0.338E+00 0.210E+04   0.269E-01 0.381E-01 0.535E+01
   -.193E-01 0.127E-02 0.212E+04   0.200E-01 -.135E-02 -.212E+04   -.484E-03 0.451E-04 -.644E+01
   -.214E-01 0.213E-01 0.212E+04   0.213E-01 -.212E-01 -.212E+04   0.822E-04 -.728E-04 -.644E+01
   -.735E-01 0.714E-01 0.703E+03   0.555E-01 -.727E-01 -.703E+03   0.114E-01 0.903E-03 0.404E+00
   -.669E-01 -.670E-01 0.702E+03   0.650E-01 0.651E-01 -.703E+03   0.220E-02 0.221E-02 0.427E+00
   -.479E+00 0.185E+00 -.710E+03   0.505E+00 -.200E+00 0.710E+03   -.235E-01 0.834E-02 -.139E+00
   -.595E+00 0.594E+00 -.708E+03   0.640E+00 -.640E+00 0.708E+03   -.350E-01 0.350E-01 -.305E+00
   0.370E+00 0.395E+00 -.211E+04   -.334E+00 -.359E+00 0.210E+04   -.379E-01 -.270E-01 0.535E+01
   -.106E+01 -.106E+01 -.211E+04   0.898E+00 0.898E+00 0.211E+04   0.126E+00 0.126E+00 0.553E+01
   -.132E-02 0.194E-01 0.212E+04   0.140E-02 -.201E-01 -.212E+04   -.486E-04 0.481E-03 -.644E+01
   -.908E-03 0.951E-03 0.212E+04   0.124E-02 -.128E-02 -.212E+04   -.246E-03 0.245E-03 -.644E+01
   0.713E-01 -.736E-01 0.703E+03   -.727E-01 0.556E-01 -.703E+03   0.910E-03 0.114E-01 0.404E+00
   0.634E-01 0.634E-01 0.703E+03   -.703E-01 -.703E-01 -.703E+03   0.417E-02 0.418E-02 0.436E+00
   -.185E+00 0.481E+00 -.710E+03   0.199E+00 -.507E+00 0.710E+03   -.836E-02 0.234E-01 -.139E+00
   -.204E+00 0.202E+00 -.709E+03   0.216E+00 -.214E+00 0.709E+03   -.724E-02 0.737E-02 -.133E+00
   0.395E+00 0.370E+00 -.211E+04   -.358E+00 -.334E+00 0.210E+04   -.270E-01 -.379E-01 0.535E+01
   0.284E+00 0.284E+00 -.211E+04   -.234E+00 -.234E+00 0.210E+04   -.360E-01 -.361E-01 0.536E+01
   0.213E-01 -.214E-01 0.212E+04   -.212E-01 0.213E-01 -.212E+04   -.700E-04 0.717E-04 -.644E+01
   0.194E-01 -.132E-02 0.212E+04   -.201E-01 0.140E-02 -.212E+04   0.478E-03 -.492E-04 -.644E+01
   0.664E-01 0.665E-01 0.702E+03   -.645E-01 -.646E-01 -.703E+03   -.221E-02 -.221E-02 0.427E+00
   0.741E-01 -.715E-01 0.703E+03   -.560E-01 0.728E-01 -.703E+03   -.114E-01 -.928E-03 0.404E+00
   0.594E+00 -.595E+00 -.708E+03   -.640E+00 0.640E+00 0.708E+03   0.350E-01 -.350E-01 -.305E+00
   0.481E+00 -.185E+00 -.710E+03   -.507E+00 0.199E+00 0.710E+03   0.234E-01 -.836E-02 -.139E+00
   0.106E+01 0.106E+01 -.211E+04   -.898E+00 -.898E+00 0.211E+04   -.126E+00 -.126E+00 0.553E+01
   -.374E+00 -.392E+00 -.211E+04   0.338E+00 0.355E+00 0.210E+04   0.382E-01 0.270E-01 0.535E+01
   0.387E-01 -.387E-01 0.527E+03   -.320E-01 0.321E-01 -.527E+03   -.839E-02 0.834E-02 -.865E-01
   0.491E-01 -.771E-01 0.527E+03   -.489E-01 0.622E-01 -.526E+03   -.698E-03 0.179E-01 -.980E-01
   -.828E-02 -.829E-02 0.160E+04   0.875E-02 0.876E-02 -.160E+04   -.588E-03 -.587E-03 0.310E+01
   -.812E-02 0.682E-02 0.160E+04   0.875E-02 -.631E-02 -.160E+04   -.796E-03 -.637E-03 0.310E+01
   0.611E-01 -.647E-01 -.160E+04   -.667E-01 0.706E-01 0.161E+04   0.708E-02 -.740E-02 -.472E+01
   -.414E-01 -.553E+00 -.160E+04   0.457E-01 0.559E+00 0.161E+04   -.477E-02 0.409E-02 -.465E+01
   -.168E+00 -.168E+00 -.526E+03   0.173E+00 0.173E+00 0.526E+03   -.295E-02 -.292E-02 0.270E+00
   -.170E+00 0.672E-02 -.525E+03   0.169E+00 -.109E-01 0.525E+03   0.347E-02 -.211E-02 0.313E+00
   -.771E-01 0.491E-01 0.527E+03   0.622E-01 -.489E-01 -.526E+03   0.179E-01 -.697E-03 -.980E-01
   -.105E+00 0.105E+00 0.526E+03   0.108E+00 -.108E+00 -.526E+03   -.388E-02 0.389E-02 -.852E-01
   -.677E-02 0.807E-02 0.160E+04   0.626E-02 -.871E-02 -.160E+04   0.632E-03 0.799E-03 0.310E+01
   -.826E-02 -.826E-02 0.160E+04   0.716E-02 0.716E-02 -.160E+04   0.140E-02 0.140E-02 0.310E+01
   -.553E+00 -.415E-01 -.160E+04   0.559E+00 0.458E-01 0.161E+04   0.408E-02 -.474E-02 -.465E+01
   -.138E+01 0.138E+01 -.160E+04   0.130E+01 -.130E+01 0.160E+04   0.146E+00 -.146E+00 -.440E+01
   -.604E-02 0.171E+00 -.525E+03   0.103E-01 -.170E+00 0.525E+03   0.192E-02 -.331E-02 0.313E+00
   -.184E+00 -.184E+00 -.528E+03   0.215E+00 0.215E+00 0.528E+03   -.274E-01 -.274E-01 0.166E+00
   -.492E-01 0.776E-01 0.527E+03   0.489E-01 -.627E-01 -.526E+03   0.844E-03 -.178E-01 -.980E-01
   -.387E-01 0.387E-01 0.527E+03   0.321E-01 -.320E-01 -.527E+03   0.835E-02 -.838E-02 -.865E-01
   0.807E-02 -.678E-02 0.160E+04   -.870E-02 0.626E-02 -.160E+04   0.801E-03 0.633E-03 0.310E+01
   0.833E-02 0.834E-02 0.160E+04   -.881E-02 -.881E-02 -.160E+04   0.588E-03 0.589E-03 0.310E+01
   0.421E-01 0.554E+00 -.160E+04   -.464E-01 -.560E+00 0.161E+04   0.471E-02 -.401E-02 -.465E+01
   -.648E-01 0.610E-01 -.160E+04   0.707E-01 -.666E-01 0.161E+04   -.739E-02 0.707E-02 -.472E+01
   0.171E+00 -.610E-02 -.525E+03   -.170E+00 0.104E-01 0.525E+03   -.331E-02 0.193E-02 0.313E+00
   0.169E+00 0.169E+00 -.526E+03   -.174E+00 -.174E+00 0.526E+03   0.288E-02 0.284E-02 0.270E+00
   0.105E+00 -.105E+00 0.526E+03   -.108E+00 0.108E+00 -.526E+03   0.389E-02 -.387E-02 -.852E-01
   0.776E-01 -.492E-01 0.527E+03   -.627E-01 0.488E-01 -.526E+03   -.178E-01 0.842E-03 -.980E-01
   0.820E-02 0.821E-02 0.160E+04   -.710E-02 -.711E-02 -.160E+04   -.140E-02 -.139E-02 0.310E+01
   0.682E-02 -.813E-02 0.160E+04   -.631E-02 0.876E-02 -.160E+04   -.633E-03 -.796E-03 0.310E+01
   0.138E+01 -.138E+01 -.160E+04   -.130E+01 0.130E+01 0.160E+04   -.146E+00 0.146E+00 -.440E+01
   0.554E+00 0.422E-01 -.160E+04   -.561E+00 -.465E-01 0.161E+04   -.399E-02 0.468E-02 -.465E+01
   0.182E+00 0.183E+00 -.528E+03   -.213E+00 -.213E+00 0.528E+03   0.275E-01 0.275E-01 0.166E+00
   0.663E-02 -.170E+00 -.525E+03   -.109E-01 0.169E+00 0.525E+03   -.207E-02 0.350E-02 0.313E+00
   -.289E-03 -.265E-03 0.194E+02   0.195E-13 -.101E-12 -.682E-12   0.285E-03 0.257E-03 -.170E+02

 POSITION                                       TOTAL-FORCE (eV/Angst)
      2.08728      0.00000      7.50000        -0.000058      0.000058      0.308897
      4.17456      2.08728      7.50000        -0.000024      0.000120      0.309703
      2.08728      2.08728      9.58728         0.002108      0.002108      0.047303
      4.17456      0.00000      9.58728         0.000319      0.005151      0.045520
      2.08685      0.00043     11.68690        -0.003364      0.003476      0.028313
      4.17509      2.08910     11.68759        -0.004948      0.000109      0.021062
      2.08806      2.08806     13.76417        -0.010096     -0.010100      0.124229
      4.17349      0.00198     13.75976        -0.006968      0.005264      0.140143
      2.08728      4.17456      7.50000         0.000116     -0.000028      0.309703
      4.17456      6.26183      7.50000        -0.000033      0.000040      0.308576
      2.08728      6.26183      9.58728        -0.005136     -0.000309      0.045538
      4.17456      4.17456      9.58728         0.000445      0.000446      0.048103
      2.08910      4.17509     11.68759         0.000114     -0.004950      0.021031
      4.17424      6.26216     11.68741         0.006425     -0.006411      0.011454
      2.08530      6.26292     13.75979        -0.005231      0.006915      0.140012
      4.17652      4.17652     13.77328        -0.023107     -0.023120      0.011458
      6.26183      0.00000      7.50000         0.000022     -0.000113      0.309706
      0.00000      2.08728      7.50000         0.000055     -0.000062      0.308892
      6.26183      2.08728      9.58728        -0.000303     -0.005144      0.045448
      0.00000      0.00000      9.58728        -0.002103     -0.002094      0.047319
      6.26131      8.34730     11.68759         0.004872     -0.000095      0.021030
      0.00043      2.08685     11.68690         0.003471     -0.003372      0.028326
      6.26292      2.08530     13.75979         0.006920     -0.005231      0.139874
      8.34835      8.34835     13.76418         0.010077      0.010098      0.124149
      6.26183      4.17456      7.50000         0.000039     -0.000042      0.308578
      0.00000      6.26183      7.50000        -0.000120      0.000024      0.309695
      6.26183      6.26183      9.58728        -0.000447     -0.000436      0.048035
      0.00000      4.17456      9.58728         0.005156      0.000313      0.045547
      6.26216      4.17424     11.68741        -0.006418      0.006420      0.011473
      8.34730      6.26131     11.68759        -0.000096      0.004875      0.021002
      6.25989      6.25989     13.77329         0.023078      0.023082      0.011538
      0.00198      4.17349     13.75976         0.005249     -0.006977      0.140168
      2.08728      0.00000      9.58728        -0.002951      0.002938      0.062289
      4.17456      2.08728      9.58728        -0.000665      0.005470      0.061865
      2.08728      2.08728      7.50000        -0.000201     -0.000196     -0.591750
      4.17456      0.00000      7.50000        -0.000271     -0.000215     -0.591716
      2.08635      0.00094     13.81304         0.002329     -0.002363     -0.003330
      4.17559      2.08803     13.81230        -0.001172      0.011777      0.019775
      2.08738      2.08738     11.68239         0.002136      0.002141      0.003007
      4.17377      0.00206     11.68034         0.003491     -0.006799      0.009574
      2.08728      4.17456      9.58728         0.005471     -0.000660      0.061871
      4.17456      6.26183      9.58728        -0.001152      0.001153      0.066231
      2.08728      6.26183      7.50000         0.000207      0.000274     -0.591709
      4.17456      4.17456      7.50000         0.000493      0.000492     -0.591811
      2.08803      4.17559     13.81230         0.011767     -0.001135      0.019820
      4.16810      6.26831     13.80008         0.089016     -0.089077      0.121699
      2.08523      6.26263     11.68036         0.006711     -0.003475      0.009435
      4.17467      4.17467     11.68253        -0.000583     -0.000561      0.013911
      6.26183      0.00000      9.58728         0.000704     -0.005450      0.061887
      0.00000      2.08728      9.58728         0.002945     -0.002954      0.062283
      6.26183      2.08728      7.50000         0.000281      0.000207     -0.591716
      0.00000      0.00000      7.50000         0.000189      0.000199     -0.591762
      6.26081      8.34837     13.81231         0.001177     -0.011801      0.019680
      0.00094      2.08635     13.81304        -0.002349      0.002339     -0.003325
      6.26263      2.08523     11.68036        -0.003475      0.006712      0.009462
      8.34901      8.34901     11.68239        -0.002173     -0.002193      0.003057
      6.26183      4.17456      9.58728         0.001148     -0.001146      0.066221
      0.00000      6.26183      9.58728        -0.005442      0.000708      0.061898
      6.26183      6.26183      7.50000        -0.000490     -0.000485     -0.591809
      0.00000      4.17456      7.50000        -0.000213     -0.000276     -0.591718
      6.26831      4.16810     13.80008        -0.089054      0.089036      0.121679
      8.34837      6.26081     13.81231        -0.011786      0.001146      0.019716
      6.26172      6.26172     11.68254         0.000671      0.000670      0.013890
      0.00206      4.17377     11.68034        -0.006776      0.003508      0.009566
    total drift:                                0.000039      0.000033      0.014966

  FREE ENERGIE OF THE ION-ELECTRON SYSTEM (eV)
  free  energy   TOTEN  =      -438.96692090 eV

  energy  without entropy=     -438.96692090  energy(sigma->0) =     -438.96692090