 vasp.6.3.0 20Jan22 (build Aug 21 2024 11:13:42) complex
 executed on        HPECrayEX_GCC date 2024.11.26  11:42:06

 INCAR:
   SYSTEM = TiO2
   ISMEAR = 0
   SIGMA = 0.05
   EDIFF = 1E-4
   ALGO = ALL
   ISTART = 0
   IBRION = -1
   NSW = 0
   ISYM = 0
   ISIF = 2
   EDIFFG = -0.01
   DIPOL = 0.5 0.5 0.5
   IDIPOL = 3
   LDIPOL = .TRUE.
   GGA = RE
   AGGAC = 0.0
   LUSE_VDW = .TRUE.
   LASPH = .TRUE.
   ENCUT = 600
   PREC = Accurate
   LASPH = .TRUE.
   LREAL = .FALSE.
   ISPIN = 1
   NELM = 200
   NELMIN = 8
   NCORE = 2
   KPAR = 1
   LWAVE = .FALSE.
   LCHARG = .FALSE.

 POTCAR:    PAW_PBE C 08Apr2002
 POTCAR:    PAW_PBE O 08Apr2002
 POTCAR:    PAW_PBE Ti_pv 07Sep2000
 POTCAR:    PAW_PBE O 08Apr2002
|               ----> ADVICE to this user running VASP <----                  |
|     You have switched on vdW-DFT.                                           |
|     This routine was written and supplied by Jiri Klimes. We recommend      |
|     that you carefully read and cite the following publications:            |
|       J. Klimes, D.R. Bowler, A. Michelides                                 |
|          J. Phys.: Cond Matt. 22 022201 (2010)                              |
|       J. Klimes, D.R. Bowler, A. Michelides                                 |
|          Phys. Rev. B. 83, 195131 (2011)                                    |
|     and references therein.                                                 |

   TITEL  = PAW_PBE C 08Apr2002
   POMASS =   12.011; ZVAL   =    4.000    mass and valenz
   ENMAX  =  400.000; ENMIN  =  300.000 eV

[...]

   TITEL  = PAW_PBE Ti_pv 07Sep2000
   POMASS =   47.880; ZVAL   =   10.000    mass and valenz
   ENMAX  =  222.335; ENMIN  =  166.751 eV

   TITEL  = PAW_PBE O 08Apr2002
   POMASS =   16.000; ZVAL   =    6.000    mass and valenz
   ENMAX  =  400.000; ENMIN  =  300.000 eV

  PAW_PBE C 08Apr2002                   :
  PAW_PBE O 08Apr2002                   :
  PAW_PBE Ti_pv 07Sep2000               :
  PAW_PBE O 08Apr2002                   :

 POSCAR:  C  O Ti  O
  positions in direct lattice
 exchange correlation table for  LEXCH =       40
   RHO(1)=    0.500       N(1)  =     2000
   RHO(2)=  100.500       N(2)  =     4000

 ion  position               nearest neighbor table
   1  0.500  0.595  0.808-   2 1.17   3 1.18
   2  0.500  0.688  0.820-   1 1.17
   3  0.500  0.502  0.794-   1 1.18
   4  0.750  0.625  0.287-  84 1.96  85 1.96 144 1.96 145 1.96  87 1.98 166 1.98  14 2.97  34 2.97

   5  0.000  0.750  0.287-  86 1.96  87 1.96 106 1.96 107 1.96  88 1.98  35 2.97  15 2.97
   6  0.000  0.625  0.393-  88 1.96  89 1.96 148 1.96 149 1.96  90 1.98  91 1.98  16 2.97  36 2.97

[...]

  83  0.500  0.499  0.710- 237 1.83 243 1.95 242 1.95 183 1.96 182 1.96  73 2.96  53 2.99
  84  0.750  0.750  0.245-   4 1.96  14 1.96
  85  0.750  0.750  0.329-   4 1.96  14 1.96   7 1.98
  86  0.098  0.625  0.287-   5 1.96  35 1.96  44 1.98
  87  0.902  0.625  0.287-   5 1.96  35 1.96   4 1.98
  88  0.000  0.750  0.352-   6 1.96  16 1.96   5 1.98
  89  0.000  0.750  0.435-   6 1.96  16 1.96   9 1.98
  90  0.848  0.625  0.393-   7 1.96  37 1.96   6 1.98
  91  0.152  0.625  0.393-  47 1.96  77 1.96   6 1.98
  92  0.750  0.750  0.458-   8 1.96  18 1.96   7 1.98
  93  0.750  0.750  0.542-   8 1.96  18 1.96  11 2.11
  94  0.098  0.625  0.500-   9 1.96  39 1.96  48 1.98
  95  0.902  0.625  0.500-   9 1.96  39 1.96   8 1.98
  96  1.000  0.750  0.566-  10 1.90  20 1.90   9 2.01
  97  1.000  0.750  0.649-  13 1.81  20 2.02  10 2.02
  98  0.850  0.625  0.607-  10 1.96  11 1.98  41 1.98
  99  0.150  0.625  0.607-  10 1.96  81 1.98  51 1.98
 100  0.750  0.750  0.672-  11 1.87  12 2.10  22 2.11
 101  0.750  0.750  0.756-  12 1.83  22 1.84
 102  0.094  0.625  0.719-  43 1.95  13 1.95  52 2.04
 103  0.906  0.625  0.719-  43 1.95  13 1.95  12 2.04
 104  0.750  0.000  0.245-  14 1.96  24 1.96
 105  0.750  0.000  0.329-  14 1.96  24 1.96  17 1.98
 106  0.098  0.875  0.287-   5 1.96  15 1.96  54 1.98
 107  0.902  0.875  0.287-   5 1.96  15 1.96  14 1.98
 108  0.000  0.000  0.352-  16 1.96  26 1.96  15 1.98
 109  0.000  0.000  0.435-  16 1.96  26 1.96  19 1.98
 110  0.848  0.875  0.393-   7 1.96  17 1.96  16 1.98
 111  0.152  0.875  0.393-  47 1.96  57 1.96  16 1.98
 112  0.750  0.000  0.458-  18 1.96  28 1.96  17 1.98
 113  0.750  0.000  0.542-  18 1.96  28 1.96  21 2.11
 114  0.098  0.875  0.500-   9 1.96  19 1.96  58 1.98
 115  0.902  0.875  0.500-   9 1.96  19 1.96  18 1.98
 116  1.000  0.000  0.566-  20 1.90  30 1.90  19 2.01
 117  1.000  0.000  0.649-  23 1.81  30 2.02  20 2.02
 118  0.850  0.875  0.607-  20 1.96  11 1.98  21 1.98
 119  0.150  0.875  0.607-  20 1.96  51 1.98  61 1.98
 120  0.750  0.000  0.672-  21 1.87  22 2.10  32 2.11
 121  0.750  0.000  0.756-  22 1.83  32 1.84
 122  0.094  0.875  0.719-  13 1.95  23 1.95  62 2.04
 123  0.906  0.875  0.719-  13 1.95  23 1.95  22 2.04
 124  0.750  0.250  0.245-  24 1.96  34 1.96
 125  0.750  0.250  0.329-  24 1.96  34 1.96  27 1.98
 126  0.098  0.125  0.287-  15 1.96  25 1.96  64 1.98
 127  0.902  0.125  0.287-  15 1.96  25 1.96  24 1.98
 128  0.000  0.250  0.352-  26 1.96  36 1.96  25 1.98
 129  0.000  0.250  0.435-  26 1.96  36 1.96  29 1.98
 130  0.848  0.125  0.393-  17 1.96  27 1.96  26 1.98
 131  0.152  0.125  0.393-  57 1.96  67 1.96  26 1.98
 132  0.750  0.250  0.458-  28 1.96  38 1.96  27 1.98
 133  0.750  0.250  0.542-  28 1.96  38 1.96  31 2.11
 134  0.098  0.125  0.500-  19 1.96  29 1.96  68 1.98
 135  0.902  0.125  0.500-  19 1.96  29 1.96  28 1.98
 136  1.000  0.250  0.566-  40 1.90  30 1.90  29 2.01
 137  1.000  0.250  0.649-  33 1.81  40 2.02  30 2.02
 138  0.850  0.125  0.607-  30 1.96  21 1.98  31 1.98
 139  0.150  0.125  0.607-  30 1.96  61 1.98  71 1.98
 140  0.751  0.250  0.672-  31 1.87  32 2.10  42 2.11
 141  0.750  0.251  0.756-  32 1.83  42 1.84
 142  0.094  0.125  0.719-  33 1.95  23 1.95  72 2.04
[...]
 229  0.500  0.500  0.435-  46 1.96  76 1.96  79 1.98
 230  0.348  0.375  0.393-  67 1.96  77 1.96  76 1.98
 231  0.652  0.375  0.393-  27 1.96  37 1.96  76 1.98
 232  0.250  0.500  0.458-  48 1.96  78 1.96  77 1.98
 233  0.250  0.500  0.542-  48 1.96  78 1.96  81 2.11
 234  0.598  0.375  0.500-  69 1.96  79 1.96  38 1.98
 235  0.402  0.375  0.500-  69 1.96  79 1.96  78 1.98
 236  0.500  0.500  0.566-  80 1.90  50 1.90  79 2.01
 237  0.500  0.500  0.650-  83 1.83  50 2.02  80 2.02
 238  0.350  0.375  0.607-  80 1.96  81 1.98  71 1.98
 239  0.650  0.375  0.607-  80 1.96  41 1.98  31 1.98
 240  0.249  0.500  0.672-  81 1.87  82 2.10  52 2.10
 241  0.251  0.501  0.756-  82 1.84  52 1.84
 242  0.594  0.374  0.718-  73 1.95  83 1.95  42 2.04
 243  0.406  0.374  0.718-  73 1.95  83 1.95  82 2.04

IMPORTANT INFORMATION: All symmetrisations will be switched off!
NOSYMM: (Re-)initialisation of all symmetry stuff for point group C_1.

                                     Primitive cell

  volume of cell :    4740.1649

  direct lattice vectors                    reciprocal lattice vectors
    13.042933829  0.000000000  0.000000000     0.076669867  0.000000000  0.000000000
     0.000000000 11.878216733  0.000000000     0.000000000  0.084187721  0.000000000
     0.000000000  0.000000000 30.596159140     0.000000000  0.000000000  0.032683841

  length of vectors
    13.042933829 11.878216733 30.596159140     0.076669867  0.084187721  0.032683841

  position of ions in fractional coordinates (direct lattice)
     0.499999780  0.595100811  0.807718152
     0.500000091  0.688052312  0.820421259
     0.499999374  0.501733848  0.794369770
     0.750000000  0.625000000  0.286853412
     0.000000000  0.750000000  0.286853412
     0.000000000  0.625000000  0.393426706
     0.750000000  0.750000000  0.393426706
     0.750000000  0.625000000  0.500000000
     0.000000000  0.750000000  0.500000000
     0.000043924  0.625178631  0.604449050
     0.750075519  0.750224533  0.610697483
     0.750209880  0.625748007  0.720239460
     0.999996712  0.750451044  0.708594158
     0.750000000  0.875000000  0.286853412
     0.000000000  0.000000000  0.286853412
     0.000000000  0.875000000  0.393426706
     0.750000000  0.000000000  0.393426706
     0.750000000  0.875000000  0.500000000
     0.000000000  0.000000000  0.500000000
     0.000047150  0.875170496  0.604476035
     0.749996417  0.000206366  0.610780742
     0.749852630  0.875624897  0.720539469
     0.999996694  0.000319484  0.708622103
     0.750000000  0.125000000  0.286853412
     0.000000000  0.250000000  0.286853412
     0.000000000  0.125000000  0.393426706
     0.750000000  0.250000000  0.393426706
     0.750000000  0.125000000  0.500000000
     0.000000000  0.250000000  0.500000000
     0.000041024  0.125126742  0.604477991
     0.750091615  0.250170038  0.610771117
     0.749929091  0.125567196  0.720501838
     0.999996880  0.250246741  0.708607641
     0.750000000  0.375000000  0.286853412
     0.000000000  0.500000000  0.286853412
     0.000000000  0.375000000  0.393426706
     0.750000000  0.500000000  0.393426706
     0.750000000  0.375000000  0.500000000
     0.000000000  0.500000000  0.500000000
     0.000038565  0.375141681  0.604451020
     0.750069191  0.500193752  0.610727252
     0.750227616  0.375588714  0.720439397
     0.999996845  0.500389543  0.708577440
     0.250000000  0.625000000  0.286853412
     0.500000000  0.750000000  0.286853412
     0.500000000  0.625000000  0.393426706
     0.250000000  0.750000000  0.393426706
     0.250000000  0.625000000  0.500000000
     0.500000000  0.750000000  0.500000000
     0.500044663  0.624598327  0.604803382
     0.249999430  0.750224147  0.610697510
     0.249783596  0.625747933  0.720239461
     0.499996553  0.750721495  0.708204858
     0.250000000  0.875000000  0.286853412
     0.500000000  0.000000000  0.286853412
     0.500000000  0.875000000  0.393426706
     0.250000000  0.000000000  0.393426706
     0.250000000  0.875000000  0.500000000
     0.500000000  0.000000000  0.500000000
     0.500047216  0.874928350  0.604182258
[...]
     0.500000000  0.500000000  0.435151311
     0.347877722  0.375000000  0.393426706
     0.652122278  0.375000000  0.393426706
     0.250000000  0.500000000  0.458275395
     0.250000000  0.500000000  0.541724605
     0.597877722  0.375000000  0.500000000
     0.402122278  0.375000000  0.500000000
     0.499993660  0.500023993  0.565728520
     0.499994897  0.500333782  0.649802493
     0.349950660  0.375167928  0.607403922
     0.650030524  0.375167864  0.607401977
     0.249326721  0.500308797  0.671712436
     0.250979237  0.500632383  0.755685350
     0.594259176  0.374289682  0.718255671
     0.405735000  0.374289929  0.718255839

  ion indices of the primitive-cell ions
   primitive index   ion index
                 1           1
                 2           2
                 3           3
                 4           4
                 5           5
                 6           6
                 7           7
                 8           8
                 9           9
                10          10
                11          11
                12          12
                13          13
                14          14
                15          15
[...]
   6.52142195  8.91723262 21.66834852
   3.26073346 10.39343964  8.77661266
   6.52146691  0.00000000  8.77661266
   6.52146691 10.39343964 12.03734611
   3.26073346  0.00000000 12.03734611
   3.26073346 10.39343964 15.29807957
   6.52146691  0.00000000 15.29807957
   6.52208275 10.39258856 18.48565650
[...]
   6.52146691  5.93910837 13.31395877
   4.53734611  4.45433128 12.03734611
   8.50558772  4.45433128 12.03734611
   3.26073346  5.93910837 14.02146691
   3.26073346  5.93910837 16.57469223
   7.79807957  4.45433128 15.29807957
   5.24485426  4.45433128 15.29807957
   6.52138423  5.93939337 17.30911983
   6.52140036  5.94307311 19.88146050
   4.56438330  4.45632597 18.58422705
   8.47830511  4.45632521 18.58416755
   3.25195193  5.94277632 20.55182060
   3.27350558  5.94661995 23.12106922
   7.75088311  4.44589397 21.97586480
   5.29197476  4.44589690 21.97586995

--------------------------------------- Iteration      FINAL  ---------------------------------------

--------------------OUTCAR has been truncated-------------------------

[...]

--------------------OUTCAR has been truncated-------------------------

  FORCE on cell =-STRESS in cart. coord.  units (eV):
  Direction    XX          YY          ZZ          XY          YZ          ZX
  Alpha Z  4682.06099  4682.06099  4682.06099
  Ewald  961636.30605979834.14557************     0.00363   248.72342    -0.04211
  Hartree************************************     0.00165   115.93828    -0.03021
  E(xc)   -8892.24481 -8863.03205 -8891.80122     0.00002     1.13904     0.00001
  Local  ************************************    -0.00518  -341.92517     0.07155
  n-local -5460.54828 -5388.05681 -5504.14552    -0.00009    -1.91525    -0.00147
  augment  5316.14747  5291.07505  5319.97901     0.00003    -0.88002     0.00039
  Kinetic 29050.96300 28510.13111 29073.82755    -0.00002   -21.16605     0.00370
  Fock        0.00000     0.00000     0.00000     0.00000     0.00000     0.00000
  Total     139.38979   105.34192    86.11484     0.00005    -0.08575     0.00185
  in kB      47.11380    35.60560    29.10685     0.00002    -0.02898     0.00063

 VOLUME and BASIS-vectors are now :
  energy-cutoff  :      600.00
  volume of cell :     4740.16
      direct lattice vectors                 reciprocal lattice vectors
    13.042933829  0.000000000  0.000000000     0.076669867  0.000000000  0.000000000
     0.000000000 11.878216733  0.000000000     0.000000000  0.084187721  0.000000000
     0.000000000  0.000000000 30.596159140     0.000000000  0.000000000  0.032683841

  length of vectors
    13.042933829 11.878216733 30.596159140     0.076669867  0.084187721  0.032683841

 FORCES acting on ions:
    Electron-Ion                     Ewald-Force                    Non-Local-Force
   0.656E-03 0.577E+01 -.155E+04   -.651E-03 -.573E+01 0.155E+04   -.124E-04 -.724E-01 0.975E-01
   0.221E-03 -.260E+03 -.228E+04   0.185E-04 0.322E+03 0.230E+04   -.247E-03 -.611E+02 -.223E+02
   0.240E-02 0.257E+03 -.237E+04   -.260E-02 -.316E+03 0.235E+04   0.186E-03 0.592E+02 0.177E+02
   -.247E+00 -.503E-02 0.376E+04   0.246E+00 0.516E-02 -.376E+04   0.144E-03 -.586E-06 0.408E+00
   -.739E-04 -.705E-01 0.394E+04   0.742E-05 0.707E-01 -.393E+04   0.504E-05 -.141E-04 -.368E+01
   0.888E-04 -.187E-01 0.193E+04   -.124E-03 0.188E-01 -.193E+04   0.628E-05 0.874E-04 -.445E-01
   -.432E+00 -.121E+00 0.192E+04   0.430E+00 0.122E+00 -.192E+04   0.358E-03 -.373E-04 0.193E+00
   -.184E+01 -.442E-01 0.167E+02   0.184E+01 0.417E-01 -.159E+02   0.167E-02 0.257E-03 -.129E+00
   0.379E-02 -.643E+00 0.249E+02   -.422E-02 0.649E+00 -.259E+02   0.202E-03 -.313E-02 0.347E+00
   0.179E+00 -.882E+00 -.183E+04   -.179E+00 0.881E+00 0.183E+04   -.520E-03 0.105E-02 0.101E+00
   -.111E+02 -.566E+01 -.188E+04   0.111E+02 0.566E+01 0.188E+04   -.335E-02 -.130E-02 -.121E+00
   -.773E+02 -.810E+01 -.367E+04   0.773E+02 0.809E+01 0.367E+04   0.341E-02 0.482E-02 -.294E+00
   -.162E-02 -.819E+01 -.373E+04   0.145E-02 0.820E+01 0.373E+04   0.120E-03 0.336E-04 0.876E+00
   -.243E+00 -.989E-01 0.376E+04   0.243E+00 0.993E-01 -.376E+04   0.190E-03 -.130E-04 0.408E+00
   -.398E-04 -.605E-01 0.394E+04   0.767E-05 0.605E-01 -.393E+04   0.513E-05 0.382E-05 -.368E+01
   0.962E-04 -.174E+00 0.193E+04   -.129E-03 0.174E+00 -.193E+04   0.558E-05 0.105E-03 -.446E-01
   -.438E+00 -.125E+00 0.192E+04   0.436E+00 0.125E+00 -.192E+04   0.446E-03 0.143E-04 0.193E+00
   -.204E+01 -.993E+00 0.155E+02   0.204E+01 0.100E+01 -.147E+02   0.106E-02 -.759E-03 -.130E+00
   0.357E-02 -.419E+00 0.237E+02   -.401E-02 0.422E+00 -.247E+02   0.198E-03 -.205E-02 0.347E+00
   0.188E+00 -.357E+01 -.184E+04   -.188E+00 0.357E+01 0.184E+04   -.563E-03 0.125E-02 0.100E+00
   -.765E+01 -.284E+01 -.190E+04   0.766E+01 0.283E+01 0.190E+04   -.235E-03 0.815E-03 -.118E+00
   -.383E+02 -.273E+02 -.370E+04   0.383E+02 0.273E+02 0.370E+04   0.212E-01 0.589E-02 -.332E+00
   -.114E-02 -.521E+01 -.374E+04   0.956E-03 0.521E+01 0.374E+04   0.115E-03 0.159E-02 0.886E+00
   -.235E+00 0.498E-02 0.376E+04   0.235E+00 -.517E-02 -.376E+04   0.168E-03 -.196E-05 0.408E+00
   -.115E-04 0.706E-01 0.394E+04   0.769E-05 -.707E-01 -.393E+04   0.842E-05 -.245E-05 -.368E+01
   0.106E-03 0.189E-01 0.193E+04   -.117E-03 -.191E-01 -.193E+04   0.107E-04 0.606E-04 -.447E-01
   -.403E+00 0.121E+00 0.192E+04   0.402E+00 -.121E+00 -.192E+04   0.347E-03 -.173E-05 0.193E+00
   -.184E+01 0.471E-01 0.146E+02   0.184E+01 -.486E-01 -.138E+02   0.117E-02 0.575E-04 -.131E+00
   0.286E-02 0.791E+00 0.239E+02   -.330E-02 -.792E+00 -.250E+02   0.197E-03 -.107E-02 0.347E+00
   0.169E+00 0.630E+00 -.184E+04   -.169E+00 -.633E+00 0.184E+04   -.493E-03 0.346E-02 0.101E+00
   -.848E+01 0.551E+01 -.189E+04   0.848E+01 -.551E+01 0.189E+04   -.418E-02 0.406E-02 -.120E+00
   -.229E+02 0.729E+01 -.371E+04   0.229E+02 -.729E+01 0.372E+04   0.139E-01 0.146E-02 -.327E+00
   -.485E-03 0.686E+01 -.374E+04   0.331E-03 -.687E+01 0.374E+04   0.113E-03 0.607E-02 0.877E+00
   -.239E+00 0.989E-01 0.376E+04   0.239E+00 -.993E-01 -.376E+04   0.136E-03 0.136E-04 0.408E+00
   0.474E-04 0.605E-01 0.394E+04   0.741E-05 -.605E-01 -.393E+04   -.355E-05 0.166E-04 -.368E+01
   0.997E-04 0.174E+00 0.193E+04   -.112E-03 -.174E+00 -.193E+04   0.967E-05 0.529E-04 -.446E-01
   -.398E+00 0.125E+00 0.192E+04   0.397E+00 -.126E+00 -.192E+04   0.194E-03 -.371E-04 0.193E+00
   -.164E+01 0.973E+00 0.157E+02   0.163E+01 -.982E+00 -.149E+02   0.148E-02 0.760E-03 -.130E+00
   0.309E-02 0.564E+00 0.251E+02   -.352E-02 -.564E+00 -.262E+02   0.198E-03 -.172E-02 0.347E+00
   0.163E+00 0.331E+01 -.184E+04   -.163E+00 -.331E+01 0.184E+04   -.469E-03 0.190E-02 0.102E+00
   -.123E+02 0.356E+01 -.188E+04   0.123E+02 -.356E+01 0.188E+04   -.252E-02 0.554E-03 -.126E+00
   -.554E+02 0.324E+02 -.369E+04   0.553E+02 -.324E+02 0.369E+04   0.113E-01 0.872E-02 -.318E+00
   -.111E-02 0.533E+01 -.373E+04   0.956E-03 -.534E+01 0.373E+04   0.123E-03 0.539E-02 0.867E+00
   0.247E+00 -.515E-02 0.376E+04   -.246E+00 0.516E-02 -.376E+04   -.139E-03 0.250E-04 0.408E+00
   0.889E-04 -.764E-01 0.394E+04   -.247E-04 0.768E-01 -.393E+04   -.128E-04 -.576E-04 -.368E+01
   0.288E-03 0.395E-01 0.193E+04   -.276E-03 -.344E-01 -.193E+04   0.143E-05 -.985E-03 -.449E-01
   0.431E+00 -.121E+00 0.192E+04   -.430E+00 0.122E+00 -.192E+04   -.355E-03 -.239E-04 0.193E+00
   0.184E+01 -.442E-01 0.167E+02   -.183E+01 0.418E-01 -.159E+02   -.163E-02 0.267E-03 -.129E+00
   0.488E-02 -.425E+00 0.291E+02   -.531E-02 0.408E+00 -.300E+02   0.190E-03 0.104E-01 0.330E+00
   0.176E+00 -.239E+01 -.181E+04   -.176E+00 0.243E+01 0.181E+04   -.570E-03 -.336E-01 0.914E-01
   0.113E+02 -.566E+01 -.188E+04   -.113E+02 0.566E+01 0.188E+04   0.143E-02 -.130E-02 -.121E+00
   0.773E+02 -.810E+01 -.367E+04   -.773E+02 0.809E+01 0.367E+04   -.327E-02 0.483E-02 -.294E+00
   0.103E-02 -.677E+02 -.361E+04   -.118E-02 0.677E+02 0.361E+04   0.110E-03 -.126E-02 0.964E+00
   0.243E+00 -.988E-01 0.376E+04   -.243E+00 0.993E-01 -.376E+04   -.184E-03 -.189E-04 0.408E+00
   0.245E-04 -.726E-01 0.394E+04   -.248E-04 0.727E-01 -.393E+04   0.203E-05 -.382E-05 -.368E+01
   0.285E-03 -.162E+00 0.193E+04   -.289E-03 0.164E+00 -.193E+04   0.817E-05 -.575E-03 -.450E-01
   0.437E+00 -.125E+00 0.192E+04   -.435E+00 0.125E+00 -.192E+04   -.443E-03 0.149E-04 0.193E+00
   0.204E+01 -.993E+00 0.155E+02   -.203E+01 0.100E+01 -.147E+02   -.102E-02 -.766E-03 -.130E+00
   0.421E-02 -.761E+00 0.286E+02   -.465E-02 0.764E+00 -.297E+02   0.211E-03 -.189E-02 0.332E+00
   0.181E+00 -.998E+01 -.181E+04   -.181E+00 0.999E+01 0.181E+04   -.641E-03 -.163E-03 0.558E-01
[...]
   -.531E+02 0.102E+00 0.115E+04   0.571E+02 -.102E+00 -.115E+04   -.347E+01 0.116E-02 0.158E+00
   0.531E+02 0.102E+00 0.115E+04   -.571E+02 -.102E+00 -.115E+04   0.347E+01 0.114E-02 0.158E+00
   0.563E+00 0.203E+00 0.510E+03   -.560E+00 -.205E+00 -.514E+03   -.464E-02 0.392E-02 0.407E+01
   0.199E+01 0.835E+00 -.505E+03   -.198E+01 -.849E+00 0.512E+03   -.442E-02 0.179E-01 -.703E+01
   -.555E+02 0.466E+00 0.161E+02   0.602E+02 -.469E+00 -.163E+02   -.509E+01 0.149E-01 0.324E+00
   0.555E+02 0.466E+00 0.161E+02   -.602E+02 -.470E+00 -.163E+02   0.509E+01 0.149E-01 0.323E+00
   0.968E-01 0.143E+01 -.603E+03   -.107E+00 -.145E+01 0.596E+03   0.981E-02 0.126E-01 0.648E+01
   0.653E-01 0.513E+01 -.155E+04   -.720E-01 -.504E+01 0.155E+04   0.651E-02 -.886E-01 0.208E+01
   -.232E+02 0.471E+01 -.110E+04   0.262E+02 -.474E+01 0.110E+04   -.294E+01 0.332E-01 0.883E+00
   0.227E+02 0.470E+01 -.110E+04   -.257E+02 -.473E+01 0.110E+04   0.289E+01 0.324E-01 0.880E+00
   0.220E+02 0.515E+01 -.177E+04   -.221E+02 -.514E+01 0.177E+04   0.758E-01 -.146E-01 -.228E+01
   0.681E+02 0.166E+02 -.267E+04   -.679E+02 -.165E+02 0.269E+04   -.127E+00 -.532E-01 -.203E+02
   -.563E+02 0.479E+02 -.226E+04   0.624E+02 -.480E+02 0.226E+04   -.596E+01 0.126E+00 -.350E+01
   0.563E+02 0.479E+02 -.226E+04   -.624E+02 -.480E+02 0.226E+04   0.596E+01 0.126E+00 -.350E+01
   0.253E+00 0.228E+01 0.991E+02   -.540E-12 -.113E-11 0.318E-11   -.254E+00 -.227E+01 -.995E+02

 POSITION                                       TOTAL-FORCE (eV/Angst)
      6.52146      7.06874     24.71307        -0.000006     -0.015048      0.127097
      6.52147      8.17283     25.10174        -0.000006      0.277366      0.079690
      6.52146      5.95970     24.30466        -0.000012     -0.255183     -0.041060
      9.78220      7.42389      8.77661        -0.000377      0.000089     -3.581461
      0.00000      8.90866      8.77661        -0.000061      0.000105      2.439108
      0.00000      7.42389     12.03735        -0.000027      0.000078      0.518294
      9.78220      8.90866     12.03735        -0.001219      0.000538     -0.722567
      9.78220      7.42389     15.29808        -0.006221     -0.002261      0.689972
      0.00000      8.90866     15.29808        -0.000227      0.002336     -0.700754
      0.00057      7.42601     18.49382         0.000008     -0.000352      0.016855
      9.78319      8.91133     18.68500        -0.001018     -0.000257     -0.079439
      9.78494      7.43277     22.03656         0.002686     -0.003002      0.053282
     13.04289      8.91402     21.68026        -0.000052      0.006970      0.359362
      9.78220     10.39344      8.77661        -0.000425      0.000323     -3.581546
      0.00000      0.00000      8.77661        -0.000026     -0.000048      2.439017
      0.00000     10.39344     12.03735        -0.000026      0.000156      0.518521
      9.78220      0.00000     12.03735        -0.001510      0.000136     -0.721295
      9.78220     10.39344     15.29808        -0.004489      0.010936      0.695376
      0.00000      0.00000     15.29808        -0.000243      0.001315     -0.699236
      0.00061     10.39546     18.49464         0.000011      0.001643      0.018350
      9.78215      0.00245     18.68754         0.000930     -0.001525     -0.078495
      9.78028     10.40086     22.04574        -0.000746     -0.000915      0.064553
     13.04289      0.00379     21.68111        -0.000075      0.001141      0.359301
      9.78220      1.48478      8.77661        -0.000458     -0.000224     -3.581503
      0.00000      2.96955      8.77661         0.000006     -0.000158      2.439139
      0.00000      1.48478     12.03735         0.000002     -0.000126      0.518583
      9.78220      2.96955     12.03735        -0.001200     -0.000658     -0.721144
      9.78220      1.48478     15.29808        -0.004216     -0.001481      0.702037
      0.00000      2.96955     15.29808        -0.000246     -0.002081     -0.699817
      0.00054      1.48628     18.49470         0.000033      0.000384      0.018822
      9.78340      2.97157     18.68725        -0.000651     -0.001032     -0.079087
      9.78128      1.49151     22.04459        -0.001901     -0.000915      0.067589
     13.04289      2.97249     21.68067        -0.000041     -0.001710      0.357883
      9.78220      4.45433      8.77661        -0.000345     -0.000428     -3.581333
      0.00000      5.93911      8.77661         0.000053     -0.000019      2.439051
      0.00000      4.45433     12.03735        -0.000001     -0.000279      0.518367
      9.78220      5.93911     12.03735        -0.000937     -0.000287     -0.722291
      9.78220      4.45433     15.29808        -0.006892     -0.007652      0.696561
      0.00000      5.93911     15.29808        -0.000238     -0.001646     -0.701197
      0.00050      4.45601     18.49388         0.000017     -0.001182      0.018594
      9.78310      5.94141     18.68591         0.001038     -0.000717     -0.079978
      9.78517      4.46132     22.04268        -0.000549     -0.008334      0.062071
     13.04289      5.94374     21.67975        -0.000027     -0.005529      0.357781
      3.26073      7.42389      8.77661         0.000355      0.000001     -3.581485
      6.52147      8.90866      8.77661         0.000053      0.000277      2.440569
      6.52147      7.42389     12.03735         0.000014      0.004037      0.520811
      3.26073      8.90866     12.03735         0.001213      0.000562     -0.722567
      3.26073      7.42389     15.29808         0.006578     -0.002254      0.689963
      6.52147      8.90866     15.29808        -0.000245     -0.007035     -0.671533
      6.52205      7.41911     18.50466         0.000034     -0.005367      0.021177
      3.26073      8.91133     18.68500         0.001509     -0.000248     -0.079416
      3.25791      7.43277     22.03656        -0.002708     -0.002901      0.053311
      6.52142      8.91723     21.66835        -0.000048      0.021114      0.313951
      3.26073     10.39344      8.77661         0.000473      0.000396     -3.581543
      6.52147      0.00000      8.77661         0.000003      0.000032      2.440693
      6.52147     10.39344     12.03735         0.000006      0.001733      0.523745
      3.26073      0.00000     12.03735         0.001550      0.000175     -0.721298
      3.26073     10.39344     15.29808         0.004864      0.010935      0.695364
      6.52147      0.00000     15.29808        -0.000229      0.001322     -0.722784
      6.52208     10.39259     18.48566        -0.000008      0.003020      0.017752
[...]
      6.52147      5.93911     13.31396         0.000004      0.000191     -0.010751
      4.53735      4.45433     12.03735         0.532265      0.000452      0.049201
      8.50559      4.45433     12.03735        -0.532276      0.000453      0.049212
      3.26073      5.93911     14.02147        -0.001372      0.002208     -0.206176
      3.26073      5.93911     16.57469         0.000731      0.003821      0.158719
      7.79808      4.45433     15.29808        -0.382632      0.011320      0.096108
      5.24485      4.45433     15.29808         0.382551      0.011304      0.095905
      6.52138      5.93939     17.30912        -0.000262     -0.000657     -0.151175
      6.52140      5.94307     19.88146        -0.000202     -0.000570     -0.013930
      4.56438      4.45633     18.58423         0.073509     -0.000504     -0.010336
      8.47831      4.45633     18.58417        -0.072713     -0.000475     -0.010336
      3.25195      5.94278     20.55182        -0.003470      0.000028      0.083399
      3.27351      5.94662     23.12107         0.019222      0.004893      0.469366
      7.75088      4.44589     21.97586         0.133892     -0.004211      0.069080
      5.29197      4.44590     21.97587        -0.134009     -0.004199      0.069121
    total drift:                               -0.000335      0.011133     -0.378313

  FREE ENERGIE OF THE ION-ELECTRON SYSTEM (eV)
  free  energy   TOTEN  =     -1581.28381067 eV

  energy  without entropy=    -1581.28381067  energy(sigma->0) =    -1581.28381067