 vasp.6.4.2 20Jul23 (build Feb 22 2024 13:53:45) complex
 executed on              LinuxNV date 2024.08.28  21:07:24
 OpenACC runtime initialized ...    4 GPUs detected

 INCAR:
   SYSTEM = Oxide-Surface
   ISMEAR = 0
   SIGMA = 0.05
   EDIFF = 1E-5
   ALGO = Normal
   IBRION = -1
   NSW = 0
   ISYM = 0
   DIPOL = 0.5 0.5 0.5
   IDIPOL = 3
   LDIPOL = .TRUE.
   ISTART = 0
   LHFCALC = .FALSE.
   GGA = PE
   HFRCUT = -1
   ENCUT = 520
   PREC = Normal
   PRECFOCK = Normal
   LASPH = .TRUE.
   LREAL = Auto
   ISPIN = 1
   NELM = 200
   NELMIN = 8
   NCORE = 1
   KPAR = 1
   LWAVE = .TRUE.
   LCHARG = .FALSE.

 POTCAR:    PAW_PBE H 15Jun2001
 POTCAR:    PAW_PBE O 08Apr2002
 POTCAR:    PAW_PBE Ti_pv 07Sep2000
 POTCAR:    PAW_PBE O 08Apr2002
 POTCAR:    PAW_PBE H 15Jun2001
   VRHFIN =H: ultrasoft test

   TITEL  = PAW_PBE H 15Jun2001
   POMASS =    1.000; ZVAL   =    1.000    mass and valenz
   ENMAX  =  250.000; ENMIN  =  200.000 eV

   TITEL  = PAW_PBE O 08Apr2002
   POMASS =   16.000; ZVAL   =    6.000    mass and valenz
   ENMAX  =  400.000; ENMIN  =  300.000 eV

   TITEL  = PAW_PBE Ti_pv 07Sep2000
   POMASS =   47.880; ZVAL   =   10.000    mass and valenz
   ENMAX  =  222.335; ENMIN  =  166.751 eV

   TITEL  = PAW_PBE O 08Apr2002
   POMASS =   16.000; ZVAL   =    6.000    mass and valenz
   ENMAX  =  400.000; ENMIN  =  300.000 eV

 Optimization of the real space projectors (new method)

 maximal supplied QI-value         = 34.20
 optimisation between [QCUT,QGAM] = [ 11.63, 23.26] = [ 37.87,151.49] Ry
 Optimized for a Real-space Cutoff    1.14 Angstroem

   l    n(q)    QCUT    max X(q) W(low)/X(q) W(high)/X(q)  e(spline)
   0      8    11.629    19.460    0.27E-03    0.65E-03    0.17E-06
   0      8    11.629    12.209    0.25E-03    0.62E-03    0.16E-06
   1      7    11.629     4.655    0.29E-03    0.85E-04    0.19E-06
 Optimization of the real space projectors (new method)

[...]

   l    n(q)    QCUT    max X(q) W(low)/X(q) W(high)/X(q)  e(spline)
   1     10    11.641     4.216    0.33E-04    0.72E-04    0.48E-07
   1     10    11.641     5.422    0.11E-03    0.20E-03    0.10E-06
   2      9    11.641    72.084    0.36E-03    0.27E-03    0.57E-06
   2      9    11.641    65.965    0.35E-03    0.27E-03    0.57E-06
   0     10    11.641    41.531    0.11E-03    0.93E-04    0.16E-06
   0     10    11.641    16.290    0.82E-04    0.72E-04    0.13E-06
 Optimization of the real space projectors (new method)

 maximal supplied QI-value         = 24.76
 optimisation between [QCUT,QGAM] = [ 11.64, 23.27] = [ 37.91,151.63] Ry
 Optimized for a Real-space Cutoff    1.04 Angstroem

   l    n(q)    QCUT    max X(q) W(low)/X(q) W(high)/X(q)  e(spline)
   0      7    11.635    20.381    0.14E-03    0.49E-03    0.18E-06
   0      7    11.635    15.268    0.16E-03    0.52E-03    0.19E-06
   1      7    11.635     5.964    0.30E-03    0.44E-03    0.22E-06
   1      7    11.635     5.382    0.27E-03    0.34E-03    0.19E-06
  PAW_PBE H 15Jun2001                   :
  PAW_PBE O 08Apr2002                   :
  PAW_PBE Ti_pv 07Sep2000               :
  PAW_PBE O 08Apr2002                   :

 POSCAR:  H  O Ti  O
  positions in direct lattice
 exchange correlation table for  LEXCH =        8
   RHO(1)=    0.500       N(1)  =     2000
   RHO(2)=  100.500       N(2)  =     4000

 ion  position               nearest neighbor table
   1  0.694  0.516  0.780-   3 0.98
   2  0.689  0.651  0.782-   3 0.98
   3  0.632  0.582  0.782-   2 0.98   1 0.98  51 2.30
   4  0.808  0.916  0.247-  56 1.94  54 1.94  88 1.94  55 1.99  53 1.99   5 3.05   7 3.05  21 3.05

   5  0.592  0.749  0.282-  52 1.94  55 1.94  57 1.94 119 1.94  56 1.99  58 1.99   4 3.05   6 3.05
                            36 3.05  10 3.08
   6  0.308  0.749  0.247-  60 1.94  58 1.94 124 1.94  59 1.99  52 1.99   7 3.05   5 3.05  39 3.05

   7  0.092  0.916  0.282-  53 1.94  59 1.94  61 1.94  91 1.94  60 1.99  54 1.99   6 3.05   4 3.05
                            22 3.05   8 3.08
   8  0.945  0.916  0.390-  62 1.92  96 1.93  64 1.94  54 1.98  63 1.98  61 2.00  11 2.99   9 3.04
                            25 3.05   7 3.08
   9  0.727  0.749  0.421-  57 1.89 127 1.93  63 1.94  65 1.96  66 1.99  64 2.00  10 3.01   8 3.04
                            40 3.05  14 3.10
  10  0.444  0.749  0.390-  66 1.93 132 1.93  68 1.93  58 1.97  67 1.99  57 2.00   9 3.01  11 3.05
                            43 3.05   5 3.08
  11  0.226  0.916  0.422-  61 1.90  99 1.94  67 1.94  62 1.97  69 1.97  68 2.01   8 2.99  26 3.05
                            10 3.05  12 3.11
  12  0.086  0.916  0.532-  70 1.92 104 1.93  72 1.94  71 1.97  69 2.01  62 2.01  15 2.95  13 3.04
                            29 3.05  11 3.11
  13  0.865  0.749  0.560-  65 1.86 135 1.93  71 1.94  74 1.95  72 2.01  73 2.01  14 2.98  12 3.04
                            44 3.05  18 3.17
  14  0.584  0.749  0.531- 140 1.93  74 1.93  76 1.93  66 1.97  75 1.98  65 2.02  13 2.98  15 3.05
                            47 3.06   9 3.10
  15  0.364  0.916  0.562-  69 1.86 107 1.94  75 1.94  70 1.95  77 2.00  76 2.02  12 2.95  30 3.05
                            14 3.05
  16  0.231  0.915  0.678-  78 1.86  80 1.93 112 1.94  79 2.00  77 2.10  70 2.10  19 2.85  33 3.07
                            17 3.09
  17  0.000  0.749  0.700-  73 1.78  81 1.84 143 1.97  79 1.98  80 2.07  18 2.86  16 3.09  48 3.10

[...]

  20  0.808  0.249  0.247-  88 1.94 120 1.94  86 1.94  87 1.99  85 1.99  37 3.05  21 3.05  23 3.05

[...]

  36  0.808  0.583  0.247- 120 1.94 118 1.94  56 1.94 119 1.99 117 1.99  37 3.05  39 3.05   5 3.05

  37  0.592  0.416  0.282- 116 1.94  87 1.94 119 1.94 121 1.94 120 1.99 122 1.99  20 3.05  36 3.05
                            38 3.05  42 3.08
  38  0.308  0.416  0.247-  92 1.94 124 1.94 122 1.94 123 1.99 116 1.99  39 3.05  23 3.05  37 3.05

  39  0.092  0.583  0.282- 117 1.94 123 1.94 125 1.94  59 1.94 124 1.99 118 1.99  38 3.05  36 3.05
                             6 3.05  40 3.07
  40  0.946  0.583  0.389- 126 1.93  64 1.93 128 1.94 118 1.97 125 1.98 127 2.00  43 2.99  41 3.05
                             9 3.05  39 3.07
  41  0.727  0.417  0.421- 121 1.89 127 1.93  95 1.94 129 1.96 130 1.99 128 2.00  42 3.01  24 3.04
                            40 3.05  46 3.10
  42  0.444  0.416  0.389- 130 1.93 132 1.93 100 1.93 122 1.97 131 1.99 121 2.01  41 3.01  27 3.05
                            43 3.05  37 3.08
  43  0.226  0.583  0.423- 125 1.92 131 1.94  67 1.94 126 1.96 133 1.97 132 2.01  40 2.99  42 3.05
                            10 3.05  44 3.07
  44  0.089  0.583  0.533- 134 1.92  72 1.93 136 1.93 133 1.98 135 2.00 126 2.01  47 2.96  45 3.05
                            13 3.05  43 3.07
  45  0.865  0.417  0.560- 129 1.86 135 1.93 103 1.94 138 1.95 136 2.01 137 2.01  46 2.98  28 3.04
                            44 3.05  50 3.16
  46  0.584  0.416  0.531- 140 1.93 138 1.93 108 1.93 130 1.97 139 1.98 129 2.02  45 2.98  31 3.05
                            47 3.06  41 3.10
  47  0.366  0.583  0.565- 133 1.92  75 1.94 139 1.94 134 1.94 141 2.00 140 2.03  44 2.96  46 3.06
                            14 3.06  48 3.14
  48  0.234  0.583  0.678- 142 1.86 144 1.93  80 1.93 143 2.03 141 2.05 134 2.10  51 2.87  17 3.10
                            49 3.10  47 3.14
  49  1.000  0.417  0.700- 137 1.78 145 1.84 143 1.97 111 1.98 144 2.07  50 2.86  32 3.09  48 3.10

  50  0.729  0.417  0.673- 145 1.90 147 1.92 115 1.94 146 1.99 138 2.03 137 2.10  49 2.86  35 3.08
                            51 3.08  45 3.16
  51  0.505  0.583  0.707- 142 1.82 141 1.86 146 1.98  82 1.98 147 2.11   3 2.30  48 2.87  50 3.08
                            18 3.08
  52  0.488  0.749  0.218-   5 1.94   6 1.99
  53  0.988  0.916  0.218-   7 1.94   4 1.99
  54  0.911  0.916  0.312-   4 1.94   8 1.98   7 1.99
  55  0.627  0.916  0.277-   5 1.94  21 1.94   4 1.99
  56  0.772  0.749  0.253-   4 1.94  36 1.94   5 1.99
  57  0.624  0.749  0.359-   9 1.89   5 1.94  10 2.00
  58  0.411  0.749  0.312-   6 1.94  10 1.97   5 1.99
  59  0.127  0.749  0.277-   7 1.94  39 1.94   6 1.99
  60  0.272  0.916  0.253-   6 1.94  22 1.94   7 1.99
  61  0.124  0.916  0.359-  11 1.90   7 1.94   8 2.00
  62  0.049  0.916  0.453-   8 1.92  11 1.97  12 2.01
  63  0.764  0.916  0.417-  25 1.94   9 1.94   8 1.98
  64  0.910  0.749  0.394-  40 1.93   8 1.94   9 2.00
  65  0.764  0.749  0.498-  13 1.86   9 1.96  14 2.02
  66  0.549  0.749  0.453-  10 1.93  14 1.97   9 1.99
  67  0.264  0.749  0.418-  43 1.94  11 1.94  10 1.99
  68  0.409  0.916  0.394-  10 1.93  26 1.93  11 2.01
  69  0.264  0.916  0.499-  15 1.86  11 1.97  12 2.01
  70  0.193  0.916  0.595-  12 1.92  15 1.95  16 2.10
  71  0.904  0.916  0.557-  29 1.94  13 1.94  12 1.97
  72  0.052  0.749  0.535-  44 1.93  12 1.94  13 2.01
  73  0.914  0.751  0.638-  17 1.78  13 2.01  18 2.10
  74  0.694  0.752  0.594-  14 1.93  13 1.95  18 2.03
  75  0.405  0.749  0.560-  47 1.94  15 1.94  14 1.98
  76  0.549  0.916  0.535-  30 1.93  14 1.93  15 2.02
  77  0.413  0.917  0.639-  19 1.78  15 2.00  16 2.10
  78  0.347  0.916  0.735-  19 1.84  16 1.86
  79  0.052  0.916  0.709-  33 1.98  17 1.98  16 2.00
  80  0.195  0.749  0.678-  16 1.93  48 1.93  17 2.07
  81  0.841  0.744  0.734-  17 1.84  18 1.89
  82  0.554  0.751  0.708-  19 1.97  51 1.98  18 1.99
  83  0.695  0.917  0.676-  34 1.93  18 1.94  19 2.06
  84  0.488  0.083  0.218-  21 1.94  22 1.99
  85  0.988  0.249  0.218-  23 1.94  20 1.99
  86  0.911  0.249  0.312-  20 1.94  24 1.98  23 1.99
  87  0.627  0.249  0.277-  21 1.94  37 1.94  20 1.99
  88  0.772  0.083  0.253-  20 1.94   4 1.94  21 1.99
  89  0.624  0.083  0.359-  25 1.89  21 1.94  26 2.00
  90  0.411  0.083  0.312-  22 1.94  26 1.98  21 1.99
  91  0.127  0.083  0.277-  23 1.94   7 1.94  22 1.99
  92  0.272  0.249  0.253-  22 1.94  38 1.94  23 1.99
  93  0.124  0.249  0.359-  27 1.90  23 1.94  24 2.00
  94  0.049  0.249  0.453-  24 1.92  27 1.97  28 2.01
  95  0.764  0.249  0.417-  25 1.94  41 1.94  24 1.98
  96  0.909  0.083  0.394-   8 1.93  24 1.93  25 2.00
  97  0.764  0.083  0.499-  29 1.86  25 1.97  30 2.01
  98  0.549  0.083  0.453-  26 1.92  25 1.98  30 2.00
  99  0.264  0.083  0.418-  27 1.94  11 1.94  26 1.99
 100  0.409  0.249  0.394-  42 1.93  26 1.93  27 2.01
 101  0.264  0.250  0.499-  31 1.86  27 1.97  28 2.01
 102  0.193  0.250  0.595-  28 1.92  31 1.95  32 2.10
 103  0.904  0.249  0.557-  29 1.94  45 1.94  28 1.97
 104  0.051  0.083  0.536-  12 1.93  28 1.93  29 2.03
 105  0.913  0.083  0.639-  33 1.78  29 2.01  34 2.09
 106  0.693  0.083  0.594-  30 1.92  29 1.94  34 2.09
 107  0.404  0.083  0.559-  15 1.94  31 1.94  30 1.98
 108  0.549  0.249  0.535-  30 1.93  46 1.93  31 2.02
 109  0.412  0.248  0.639-  35 1.78  31 2.00  32 2.10
 110  0.347  0.250  0.735-  35 1.84  32 1.86
 111  0.052  0.250  0.709-  33 1.98  49 1.98  32 2.00
[...]
 133  0.266  0.583  0.501-  47 1.92  43 1.97  44 1.98
 134  0.193  0.583  0.596-  44 1.92  47 1.94  48 2.10
 135  0.904  0.583  0.558-  45 1.93  13 1.93  44 2.00
 136  0.052  0.416  0.535-  44 1.93  28 1.94  45 2.01
 137  0.914  0.415  0.638-  49 1.78  45 2.01  50 2.10
 138  0.694  0.414  0.594-  46 1.93  45 1.95  50 2.03
[...]
   -.492E+02 -.673E+02 -.308E+03   0.540E+02 0.741E+02 0.308E+03   -.480E+01 -.673E+01 0.812E-01   0.232E-04 0.392E-04 -.364E-03
   0.143E+02 0.231E+01 -.187E+04   -.555E+02 -.403E+01 0.188E+04   0.410E+02 0.172E+01 -.100E+02   0.205E-03 -.337E-05 -.225E-02
   0.646E+01 -.265E+00 0.297E+04   -.153E+01 0.268E+00 -.297E+04   -.109E+01 0.301E-02 -.332E+01   -.572E-03 0.467E-03 -.886E-03
   0.500E+01 -.340E+00 0.243E+04   -.656E+01 0.344E+00 -.244E+04   -.860E-01 -.324E-02 -.396E-01   0.342E-03 -.268E-03 0.974E-03
   0.662E+01 -.478E-01 0.297E+04   -.172E+01 0.470E-01 -.297E+04   -.109E+01 -.240E-02 -.331E+01   -.594E-03 -.578E-04 -.602E-03
   0.324E+01 -.327E-01 0.243E+04   -.486E+01 0.270E-01 -.244E+04   -.770E-01 0.578E-02 -.443E-01   0.676E-03 -.509E-04 0.737E-03
   -.224E+00 -.241E+00 0.111E+04   0.431E-01 0.239E+00 -.111E+04   0.179E+00 0.423E-02 0.328E-01   0.338E-03 0.894E-04 0.125E-02
   0.162E+01 -.226E+01 0.705E+03   -.157E+01 0.225E+01 -.705E+03   -.536E-01 0.186E-01 -.164E+00   -.289E-03 -.243E-03 0.118E-02
   0.201E+01 -.436E+00 0.111E+04   -.217E+01 0.429E+00 -.111E+04   0.163E+00 0.435E-02 0.244E-02   0.237E-03 -.691E-04 0.978E-03
   -.640E+01 0.230E+00 0.694E+03   0.644E+01 -.234E+00 -.694E+03   -.320E-01 0.632E-02 -.151E+00   -.338E-03 -.584E-04 0.142E-02
   -.597E+01 -.237E+01 -.690E+03   0.566E+01 0.236E+01 0.690E+03   0.313E+00 0.688E-02 0.132E+00   -.310E-04 -.766E-04 0.140E-02
   -.140E+02 -.506E+01 -.103E+04   0.142E+02 0.510E+01 0.103E+04   -.108E+00 -.362E-01 -.254E+00   0.104E-03 -.535E-05 0.125E-02
   0.299E+01 -.236E+01 -.658E+03   -.324E+01 0.236E+01 0.658E+03   0.262E+00 0.235E-02 0.818E-01   0.339E-04 0.176E-03 0.154E-02
   -.115E+01 -.209E+01 -.106E+04   0.129E+01 0.210E+01 0.106E+04   -.124E+00 -.987E-02 -.293E+00   0.413E-04 0.214E-03 0.123E-02
   0.286E+02 -.128E+02 -.245E+04   -.295E+02 0.128E+02 0.245E+04   0.956E+00 0.166E-01 -.144E+00   0.184E-04 0.177E-04 -.123E-02
   -.919E+02 -.283E+02 -.280E+04   0.920E+02 0.282E+02 0.280E+04   -.363E-01 0.171E+00 0.703E+00   0.172E-03 -.219E-03 -.160E-02
   -.110E+02 -.547E+02 -.235E+04   0.102E+02 0.548E+02 0.235E+04   0.790E+00 -.378E-01 -.224E-01   0.390E-04 0.193E-03 -.103E-02
   -.584E+02 -.349E+02 -.280E+04   0.584E+02 0.349E+02 0.280E+04   0.412E-02 0.736E-02 0.752E+00   0.271E-03 -.628E-04 -.168E-02
   0.646E+01 0.274E+00 0.297E+04   -.153E+01 -.278E+00 -.297E+04   -.109E+01 -.214E-02 -.332E+01   -.343E-03 0.494E-04 -.481E-03
   0.491E+01 0.210E-01 0.243E+04   -.651E+01 -.216E-01 -.244E+04   -.773E-01 0.206E-03 -.481E-01   0.675E-03 0.111E-03 0.941E-03
   0.647E+01 0.106E-01 0.297E+04   -.154E+01 -.108E-01 -.297E+04   -.109E+01 -.900E-03 -.332E+01   -.608E-03 -.819E-04 -.769E-03
   0.325E+01 0.683E-01 0.243E+04   -.487E+01 -.647E-01 -.244E+04   -.769E-01 -.282E-02 -.451E-01   0.341E-03 0.723E-04 0.747E-03
   -.342E+00 0.120E+00 0.111E+04   0.166E+00 -.125E+00 -.111E+04   0.178E+00 0.159E-02 0.322E-01   0.218E-03 0.571E-04 0.954E-03
   -.200E+01 0.821E-02 0.700E+03   0.202E+01 -.112E-01 -.700E+03   -.152E-01 -.647E-03 -.166E+00   -.353E-03 0.181E-03 0.116E-02
   0.206E+01 -.335E-01 0.111E+04   -.223E+01 0.316E-01 -.111E+04   0.167E+00 -.375E-03 0.135E-01   0.412E-03 -.519E-05 0.105E-02
   -.632E+01 -.795E-01 0.694E+03   0.636E+01 0.836E-01 -.694E+03   -.326E-01 -.503E-02 -.157E+00   -.397E-03 0.169E-03 0.142E-02
   -.617E+01 0.230E+01 -.690E+03   0.587E+01 -.229E+01 0.690E+03   0.313E+00 -.288E-03 0.133E+00   -.678E-04 0.169E-03 0.139E-02
   -.116E+02 0.352E-01 -.105E+04   0.117E+02 -.351E-01 0.105E+04   -.806E-01 -.754E-03 -.264E+00   0.843E-04 0.438E-04 0.137E-02
   -.899E+00 0.102E-01 -.679E+03   0.602E+00 -.116E-01 0.679E+03   0.300E+00 0.151E-02 0.154E+00   -.221E-03 0.634E-04 0.150E-02
   -.104E+01 0.205E+01 -.106E+04   0.119E+01 -.206E+01 0.106E+04   -.124E+00 0.123E-01 -.293E+00   0.196E-04 -.264E-03 0.114E-02
   0.289E+02 0.124E+02 -.245E+04   -.299E+02 -.124E+02 0.245E+04   0.958E+00 -.132E-01 -.142E+00   0.629E-04 0.131E-04 -.123E-02
   -.762E+02 -.162E+00 -.281E+04   0.763E+02 0.160E+00 0.281E+04   -.591E-01 -.832E-03 0.712E+00   0.323E-03 -.821E-04 -.210E-02
   0.106E+02 0.673E-01 -.244E+04   -.115E+02 -.645E-01 0.244E+04   0.888E+00 -.399E-02 -.894E-01   -.732E-04 0.349E-04 -.148E-02
   -.587E+02 0.353E+02 -.280E+04   0.587E+02 -.353E+02 0.280E+04   0.212E-02 -.993E-02 0.754E+00   0.351E-03 0.152E-03 -.155E-02
   0.644E+01 -.294E-02 0.297E+04   -.150E+01 0.399E-02 -.297E+04   -.109E+01 -.101E-02 -.331E+01   -.572E-03 -.502E-03 -.270E-03
   0.499E+01 0.350E+00 0.243E+04   -.656E+01 -.355E+00 -.244E+04   -.866E-01 0.567E-02 -.388E-01   0.655E-03 0.148E-03 0.978E-03
   0.662E+01 0.394E-01 0.297E+04   -.173E+01 -.383E-01 -.297E+04   -.109E+01 0.313E-02 -.331E+01   -.727E-03 0.136E-03 -.523E-03
   0.223E+01 0.118E-01 0.243E+04   -.380E+01 -.121E-01 -.244E+04   -.956E-01 0.352E-03 -.380E-01   0.579E-03 -.332E-04 0.937E-03
   0.574E+00 -.624E-01 0.111E+04   -.739E+00 0.615E-01 -.111E+04   0.166E+00 -.184E-03 0.678E-01   0.257E-03 -.146E-03 0.108E-02
   0.185E+01 0.224E+01 0.706E+03   -.179E+01 -.222E+01 -.705E+03   -.517E-01 -.187E-01 -.162E+00   -.110E-03 0.618E-04 0.125E-02
   0.189E+01 0.335E+00 0.111E+04   -.205E+01 -.331E+00 -.111E+04   0.160E+00 -.263E-02 0.450E-03   0.141E-03 0.731E-04 0.990E-03
   -.918E+01 0.744E-01 0.680E+03   0.923E+01 -.724E-01 -.679E+03   -.469E-01 -.113E-02 -.530E-01   -.427E-03 -.110E-03 0.129E-02
   -.307E+01 -.363E-01 -.692E+03   0.283E+01 0.350E-01 0.692E+03   0.245E+00 -.140E-02 0.157E+00   -.177E-03 -.898E-04 0.130E-02
   -.138E+02 0.490E+01 -.103E+04   0.140E+02 -.494E+01 0.103E+04   -.105E+00 0.378E-01 -.248E+00   0.114E-03 -.409E-04 0.111E-02
   0.295E+01 0.237E+01 -.657E+03   -.320E+01 -.237E+01 0.657E+03   0.258E+00 0.740E-03 0.820E-01   0.167E-03 -.240E-03 0.148E-02
   -.181E+01 0.181E+00 -.109E+04   0.194E+01 -.178E+00 0.109E+04   -.118E+00 -.460E-02 -.130E+00   -.141E-03 0.539E-04 0.115E-02
   0.440E+02 0.315E-01 -.244E+04   -.448E+02 -.293E-01 0.244E+04   0.765E+00 -.336E-02 -.380E-01   -.145E-03 -.323E-04 -.936E-03
   -.918E+02 0.287E+02 -.280E+04   0.918E+02 -.285E+02 0.280E+04   -.314E-01 -.179E+00 0.709E+00   0.867E-04 0.305E-03 -.159E-02
   -.117E+02 0.552E+02 -.235E+04   0.109E+02 -.552E+02 0.235E+04   0.785E+00 0.390E-01 -.153E-01   -.189E-04 -.229E-03 -.912E-03
   0.284E+02 -.576E+00 -.275E+04   -.279E+02 0.568E+00 0.275E+04   -.401E+00 0.620E-02 0.426E+00   -.116E-03 -.911E-04 -.162E-02
   -.321E+02 -.183E+00 0.201E+04   0.369E+02 0.184E+00 -.202E+04   -.654E+01 -.234E-02 0.171E+02   -.144E-03 0.389E-04 -.953E-03
   -.326E+02 -.168E+00 0.201E+04   0.373E+02 0.167E+00 -.202E+04   -.655E+01 0.204E-02 0.171E+02   -.506E-03 0.105E-03 -.102E-02
   0.814E+02 0.269E-01 0.121E+04   -.862E+02 -.502E-01 -.121E+04   0.386E+01 0.236E-01 -.449E+01   -.326E-03 0.836E-04 0.225E-03
   0.749E+02 -.163E+00 0.148E+04   -.819E+02 0.166E+00 -.147E+04   0.739E+01 -.922E-03 -.269E+01   0.593E-03 0.120E-03 -.203E-04
   -.862E+02 -.203E+00 0.171E+04   0.935E+02 0.202E+00 -.171E+04   -.698E+01 0.279E-02 -.115E+00   -.490E-04 0.659E-03 -.480E-03
   -.686E+02 -.885E+00 0.935E+03   0.742E+02 0.916E+00 -.939E+03   -.569E+01 -.265E-01 0.427E+01   0.858E-04 -.806E-04 0.793E-03
   0.823E+02 0.268E-01 0.121E+04   -.871E+02 -.183E-01 -.121E+04   0.382E+01 -.106E-01 -.430E+01   -.769E-04 -.542E-04 0.586E-03
   0.738E+02 -.564E-02 0.148E+04   -.808E+02 0.373E-03 -.147E+04   0.740E+01 0.166E-01 -.270E+01   0.242E-03 -.343E-04 0.154E-03
   -.863E+02 -.679E-01 0.171E+04   0.936E+02 0.699E-01 -.171E+04   -.696E+01 -.664E-02 -.120E+00   -.518E-04 -.523E-04 -.542E-03
[...]
   0.875E+02 -.451E-01 -.959E+03   -.945E+02 0.550E-01 0.967E+03   0.700E+01 -.608E-02 -.741E+01   0.289E-05 -.706E-05 0.619E-03
   0.687E+02 -.174E+00 -.634E+03   -.747E+02 0.189E+00 0.637E+03   0.602E+01 -.151E-01 -.317E+01   0.622E-04 -.296E-04 0.784E-03
   -.829E+02 0.137E+01 -.400E+03   0.893E+02 -.145E+01 0.398E+03   -.647E+01 0.817E-01 0.278E+01   0.112E-04 -.986E-04 0.876E-03
   -.705E+02 0.154E+02 -.111E+04   0.730E+02 -.161E+02 0.110E+04   -.255E+01 0.628E+00 0.984E+01   -.903E-04 0.133E-05 0.999E-04
   0.805E+02 0.158E+02 -.917E+03   -.868E+02 -.166E+02 0.923E+03   0.635E+01 0.724E+00 -.552E+01   -.136E-04 -.823E-04 0.553E-03
   0.808E+02 0.205E+01 -.650E+03   -.872E+02 -.216E+01 0.653E+03   0.642E+01 0.112E+00 -.339E+01   0.412E-04 -.252E-04 0.791E-03
   -.721E+02 -.614E-01 -.403E+03   0.783E+02 0.668E-01 0.401E+03   -.615E+01 -.103E-01 0.226E+01   0.352E-04 0.606E-05 0.922E-03
   -.537E+02 -.461E+00 -.114E+04   0.589E+02 0.498E+00 0.113E+04   -.521E+01 -.444E-01 0.707E+01   -.198E-03 -.486E-05 0.260E-03
   0.110E+03 0.357E-02 -.201E+04   -.116E+03 -.117E-01 0.203E+04   0.617E+01 0.121E-01 -.210E+02   0.137E-03 -.205E-04 -.219E-02
   0.409E+02 -.145E-01 -.177E+04   -.446E+02 0.225E-01 0.178E+04   0.373E+01 -.151E-01 -.740E+01   0.254E-03 0.751E-04 -.131E-02
   -.493E+02 0.815E+01 -.145E+04   0.541E+02 -.806E+01 0.145E+04   -.485E+01 -.875E-01 0.309E+01   0.116E-03 0.119E-03 -.533E-03
   0.375E+01 0.390E+02 -.199E+04   -.873E+01 -.388E+02 0.201E+04   0.501E+01 -.193E+00 -.189E+02   -.923E-04 0.124E-03 -.199E-02
   0.837E+02 0.555E+02 -.172E+04   -.885E+02 -.555E+02 0.173E+04   0.485E+01 0.751E-02 -.680E+01   0.109E-03 -.165E-03 -.110E-02
   -.563E+02 -.306E+00 -.132E+04   0.597E+02 0.301E+00 0.131E+04   -.352E+01 -.298E-02 0.523E+01   0.704E-05 -.154E-04 -.384E-03
   -.411E+02 -.150E+01 0.742E+02   -.384E-12 0.174E-11 -.523E-11   0.410E+02 0.151E+01 -.742E+02   0.214E-02 -.195E-04 0.271E-01

 POSITION                                       TOTAL-FORCE (eV/Angst)
      7.12620      5.86719     19.49735         0.034456     -0.077898      0.000736
      7.07834      7.40329     19.54031         0.034289      0.074550      0.000486
      6.49504      6.61614     19.55688        -0.115962      0.002271      0.036746
      8.29939     10.41358      6.17860         3.841207      0.006668      1.583398
      6.08041      8.51877      7.05919        -1.654509      0.000545     -2.018591
      3.16252      8.51877      6.17860         3.809057     -0.003308      1.560002
      0.94354     10.41358      7.05919        -1.694986     -0.000105     -2.021063
      9.70823     10.41653      9.74251        -0.001510      0.001392     -0.035133
      7.46699      8.51530     10.53688        -0.000288      0.000957      0.006534
      4.56332      8.51729      9.73765         0.000617     -0.003323     -0.030067
      2.31709     10.41383     10.55258         0.011605      0.002648      0.007319
      0.88600     10.41929     13.30855         0.006928     -0.002876     -0.010046
      8.89080      8.51622     14.00205         0.025009      0.003441      0.046801
      6.00380      8.51968     13.27519         0.006973     -0.000237     -0.005439
      3.73988     10.41619     14.04341         0.022679      0.000368      0.039253
      2.37439     10.40804     16.94761         0.011952      0.006864      0.110136
      0.00080      8.51036     17.49226         0.042649      0.008366      0.132077
      7.48737      8.50941     16.84011         0.024235      0.018499      0.106085
      5.17150     10.42543     17.49800         0.014982      0.015872      0.134338
      8.29939      2.83437      6.17860         3.842152     -0.006105      1.583104
      6.08041      0.93957      7.05919        -1.678671     -0.000357     -2.017072
      3.16252      0.93957      6.17860         3.833339     -0.001216      1.576327
      0.94354      2.83437      7.05919        -1.694398      0.000766     -2.021426
      9.70793      2.83400      9.74246         0.002792     -0.003352     -0.034854
      7.45859      0.94078     10.54238         0.008105     -0.003518      0.002410
      4.56525      0.94027      9.74200        -0.001809     -0.002412     -0.034660
      2.31721      2.83557     10.55224         0.009007     -0.000854      0.004984
      0.88573      2.83383     13.30815         0.010096      0.003677     -0.009498
      8.87573      0.94206     14.02068         0.027600     -0.000699      0.044650
      6.01072      0.94145     13.29279         0.002502      0.000154     -0.004784
      3.73962      2.83538     14.04328         0.021055     -0.000262      0.037991
      2.37419      2.84586     16.94741         0.011259     -0.006289      0.110313
      0.02814      0.94277     17.49234         0.022471     -0.003116      0.142044
      7.52107      0.94159     16.91601         0.011241     -0.001175      0.116891
      5.17113      2.82595     17.49748         0.017172     -0.016187      0.133441
      8.29939      6.62397      6.17860         3.848596     -0.000534      1.574970
      6.08041      4.72917      7.05919        -1.653104      0.000916     -2.018044
      3.16252      4.72917      6.17860         3.806621      0.004283      1.558439
      0.94354      6.62397      7.05919        -1.662173     -0.000020     -1.959249
      9.72353      6.62543      9.73659         0.001497     -0.001321     -0.031851
      7.46737      4.73521     10.53664         0.000439     -0.000425      0.008554
      4.56309      4.73221      9.73742         0.000662      0.001745     -0.031832
      2.32131      6.62471     10.58159         0.004799      0.000667      0.001280
      0.91630      6.62697     13.31408         0.002317     -0.002942     -0.007289
      8.89170      4.73694     14.00116         0.025076     -0.004979      0.048056
      6.00310      4.73197     13.27426         0.009027      0.004211     -0.004127
      3.76120      6.62596     14.12670         0.012815     -0.002075      0.032477
      2.40893      6.62656     16.96081        -0.002740     -0.001232      0.105836
     10.27296      4.74371     17.49310         0.042458     -0.006113      0.129085
      7.48577      4.74301     16.83609         0.022648     -0.021469      0.104788
      5.19016      6.62568     17.66659         0.054738     -0.001321      0.180625
      5.01582      8.51877      5.44312        -1.782288     -0.001686      0.925817
     10.15269     10.41358      5.44312        -1.788029      0.000656      0.919230
      9.36399     10.41358      7.79467        -0.975521      0.000365     -0.208488
      6.44609     10.41358      6.91407         0.397614      0.002357     -0.114849
      7.93372      8.51877      6.32372         0.251698      0.002750     -1.122875
      6.41366      8.51877      8.96550        -0.113397      0.003825      0.412444
      4.22711      8.51877      7.79467        -0.987638     -0.002191     -0.189660
      1.30921      8.51877      6.91407         0.401792      0.011236     -0.121069
      2.79684     10.41358      6.32372         0.259655     -0.004774     -1.125645
[...]
      2.72817      6.62525     12.51382        -0.025339     -0.002904     -0.020795
      1.98527      6.62686     14.90732         0.021801      0.003760      0.044932
      9.29033      6.62630     13.95045         0.027937      0.000414      0.001158
      0.52926      4.73423     13.38365        -0.031325      0.002818      0.008789
      9.38611      4.71719     15.95241        -0.055087     -0.003557     -0.010998
      7.13042      4.70139     14.84234         0.022042      0.004493      0.034187
      4.15814      4.73323     13.99082         0.023883     -0.000488     -0.002162
      5.65798      6.62575     13.40584        -0.027803     -0.005028      0.008374
      4.24724      6.62769     16.06170        -0.041086     -0.007367     -0.002152
      3.54223      6.62603     18.44083        -0.000202      0.003895      0.052431
      0.52923      6.62674     17.72076         0.022022     -0.007099      0.071844
      1.99958      4.73727     16.95421        -0.059872      0.003452      0.072030
      8.63898      4.80105     18.34066         0.032109     -0.002941      0.078766
      5.69352      4.71342     17.70097         0.011272     -0.019877      0.075419
      7.11547      6.62677     16.79316        -0.053034     -0.007740      0.025298
    total drift:                               -0.042844      0.009897      0.071736

  FREE ENERGIE OF THE ION-ELECTRON SYSTEM (eV)
  free  energy   TOTEN  =     -1290.42323341 eV

  energy  without entropy=    -1290.42323341  energy(sigma->0) =    -1290.42323341

 writing wavefunctions

     |            E. Caldeweyher, S. Ehlert & S. Grimme          |
     |          Mulliken Center for Theoretical Chemistry        |
     |                    University of Bonn                     |

Rational (Becke-Johnson) damping: hse06-D4-ATM
  s6         1.0000
  s8         1.1953
  s9         1.0000
  a1         0.3866
  a2         5.1913
 alp        16.0000

Dispersion energy:      -7.7491205595339E-01 Eh