 vasp.6.4.2 20Jul23 (build Feb 22 2024 13:53:45) complex
 executed on              LinuxNV date 2024.08.28  21:11:13
 OpenACC runtime initialized ...    4 GPUs detected

 INCAR:
   SYSTEM = Oxide-Surface
   ISMEAR = 0
   SIGMA = 0.05
   EDIFF = 1E-5
   ALGO = Normal
   IBRION = -1
   NSW = 0
   ISYM = 0
   DIPOL = 0.5 0.5 0.5
   IDIPOL = 3
   LDIPOL = .TRUE.
   ISTART = 1
   LHFCALC = .TRUE.
   HFSCREEN = 0.2
   GGA = PE
   HFRCUT = -1
   ENCUT = 520
   PREC = Normal
   PRECFOCK = Normal
   LASPH = .TRUE.
   LREAL = Auto
   ISPIN = 1
   NELM = 200
   NELMIN = 8
   NCORE = 1
   KPAR = 1
   LWAVE = .FALSE.
   LCHARG = .FALSE.

 POTCAR:    PAW_PBE H 15Jun2001
 POTCAR:    PAW_PBE O 08Apr2002
 POTCAR:    PAW_PBE Ti_pv 07Sep2000
 POTCAR:    PAW_PBE O 08Apr2002
 POTCAR:    PAW_PBE H 15Jun2001
   VRHFIN =H: ultrasoft test

   TITEL  = PAW_PBE H 15Jun2001
   POMASS =    1.000; ZVAL   =    1.000    mass and valenz
   ENMAX  =  250.000; ENMIN  =  200.000 eV

   TITEL  = PAW_PBE O 08Apr2002
   POMASS =   16.000; ZVAL   =    6.000    mass and valenz
   ENMAX  =  400.000; ENMIN  =  300.000 eV

   TITEL  = PAW_PBE Ti_pv 07Sep2000
   POMASS =   47.880; ZVAL   =   10.000    mass and valenz
   ENMAX  =  222.335; ENMIN  =  166.751 eV

   TITEL  = PAW_PBE O 08Apr2002
   POMASS =   16.000; ZVAL   =    6.000    mass and valenz
   ENMAX  =  400.000; ENMIN  =  300.000 eV

 Optimization of the real space projectors (new method)

 maximal supplied QI-value         = 34.20
 optimisation between [QCUT,QGAM] = [ 11.63, 23.26] = [ 37.87,151.49] Ry
 Optimized for a Real-space Cutoff    1.14 Angstroem

   l    n(q)    QCUT    max X(q) W(low)/X(q) W(high)/X(q)  e(spline)
   0      8    11.629    19.460    0.27E-03    0.65E-03    0.17E-06
   0      8    11.629    12.209    0.25E-03    0.62E-03    0.16E-06
   1      7    11.629     4.655    0.29E-03    0.85E-04    0.19E-06
 Optimization of the real space projectors (new method)

[...]

   l    n(q)    QCUT    max X(q) W(low)/X(q) W(high)/X(q)  e(spline)
   1     10    11.641     4.216    0.33E-04    0.72E-04    0.48E-07
   1     10    11.641     5.422    0.11E-03    0.20E-03    0.10E-06
   2      9    11.641    72.084    0.36E-03    0.27E-03    0.57E-06
   2      9    11.641    65.965    0.35E-03    0.27E-03    0.57E-06
   0     10    11.641    41.531    0.11E-03    0.93E-04    0.16E-06
   0     10    11.641    16.290    0.82E-04    0.72E-04    0.13E-06
 Optimization of the real space projectors (new method)

 maximal supplied QI-value         = 24.76
 optimisation between [QCUT,QGAM] = [ 11.64, 23.27] = [ 37.91,151.63] Ry
 Optimized for a Real-space Cutoff    1.04 Angstroem

   l    n(q)    QCUT    max X(q) W(low)/X(q) W(high)/X(q)  e(spline)
   0      7    11.635    20.381    0.14E-03    0.49E-03    0.18E-06
   0      7    11.635    15.268    0.16E-03    0.52E-03    0.19E-06
   1      7    11.635     5.964    0.30E-03    0.44E-03    0.22E-06
   1      7    11.635     5.382    0.27E-03    0.34E-03    0.19E-06
  PAW_PBE H 15Jun2001                   :
  PAW_PBE O 08Apr2002                   :
  PAW_PBE Ti_pv 07Sep2000               :
  PAW_PBE O 08Apr2002                   :

 POSCAR:  H  O Ti  O
  positions in direct lattice
 exchange correlation table for  LEXCH =        8
   RHO(1)=    0.500       N(1)  =     2000
   RHO(2)=  100.500       N(2)  =     4000

 ion  position               nearest neighbor table
   1  0.694  0.516  0.780-   3 0.98
   2  0.689  0.651  0.782-   3 0.98
   3  0.632  0.582  0.782-   2 0.98   1 0.98  51 2.30
   4  0.808  0.916  0.247-  56 1.94  54 1.94  88 1.94  55 1.99  53 1.99   5 3.05   7 3.05  21 3.05

   5  0.592  0.749  0.282-  52 1.94  55 1.94  57 1.94 119 1.94  56 1.99  58 1.99   4 3.05   6 3.05
                            36 3.05  10 3.08
   6  0.308  0.749  0.247-  60 1.94  58 1.94 124 1.94  59 1.99  52 1.99   7 3.05   5 3.05  39 3.05

   7  0.092  0.916  0.282-  53 1.94  59 1.94  61 1.94  91 1.94  60 1.99  54 1.99   6 3.05   4 3.05
                            22 3.05   8 3.08
   8  0.945  0.916  0.390-  62 1.92  96 1.93  64 1.94  54 1.98  63 1.98  61 2.00  11 2.99   9 3.04
                            25 3.05   7 3.08
   9  0.727  0.749  0.421-  57 1.89 127 1.93  63 1.94  65 1.96  66 1.99  64 2.00  10 3.01   8 3.04
                            40 3.05  14 3.10
  10  0.444  0.749  0.390-  66 1.93 132 1.93  68 1.93  58 1.97  67 1.99  57 2.00   9 3.01  11 3.05
                            43 3.05   5 3.08
  11  0.226  0.916  0.422-  61 1.90  99 1.94  67 1.94  62 1.97  69 1.97  68 2.01   8 2.99  26 3.05
                            10 3.05  12 3.11
  12  0.086  0.916  0.532-  70 1.92 104 1.93  72 1.94  71 1.97  69 2.01  62 2.01  15 2.95  13 3.04
                            29 3.05  11 3.11
  13  0.865  0.749  0.560-  65 1.86 135 1.93  71 1.94  74 1.95  72 2.01  73 2.01  14 2.98  12 3.04
                            44 3.05  18 3.17
  14  0.584  0.749  0.531- 140 1.93  74 1.93  76 1.93  66 1.97  75 1.98  65 2.02  13 2.98  15 3.05
                            47 3.06   9 3.10
  15  0.364  0.916  0.562-  69 1.86 107 1.94  75 1.94  70 1.95  77 2.00  76 2.02  12 2.95  30 3.05
                            14 3.05
  16  0.231  0.915  0.678-  78 1.86  80 1.93 112 1.94  79 2.00  77 2.10  70 2.10  19 2.85  33 3.07
                            17 3.09
  17  0.000  0.749  0.700-  73 1.78  81 1.84 143 1.97  79 1.98  80 2.07  18 2.86  16 3.09  48 3.10

[...]

  20  0.808  0.249  0.247-  88 1.94 120 1.94  86 1.94  87 1.99  85 1.99  37 3.05  21 3.05  23 3.05

[...]

  36  0.808  0.583  0.247- 120 1.94 118 1.94  56 1.94 119 1.99 117 1.99  37 3.05  39 3.05   5 3.05

  37  0.592  0.416  0.282- 116 1.94  87 1.94 119 1.94 121 1.94 120 1.99 122 1.99  20 3.05  36 3.05
                            38 3.05  42 3.08
  38  0.308  0.416  0.247-  92 1.94 124 1.94 122 1.94 123 1.99 116 1.99  39 3.05  23 3.05  37 3.05

  39  0.092  0.583  0.282- 117 1.94 123 1.94 125 1.94  59 1.94 124 1.99 118 1.99  38 3.05  36 3.05
                             6 3.05  40 3.07
  40  0.946  0.583  0.389- 126 1.93  64 1.93 128 1.94 118 1.97 125 1.98 127 2.00  43 2.99  41 3.05
                             9 3.05  39 3.07
  41  0.727  0.417  0.421- 121 1.89 127 1.93  95 1.94 129 1.96 130 1.99 128 2.00  42 3.01  24 3.04
                            40 3.05  46 3.10
  42  0.444  0.416  0.389- 130 1.93 132 1.93 100 1.93 122 1.97 131 1.99 121 2.01  41 3.01  27 3.05
                            43 3.05  37 3.08
  43  0.226  0.583  0.423- 125 1.92 131 1.94  67 1.94 126 1.96 133 1.97 132 2.01  40 2.99  42 3.05
                            10 3.05  44 3.07
  44  0.089  0.583  0.533- 134 1.92  72 1.93 136 1.93 133 1.98 135 2.00 126 2.01  47 2.96  45 3.05
                            13 3.05  43 3.07
  45  0.865  0.417  0.560- 129 1.86 135 1.93 103 1.94 138 1.95 136 2.01 137 2.01  46 2.98  28 3.04
                            44 3.05  50 3.16
  46  0.584  0.416  0.531- 140 1.93 138 1.93 108 1.93 130 1.97 139 1.98 129 2.02  45 2.98  31 3.05
                            47 3.06  41 3.10
  47  0.366  0.583  0.565- 133 1.92  75 1.94 139 1.94 134 1.94 141 2.00 140 2.03  44 2.96  46 3.06
                            14 3.06  48 3.14
  48  0.234  0.583  0.678- 142 1.86 144 1.93  80 1.93 143 2.03 141 2.05 134 2.10  51 2.87  17 3.10
                            49 3.10  47 3.14
  49  1.000  0.417  0.700- 137 1.78 145 1.84 143 1.97 111 1.98 144 2.07  50 2.86  32 3.09  48 3.10

  50  0.729  0.417  0.673- 145 1.90 147 1.92 115 1.94 146 1.99 138 2.03 137 2.10  49 2.86  35 3.08
                            51 3.08  45 3.16
  51  0.505  0.583  0.707- 142 1.82 141 1.86 146 1.98  82 1.98 147 2.11   3 2.30  48 2.87  50 3.08
                            18 3.08
  52  0.488  0.749  0.218-   5 1.94   6 1.99
  53  0.988  0.916  0.218-   7 1.94   4 1.99
  54  0.911  0.916  0.312-   4 1.94   8 1.98   7 1.99
  55  0.627  0.916  0.277-   5 1.94  21 1.94   4 1.99
  56  0.772  0.749  0.253-   4 1.94  36 1.94   5 1.99
  57  0.624  0.749  0.359-   9 1.89   5 1.94  10 2.00
  58  0.411  0.749  0.312-   6 1.94  10 1.97   5 1.99
  59  0.127  0.749  0.277-   7 1.94  39 1.94   6 1.99
  60  0.272  0.916  0.253-   6 1.94  22 1.94   7 1.99
  61  0.124  0.916  0.359-  11 1.90   7 1.94   8 2.00
  62  0.049  0.916  0.453-   8 1.92  11 1.97  12 2.01
  63  0.764  0.916  0.417-  25 1.94   9 1.94   8 1.98
  64  0.910  0.749  0.394-  40 1.93   8 1.94   9 2.00
  65  0.764  0.749  0.498-  13 1.86   9 1.96  14 2.02
  66  0.549  0.749  0.453-  10 1.93  14 1.97   9 1.99
  67  0.264  0.749  0.418-  43 1.94  11 1.94  10 1.99
  68  0.409  0.916  0.394-  10 1.93  26 1.93  11 2.01
  69  0.264  0.916  0.499-  15 1.86  11 1.97  12 2.01
  70  0.193  0.916  0.595-  12 1.92  15 1.95  16 2.10
  71  0.904  0.916  0.557-  29 1.94  13 1.94  12 1.97
  72  0.052  0.749  0.535-  44 1.93  12 1.94  13 2.01
  73  0.914  0.751  0.638-  17 1.78  13 2.01  18 2.10
  74  0.694  0.752  0.594-  14 1.93  13 1.95  18 2.03
  75  0.405  0.749  0.560-  47 1.94  15 1.94  14 1.98
  76  0.549  0.916  0.535-  30 1.93  14 1.93  15 2.02
  77  0.413  0.917  0.639-  19 1.78  15 2.00  16 2.10
  78  0.347  0.916  0.735-  19 1.84  16 1.86
  79  0.052  0.916  0.709-  33 1.98  17 1.98  16 2.00
  80  0.195  0.749  0.678-  16 1.93  48 1.93  17 2.07
  81  0.841  0.744  0.734-  17 1.84  18 1.89
  82  0.554  0.751  0.708-  19 1.97  51 1.98  18 1.99
  83  0.695  0.917  0.676-  34 1.93  18 1.94  19 2.06
  84  0.488  0.083  0.218-  21 1.94  22 1.99
  85  0.988  0.249  0.218-  23 1.94  20 1.99
  86  0.911  0.249  0.312-  20 1.94  24 1.98  23 1.99
  87  0.627  0.249  0.277-  21 1.94  37 1.94  20 1.99
  88  0.772  0.083  0.253-  20 1.94   4 1.94  21 1.99
  89  0.624  0.083  0.359-  25 1.89  21 1.94  26 2.00
  90  0.411  0.083  0.312-  22 1.94  26 1.98  21 1.99
  91  0.127  0.083  0.277-  23 1.94   7 1.94  22 1.99
  92  0.272  0.249  0.253-  22 1.94  38 1.94  23 1.99
  93  0.124  0.249  0.359-  27 1.90  23 1.94  24 2.00
  94  0.049  0.249  0.453-  24 1.92  27 1.97  28 2.01
  95  0.764  0.249  0.417-  25 1.94  41 1.94  24 1.98
  96  0.909  0.083  0.394-   8 1.93  24 1.93  25 2.00
  97  0.764  0.083  0.499-  29 1.86  25 1.97  30 2.01
  98  0.549  0.083  0.453-  26 1.92  25 1.98  30 2.00
  99  0.264  0.083  0.418-  27 1.94  11 1.94  26 1.99
 100  0.409  0.249  0.394-  42 1.93  26 1.93  27 2.01
 101  0.264  0.250  0.499-  31 1.86  27 1.97  28 2.01
 102  0.193  0.250  0.595-  28 1.92  31 1.95  32 2.10
 103  0.904  0.249  0.557-  29 1.94  45 1.94  28 1.97
 104  0.051  0.083  0.536-  12 1.93  28 1.93  29 2.03
 105  0.913  0.083  0.639-  33 1.78  29 2.01  34 2.09
 106  0.693  0.083  0.594-  30 1.92  29 1.94  34 2.09
 107  0.404  0.083  0.559-  15 1.94  31 1.94  30 1.98
 108  0.549  0.249  0.535-  30 1.93  46 1.93  31 2.02
 109  0.412  0.248  0.639-  35 1.78  31 2.00  32 2.10
 110  0.347  0.250  0.735-  35 1.84  32 1.86
 111  0.052  0.250  0.709-  33 1.98  49 1.98  32 2.00
[...]
 133  0.266  0.583  0.501-  47 1.92  43 1.97  44 1.98
 134  0.193  0.583  0.596-  44 1.92  47 1.94  48 2.10
 135  0.904  0.583  0.558-  45 1.93  13 1.93  44 2.00
 136  0.052  0.416  0.535-  44 1.93  28 1.94  45 2.01
 137  0.914  0.415  0.638-  49 1.78  45 2.01  50 2.10
 138  0.694  0.414  0.594-  46 1.93  45 1.95  50 2.03
[...]
   -.494E+02 -.676E+02 -.308E+03   0.540E+02 0.741E+02 0.308E+03   -.468E+01 -.655E+01 0.831E-01   -.110E-04 -.834E-04 -.520E-02
   0.142E+02 0.229E+01 -.186E+04   -.555E+02 -.403E+01 0.188E+04   0.365E+02 0.154E+01 -.933E+01   0.215E-03 0.271E-04 -.311E-01
   0.700E+01 -.264E+00 0.297E+04   -.153E+01 0.268E+00 -.297E+04   -.131E+01 0.583E-02 -.374E+01   0.574E-04 -.101E-04 0.424E-01
   0.473E+01 -.339E+00 0.243E+04   -.656E+01 0.344E+00 -.244E+04   0.316E-01 -.562E-02 0.584E-01   0.507E-05 -.438E-05 0.400E-01
   0.715E+01 -.484E-01 0.297E+04   -.172E+01 0.470E-01 -.297E+04   -.130E+01 -.816E-02 -.372E+01   0.634E-04 -.629E-05 0.424E-01
   0.297E+01 -.333E-01 0.243E+04   -.486E+01 0.270E-01 -.244E+04   0.437E-01 0.121E-01 0.475E-01   -.740E-05 -.478E-05 0.400E-01
   -.234E+00 -.236E+00 0.111E+04   0.431E-01 0.239E+00 -.111E+04   0.154E+00 0.106E-02 -.154E-01   -.347E-04 0.551E-05 0.274E-01
   0.160E+01 -.228E+01 0.705E+03   -.157E+01 0.225E+01 -.705E+03   -.332E-01 0.337E-01 -.911E-01   0.514E-04 0.805E-05 0.221E-01
   0.200E+01 -.444E+00 0.111E+04   -.217E+01 0.429E+00 -.111E+04   0.152E+00 -.124E-02 -.361E-01   -.353E-04 0.360E-05 0.274E-01
   -.644E+01 0.231E+00 0.694E+03   0.644E+01 -.234E+00 -.694E+03   0.406E-01 0.143E-01 -.619E-01   0.530E-04 0.707E-05 0.220E-01
   -.598E+01 -.236E+01 -.690E+03   0.566E+01 0.236E+01 0.690E+03   0.276E+00 -.175E-01 0.580E-01   -.464E-04 0.111E-04 0.624E-03
   -.141E+02 -.506E+01 -.103E+04   0.142E+02 0.510E+01 0.103E+04   0.121E-01 -.969E-02 -.127E+00   0.327E-04 0.121E-04 -.554E-02
   0.297E+01 -.237E+01 -.658E+03   -.324E+01 0.236E+01 0.658E+03   0.265E+00 0.173E-01 0.356E-01   -.573E-04 0.200E-04 0.891E-03
   -.121E+01 -.208E+01 -.106E+04   0.129E+01 0.210E+01 0.106E+04   0.760E-02 -.235E-01 -.172E+00   0.494E-05 0.125E-04 -.590E-02
   0.287E+02 -.128E+02 -.245E+04   -.295E+02 0.128E+02 0.245E+04   0.863E+00 0.209E-01 -.327E+00   0.538E-04 -.430E-04 -.315E-01
   -.923E+02 -.284E+02 -.280E+04   0.920E+02 0.282E+02 0.280E+04   0.409E+00 0.197E+00 0.106E+01   -.197E-03 -.977E-04 -.362E-01
   -.110E+02 -.548E+02 -.235E+04   0.102E+02 0.548E+02 0.235E+04   0.753E+00 0.907E-02 -.172E+00   0.315E-04 -.263E-05 -.304E-01
   -.589E+02 -.349E+02 -.280E+04   0.584E+02 0.349E+02 0.280E+04   0.452E+00 0.212E-01 0.109E+01   -.778E-04 -.792E-04 -.363E-01
   0.699E+01 0.273E+00 0.297E+04   -.153E+01 -.278E+00 -.297E+04   -.131E+01 -.770E-02 -.373E+01   0.566E-04 0.866E-05 0.424E-01
   0.464E+01 0.210E-01 0.243E+04   -.651E+01 -.216E-01 -.244E+04   0.412E-01 0.545E-02 0.463E-01   0.405E-05 -.375E-06 0.400E-01
   0.700E+01 0.105E-01 0.297E+04   -.154E+01 -.108E-01 -.297E+04   -.131E+01 0.225E-02 -.373E+01   0.603E-04 -.470E-06 0.424E-01
   0.298E+01 0.688E-01 0.243E+04   -.487E+01 -.647E-01 -.244E+04   0.423E-01 -.521E-02 0.552E-01   -.639E-05 0.420E-05 0.400E-01
   -.352E+00 0.114E+00 0.111E+04   0.166E+00 -.125E+00 -.111E+04   0.156E+00 0.616E-02 -.123E-01   -.341E-04 -.559E-05 0.274E-01
   -.204E+01 0.797E-02 0.700E+03   0.202E+01 -.112E-01 -.700E+03   0.391E-01 -.104E-02 -.900E-01   0.526E-04 -.101E-05 0.221E-01
   0.205E+01 -.340E-01 0.111E+04   -.223E+01 0.316E-01 -.111E+04   0.143E+00 -.860E-03 -.401E-01   -.361E-04 -.589E-06 0.274E-01
   -.636E+01 -.800E-01 0.694E+03   0.636E+01 0.836E-01 -.694E+03   0.311E-01 0.833E-02 -.951E-01   0.529E-04 -.754E-05 0.220E-01
   -.618E+01 0.229E+01 -.690E+03   0.587E+01 -.229E+01 0.690E+03   0.283E+00 0.279E-01 0.572E-01   -.463E-04 -.122E-04 0.625E-03
   -.117E+02 0.351E-01 -.105E+04   0.117E+02 -.351E-01 0.105E+04   0.740E-01 0.784E-02 -.130E+00   0.847E-05 -.135E-05 -.571E-02
   -.913E+00 0.100E-01 -.679E+03   0.602E+00 -.116E-01 0.679E+03   0.279E+00 0.182E-01 0.966E-01   -.466E-04 -.165E-05 0.761E-03
   -.111E+01 0.204E+01 -.106E+04   0.119E+01 -.206E+01 0.106E+04   0.573E-02 0.297E-01 -.164E+00   0.471E-05 -.132E-04 -.590E-02
   0.290E+02 0.124E+02 -.245E+04   -.299E+02 -.124E+02 0.245E+04   0.875E+00 -.379E-01 -.320E+00   0.545E-04 0.411E-04 -.315E-01
   -.767E+02 -.163E+00 -.281E+04   0.763E+02 0.160E+00 0.281E+04   0.393E+00 -.385E-02 0.104E+01   -.177E-03 -.554E-05 -.363E-01
   0.107E+02 0.680E-01 -.244E+04   -.115E+02 -.645E-01 0.244E+04   0.812E+00 -.239E-02 -.278E+00   0.282E-04 -.462E-05 -.312E-01
   -.591E+02 0.353E+02 -.280E+04   0.587E+02 -.353E+02 0.280E+04   0.439E+00 -.170E-01 0.109E+01   -.729E-04 0.739E-04 -.363E-01
   0.698E+01 -.337E-02 0.297E+04   -.150E+01 0.399E-02 -.297E+04   -.131E+01 0.208E-02 -.372E+01   0.531E-04 0.170E-05 0.423E-01
   0.472E+01 0.349E+00 0.243E+04   -.656E+01 -.355E+00 -.244E+04   0.324E-01 0.120E-01 0.507E-01   0.268E-05 0.528E-05 0.400E-01
   0.715E+01 0.401E-01 0.297E+04   -.173E+01 -.383E-01 -.297E+04   -.131E+01 0.612E-02 -.373E+01   0.645E-04 0.710E-05 0.424E-01
   0.197E+01 0.118E-01 0.243E+04   -.380E+01 -.121E-01 -.244E+04   0.261E-01 0.552E-02 0.524E-01   -.146E-04 0.523E-06 0.400E-01
   0.573E+00 -.623E-01 0.111E+04   -.739E+00 0.615E-01 -.111E+04   0.120E+00 -.129E-02 0.416E-01   -.390E-04 0.717E-06 0.274E-01
   0.182E+01 0.225E+01 0.705E+03   -.179E+01 -.222E+01 -.705E+03   -.646E-02 -.297E-01 -.859E-01   0.510E-04 -.718E-05 0.221E-01
   0.188E+01 0.342E+00 0.111E+04   -.205E+01 -.331E+00 -.111E+04   0.145E+00 -.107E-01 -.439E-01   -.358E-04 -.245E-05 0.274E-01
   -.922E+01 0.746E-01 0.679E+03   0.923E+01 -.724E-01 -.679E+03   0.234E-01 0.936E-02 -.879E-02   0.534E-04 0.445E-06 0.218E-01
   -.305E+01 -.360E-01 -.692E+03   0.283E+01 0.350E-01 0.692E+03   0.160E+00 -.530E-02 0.971E-01   -.499E-04 0.128E-05 0.580E-03
   -.139E+02 0.490E+01 -.103E+04   0.140E+02 -.494E+01 0.103E+04   0.307E-01 0.766E-02 -.110E+00   0.336E-04 -.103E-04 -.554E-02
   0.293E+01 0.238E+01 -.657E+03   -.320E+01 -.237E+01 0.657E+03   0.256E+00 -.810E-02 0.508E-01   -.585E-04 -.181E-04 0.896E-03
   -.187E+01 0.182E+00 -.109E+04   0.194E+01 -.178E+00 0.109E+04   0.471E-02 -.141E-01 -.586E-01   -.933E-05 0.136E-05 -.665E-02
   0.442E+02 0.311E-01 -.244E+04   -.448E+02 -.293E-01 0.244E+04   0.612E+00 -.814E-02 -.197E+00   0.302E-04 0.310E-05 -.315E-01
   -.922E+02 0.287E+02 -.280E+04   0.918E+02 -.285E+02 0.280E+04   0.419E+00 -.176E+00 0.108E+01   -.190E-03 0.103E-03 -.362E-01
   -.116E+02 0.552E+02 -.235E+04   0.109E+02 -.552E+02 0.235E+04   0.763E+00 -.985E-02 -.161E+00   0.264E-04 0.671E-05 -.303E-01
   0.280E+02 -.579E+00 -.275E+04   -.279E+02 0.568E+00 0.275E+04   0.350E-01 0.123E-01 0.732E+00   -.213E-03 0.615E-05 -.376E-01
   -.316E+02 -.183E+00 0.201E+04   0.369E+02 0.184E+00 -.202E+04   -.639E+01 -.359E-02 0.167E+02   -.886E-04 -.814E-05 0.265E-01
   -.321E+02 -.168E+00 0.201E+04   0.373E+02 0.167E+00 -.202E+04   -.640E+01 0.186E-02 0.167E+02   -.113E-03 -.879E-05 0.265E-01
   0.813E+02 0.257E-01 0.121E+04   -.862E+02 -.502E-01 -.121E+04   0.365E+01 0.223E-01 -.417E+01   -.531E-04 -.414E-06 0.224E-01
   0.744E+02 -.162E+00 0.148E+04   -.819E+02 0.166E+00 -.147E+04   0.711E+01 0.183E-03 -.254E+01   0.533E-04 -.684E-05 0.243E-01
   -.859E+02 -.201E+00 0.171E+04   0.935E+02 0.202E+00 -.171E+04   -.656E+01 0.249E-02 -.239E+00   0.602E-04 -.899E-05 0.254E-01
   -.684E+02 -.884E+00 0.935E+03   0.742E+02 0.916E+00 -.939E+03   -.531E+01 -.271E-01 0.412E+01   0.291E-04 0.143E-05 0.192E-01
   0.822E+02 0.269E-01 0.121E+04   -.871E+02 -.183E-01 -.121E+04   0.361E+01 -.107E-01 -.398E+01   -.485E-04 -.632E-06 0.224E-01
   0.733E+02 -.754E-02 0.148E+04   -.808E+02 0.373E-03 -.147E+04   0.712E+01 0.167E-01 -.255E+01   0.470E-04 0.438E-05 0.243E-01
   -.860E+02 -.667E-01 0.171E+04   0.936E+02 0.699E-01 -.171E+04   -.654E+01 -.736E-02 -.243E+00   0.604E-04 -.345E-05 0.254E-01
[...]
   0.872E+02 -.444E-01 -.959E+03   -.945E+02 0.550E-01 0.967E+03   0.659E+01 -.322E-02 -.717E+01   -.268E-04 0.110E-05 -.814E-02
   0.684E+02 -.173E+00 -.633E+03   -.747E+02 0.189E+00 0.637E+03   0.565E+01 -.150E-01 -.303E+01   0.853E-05 0.241E-05 -.299E-02
   -.826E+02 0.137E+01 -.401E+03   0.893E+02 -.145E+01 0.398E+03   -.609E+01 0.759E-01 0.265E+01   0.927E-05 -.404E-05 -.131E-05
   -.703E+02 0.154E+02 -.111E+04   0.730E+02 -.161E+02 0.110E+04   -.241E+01 0.595E+00 0.930E+01   0.223E-04 0.599E-05 -.136E-01
   0.802E+02 0.158E+02 -.917E+03   -.868E+02 -.166E+02 0.923E+03   0.595E+01 0.697E+00 -.533E+01   -.162E-04 -.204E-04 -.776E-02
   0.805E+02 0.203E+01 -.649E+03   -.872E+02 -.216E+01 0.653E+03   0.603E+01 0.114E+00 -.323E+01   -.171E-04 -.127E-04 -.320E-02
   -.719E+02 -.608E-01 -.403E+03   0.783E+02 0.668E-01 0.401E+03   -.578E+01 -.114E-01 0.214E+01   -.592E-05 0.331E-06 -.128E-03
   -.534E+02 -.457E+00 -.114E+04   0.589E+02 0.498E+00 0.113E+04   -.494E+01 -.459E-01 0.670E+01   0.159E-04 0.140E-05 -.142E-01
   0.109E+03 0.278E-02 -.201E+04   -.116E+03 -.117E-01 0.203E+04   0.594E+01 0.133E-01 -.202E+02   0.214E-03 0.427E-05 -.268E-01
   0.407E+02 -.137E-01 -.177E+04   -.446E+02 0.225E-01 0.178E+04   0.349E+01 -.162E-01 -.710E+01   -.122E-03 0.103E-05 -.230E-01
   -.491E+02 0.817E+01 -.145E+04   0.541E+02 -.806E+01 0.145E+04   -.455E+01 -.101E+00 0.297E+01   0.103E-04 0.216E-04 -.189E-01
   0.337E+01 0.391E+02 -.199E+04   -.873E+01 -.388E+02 0.201E+04   0.488E+01 -.251E+00 -.184E+02   -.937E-05 0.136E-03 -.262E-01
   0.835E+02 0.555E+02 -.172E+04   -.885E+02 -.555E+02 0.173E+04   0.455E+01 0.447E-02 -.656E+01   -.213E-04 0.513E-05 -.228E-01
   -.562E+02 -.306E+00 -.132E+04   0.597E+02 0.301E+00 0.131E+04   -.325E+01 -.369E-02 0.510E+01   0.524E-04 0.134E-05 -.181E-01
   -.437E+02 -.154E+01 0.801E+02   -.384E-12 0.174E-11 -.523E-11   0.391E+02 0.141E+01 -.720E+02   -.470E-04 0.239E-04 0.728E+00

 POSITION                                       TOTAL-FORCE (eV/Angst)
      7.12620      5.86719     19.49735        -0.304306      0.311545      0.044620
      7.07834      7.40329     19.54031        -0.280340     -0.335946      0.022198
      6.49504      6.61614     19.55688         0.457030      0.025630     -0.203323
      8.29939     10.41358      6.17860         4.292726      0.006958      2.047175
      6.08041      8.51877      7.05919        -1.864135      0.001070     -2.173624
      3.16252      8.51877      6.17860         4.258143     -0.004023      2.022705
      0.94354     10.41358      7.05919        -1.906420     -0.000549     -2.175036
      9.70823     10.41653      9.74251        -0.018639      0.004787     -0.024625
      7.46699      8.51530     10.53688        -0.009693     -0.006684     -0.010578
      4.56332      8.51729      9.73765        -0.015395     -0.008503     -0.016109
      2.31709     10.41383     10.55258        -0.002995      0.003127     -0.008048
      0.88600     10.41929     13.30855        -0.005468      0.003575      0.007318
      8.89080      8.51622     14.00205        -0.013577      0.003946      0.006962
      6.00380      8.51968     13.27519        -0.009683     -0.002688      0.006393
      3.73988     10.41619     14.04341        -0.004767      0.003590      0.005350
      2.37439     10.40804     16.94761         0.134786     -0.007900      0.264781
      0.00080      8.51036     17.49226        -0.266694     -0.021838     -0.083448
      7.48737      8.50941     16.84011         0.087047     -0.015811      0.212292
      5.17150     10.42543     17.49800        -0.317084     -0.004038     -0.072283
      8.29939      2.83437      6.17860         4.293492     -0.006659      2.046933
      6.08041      0.93957      7.05919        -1.890304     -0.000005     -2.170612
      3.16252      0.93957      6.17860         4.284327     -0.000960      2.040011
      0.94354      2.83437      7.05919        -1.905621      0.000975     -2.175278
      9.70793      2.83400      9.74246        -0.013990     -0.007509     -0.024151
      7.45859      0.94078     10.54238        -0.010437     -0.003799     -0.015647
      4.56525      0.94027      9.74200        -0.013880     -0.002710     -0.018147
      2.31721      2.83557     10.55224        -0.005759     -0.000931     -0.010954
      0.88573      2.83383     13.30815        -0.002509     -0.002691      0.007966
      8.87573      0.94206     14.02068        -0.016196     -0.000485      0.000368
      6.01072      0.94145     13.29279        -0.010290      0.000466      0.003505
      3.73962      2.83538     14.04328        -0.006408     -0.003876      0.004688
      2.37419      2.84586     16.94741         0.135088      0.007421      0.264906
      0.02814      0.94277     17.49234        -0.305453     -0.003529     -0.056945
      7.52107      0.94159     16.91601         0.124877     -0.000489      0.259004
      5.17113      2.82595     17.49748        -0.315689      0.005459     -0.073530
      8.29939      6.62397      6.17860         4.299694     -0.000208      2.038066
      6.08041      4.72917      7.05919        -1.862759      0.000287     -2.173233
      3.16252      4.72917      6.17860         4.255776      0.004767      2.020829
      0.94354      6.62397      7.05919        -1.870333      0.000311     -2.110807
      9.72353      6.62543      9.73659        -0.016015     -0.001215     -0.035986
      7.46737      4.73521     10.53664        -0.008100      0.007430     -0.008515
      4.56309      4.73221      9.73742        -0.015477      0.006062     -0.018071
      2.32131      6.62471     10.58159        -0.003138      0.001165     -0.016652
      0.91630      6.62697     13.31408         0.005168     -0.002580     -0.000209
      8.89170      4.73694     14.00116        -0.012336     -0.005567      0.007510
      6.00310      4.73197     13.27426        -0.007537      0.007120      0.007204
      3.76120      6.62596     14.12670        -0.002824     -0.001670      0.005516
      2.40893      6.62656     16.96081         0.129485     -0.001509      0.236173
     10.27296      4.74371     17.49310        -0.265349      0.026360     -0.088055
      7.48577      4.74301     16.83609         0.082549      0.012153      0.208835
      5.19016      6.62568     17.66659        -0.225378     -0.002773      0.091553
      5.01582      8.51877      5.44312        -2.109862     -0.002132      1.557852
     10.15269     10.41358      5.44312        -2.116712      0.000995      1.550717
      9.36399     10.41358      7.79467        -0.819488      0.001176     -0.346988
      6.44609     10.41358      6.91407         0.709050      0.002434     -0.217347
      7.93372      8.51877      6.32372         0.030833      0.002339     -1.116549
      6.41366      8.51877      8.96550        -0.302843      0.002592      0.592742
      4.22711      8.51877      7.79467        -0.832824     -0.002700     -0.323124
      1.30921      8.51877      6.91407         0.713263      0.012074     -0.223992
      2.79684     10.41358      6.32372         0.038765     -0.005036     -1.119358
[...]
      2.72817      6.62525     12.51382        -0.274106     -0.002975      0.167697
      1.98527      6.62686     14.90732         0.268314      0.003865     -0.235981
      9.29033      6.62630     13.95045         0.239912     -0.000336     -0.099129
      0.52926      4.73423     13.38365        -0.262527      0.005388      0.100452
      9.38611      4.71719     15.95241        -0.134098      0.012256      0.344500
      7.13042      4.70139     14.84234         0.235936      0.024080     -0.185535
      4.15814      4.73323     13.99082         0.248239      0.003192     -0.114820
      5.65798      6.62575     13.40584        -0.246779     -0.005779      0.088995
      4.24724      6.62769     16.06170        -0.226501     -0.009351      0.263833
      3.54223      6.62603     18.44083         0.245783      0.004118     -0.681961
      0.52923      6.62674     17.72076         0.158399     -0.008159     -0.158966
      1.99958      4.73727     16.95421        -0.256879     -0.006473      0.171588
      8.63898      4.80105     18.34066         0.237130     -0.036475     -0.629094
      5.69352      4.71342     17.70097         0.190739     -0.030851     -0.149350
      7.11547      6.62677     16.79316        -0.199092     -0.008105      0.208025
    total drift:                               -0.045344      0.011392      0.064714

  FREE ENERGIE OF THE ION-ELECTRON SYSTEM (eV)
  free  energy   TOTEN  =     -1591.78302055 eV

  energy  without entropy=    -1591.78302055  energy(sigma->0) =    -1591.78302055

     |            E. Caldeweyher, S. Ehlert & S. Grimme          |
     |          Mulliken Center for Theoretical Chemistry        |
     |                    University of Bonn                     |

Rational (Becke-Johnson) damping: hse06-D4-ATM
  s6         1.0000
  s8         1.1953
  s9         1.0000
  a1         0.3866
  a2         5.1913
 alp        16.0000

Dispersion energy:      -7.7491205595339E-01 Eh