 vasp.6.3.0 20Jan22 (build Apr  1 2022 16:44:48) complex
 executed on        HPECrayEX_GCC date 2022.11.01  21:14:55

 INCAR:
   SYSTEM = MgO-rocksalt
   ISMEAR = 0
   SIGMA = 0.05
   EDIFF = 1E-9
   ALGO = ALL
   ISTART = 0
   IBRION = 2
   NSW = 1000
   ISYM = 0
   ISIF = 2
   EDIFFG = -0.01
   DIPOL = 0.5 0.5 0.5
   IDIPOL = 3
   LDIPOL = .TRUE.
   GGA = RE
   AGGAC = 0.0
   LUSE_VDW = .TRUE.
   LASPH = .TRUE.
   ENCUT = 600
   PREC = Accurate
   LASPH = .TRUE.
   LREAL = .FALSE.
   ISPIN = 2
   MAGMOM = 1.0 0.0 0.0 0.0 0.0 0.0 0.0 0.0 0.0 0.0 0.0 0.0 0.0 0.0 0.0 0.0 0.0 0.0 0.0 0.0 0.0 0.0 0.0 0.0 0.0 0.0 0.0 0.0 0.0 0.0 0.0 0.0 0.0 0.0 0.0 0.0 0.0 0.0 0.0 0.0 0.0 0.0 0.0 0.0 0.0 0.0 0.0 0.0 0.0 0.0 0.0 0.0 0.0 0.0 0.0 0.0 0.0 0.0 0.0 0.0 0.0 0.0 0.0 0.0 0.0 0.0
   NELM = 200
   NELMIN = 8
   NCORE = 8
   KPAR = 1
   LWAVE = .FALSE.
   LCHARG = .FALSE.

 POTCAR:    PAW_PBE N 08Apr2002
 POTCAR:    PAW_PBE O 08Apr2002
 POTCAR:    PAW_PBE Mg_pv 13Apr2007
 POTCAR:    PAW_PBE O 08Apr2002
|               ----> ADVICE to this user running VASP <----                  |
|     You have switched on vdW-DFT.                                           |
|     This routine was written and supplied by Jiri Klimes. We recommend      |
|     that you carefully read and cite the following publications:            |
|       J. Klimes, D.R. Bowler, A. Michelides                                 |
|          J. Phys.: Cond Matt. 22 022201 (2010)                              |
|       J. Klimes, D.R. Bowler, A. Michelides                                 |
|          Phys. Rev. B. 83, 195131 (2011)                                    |
|     and references therein.                                                 |

   TITEL  = PAW_PBE N 08Apr2002
   POMASS =   14.001; ZVAL   =    5.000    mass and valenz
   ENMAX  =  400.000; ENMIN  =  300.000 eV

[...]

   TITEL  = PAW_PBE Mg_pv 13Apr2007
   POMASS =   24.305; ZVAL   =    8.000    mass and valenz
   ENMAX  =  403.929; ENMIN  =  302.947 eV

   TITEL  = PAW_PBE O 08Apr2002
   POMASS =   16.000; ZVAL   =    6.000    mass and valenz
   ENMAX  =  400.000; ENMIN  =  300.000 eV

  PAW_PBE N 08Apr2002                   :
  PAW_PBE O 08Apr2002                   :
  PAW_PBE Mg_pv 13Apr2007               :
  PAW_PBE O 08Apr2002                   :

 POSCAR:  N  O Mg  O
  positions in direct lattice
 exchange correlation table for  LEXCH =       40
   RHO(1)=    0.500       N(1)  =     2000
   RHO(2)=  100.500       N(2)  =     4000

 ion  position               nearest neighbor table
   1  0.500  0.500  0.757-   2 1.17
   2  0.500  0.500  0.812-   1 1.17
   3  0.000  0.750  0.350-  35 2.14  37 2.14  38 2.14  45 2.14  54 2.14
   4  0.250  0.000  0.350-  36 2.14  37 2.14  38 2.14  46 2.14  53 2.14
   5  0.000  0.000  0.450-  37 2.14  36 2.14  35 2.14  43 2.14  52 2.14  41 2.14
   6  0.250  0.750  0.450-  38 2.14  36 2.14  35 2.14  44 2.14  51 2.14  42 2.14
   7  0.000  0.750  0.550-  41 2.14  42 2.14  49 2.14  58 2.14  35 2.15  39 2.16
   8  0.250  0.000  0.550-  41 2.14  42 2.14  50 2.14  57 2.14  36 2.15  40 2.16
   9  0.000  0.000  0.650-  41 2.13  40 2.14  39 2.14  47 2.14  56 2.14
  10  0.250  0.750  0.650-  42 2.13  40 2.14  39 2.14  48 2.14  55 2.14
  11  0.000  0.250  0.350-  43 2.14  37 2.14  45 2.14  46 2.14  62 2.14
  12  0.250  0.500  0.350-  44 2.14  38 2.14  45 2.14  46 2.14  61 2.14
  13  0.000  0.500  0.450-  45 2.14  43 2.14  44 2.14  35 2.14  60 2.14  49 2.14
  14  0.250  0.250  0.450-  46 2.14  43 2.14  44 2.14  36 2.14  59 2.14  50 2.14
  15  0.000  0.250  0.550-  41 2.14  49 2.14  50 2.14  66 2.14  43 2.15  47 2.16
  16  0.250  0.500  0.550-  42 2.14  49 2.14  50 2.14  65 2.14  44 2.15  48 2.16
  17  0.000  0.500  0.650-  49 2.13  47 2.14  48 2.14  39 2.14  64 2.14
  18  0.250  0.250  0.650-  50 2.13  47 2.14  48 2.14  40 2.14  63 2.14
  19  0.500  0.750  0.350-  51 2.14  38 2.14  53 2.14  54 2.14  61 2.14
  20  0.750  0.000  0.350-  52 2.14  37 2.14  53 2.14  54 2.14  62 2.14
  21  0.500  0.000  0.450-  53 2.14  51 2.14  52 2.14  36 2.14  59 2.14  57 2.14
  22  0.750  0.750  0.450-  54 2.14  51 2.14  52 2.14  35 2.14  60 2.14  58 2.14
  23  0.500  0.750  0.550-  42 2.14  57 2.14  58 2.14  65 2.14  51 2.15  55 2.16
  24  0.750  0.000  0.550-  41 2.14  57 2.14  58 2.14  66 2.14  52 2.15  56 2.16
  25  0.500  0.000  0.650-  57 2.13  55 2.14  56 2.14  40 2.14  63 2.14
  26  0.750  0.750  0.650-  58 2.13  55 2.14  56 2.14  39 2.14  64 2.14
  27  0.500  0.250  0.350-  59 2.14  53 2.14  46 2.14  61 2.14  62 2.14
  28  0.750  0.500  0.350-  60 2.14  54 2.14  45 2.14  61 2.14  62 2.14
  29  0.500  0.500  0.450-  61 2.14  51 2.14  59 2.14  60 2.14  44 2.14  65 2.14
  30  0.750  0.250  0.450-  62 2.14  52 2.14  59 2.14  60 2.14  43 2.14  66 2.14
  31  0.500  0.250  0.550-  50 2.14  57 2.14  65 2.14  66 2.14  59 2.15  63 2.16
  32  0.750  0.500  0.550-  49 2.14  58 2.14  65 2.14  66 2.14  60 2.15  64 2.16
  33  0.500  0.500  0.650-  65 2.13  55 2.14  63 2.14  64 2.14  48 2.14
  34  0.750  0.250  0.650-  66 2.13  56 2.14  63 2.14  64 2.14  47 2.14
  35  0.000  0.750  0.450-   3 2.14   5 2.14   6 2.14  13 2.14  22 2.14   7 2.15
  36  0.250  0.000  0.450-   4 2.14   5 2.14   6 2.14  14 2.14  21 2.14   8 2.15
  37  0.000  0.000  0.350-   5 2.14   4 2.14   3 2.14  11 2.14  20 2.14
  38  0.250  0.750  0.350-   6 2.14   4 2.14   3 2.14  12 2.14  19 2.14
  39  0.000  0.750  0.651-   9 2.14  10 2.14  17 2.14  26 2.14   7 2.16
  40  0.250  0.000  0.651-   9 2.14  10 2.14  18 2.14  25 2.14   8 2.16
  41  0.000  0.000  0.550-   9 2.13   8 2.14   7 2.14  15 2.14  24 2.14   5 2.14
  42  0.250  0.750  0.550-  10 2.13   8 2.14   7 2.14  16 2.14  23 2.14   6 2.14
  43  0.000  0.250  0.450-  11 2.14   5 2.14  13 2.14  14 2.14  30 2.14  15 2.15
  44  0.250  0.500  0.450-  12 2.14   6 2.14  13 2.14  14 2.14  29 2.14  16 2.15
  45  0.000  0.500  0.350-  13 2.14  11 2.14  12 2.14   3 2.14  28 2.14
  46  0.250  0.250  0.350-  14 2.14  11 2.14  12 2.14   4 2.14  27 2.14
  47  0.000  0.250  0.651-   9 2.14  17 2.14  18 2.14  34 2.14  15 2.16
  48  0.250  0.500  0.651-  10 2.14  17 2.14  18 2.14  33 2.14  16 2.16
  49  0.000  0.500  0.550-  17 2.13  15 2.14  16 2.14   7 2.14  32 2.14  13 2.14
  50  0.250  0.250  0.550-  18 2.13  15 2.14  16 2.14   8 2.14  31 2.14  14 2.14
  51  0.500  0.750  0.450-  19 2.14   6 2.14  21 2.14  22 2.14  29 2.14  23 2.15
  52  0.750  0.000  0.450-  20 2.14   5 2.14  21 2.14  22 2.14  30 2.14  24 2.15
  53  0.500  0.000  0.350-  21 2.14  19 2.14  20 2.14   4 2.14  27 2.14
  54  0.750  0.750  0.350-  22 2.14  19 2.14  20 2.14   3 2.14  28 2.14
  55  0.500  0.750  0.651-  10 2.14  25 2.14  26 2.14  33 2.14  23 2.16
  56  0.750  0.000  0.651-   9 2.14  25 2.14  26 2.14  34 2.14  24 2.16
  57  0.500  0.000  0.550-  25 2.13  23 2.14  24 2.14   8 2.14  31 2.14  21 2.14
  58  0.750  0.750  0.550-  26 2.13  23 2.14  24 2.14   7 2.14  32 2.14  22 2.14
  59  0.500  0.250  0.450-  27 2.14  21 2.14  14 2.14  29 2.14  30 2.14  31 2.15
  60  0.750  0.500  0.450-  28 2.14  22 2.14  13 2.14  29 2.14  30 2.14  32 2.15
  61  0.500  0.500  0.350-  29 2.14  19 2.14  27 2.14  28 2.14  12 2.14
  62  0.750  0.250  0.350-  30 2.14  20 2.14  27 2.14  28 2.14  11 2.14
  63  0.500  0.250  0.651-  18 2.14  25 2.14  33 2.14  34 2.14  31 2.16
  64  0.750  0.500  0.651-  17 2.14  26 2.14  33 2.14  34 2.14  32 2.16
  65  0.500  0.500  0.550-  33 2.13  23 2.14  31 2.14  32 2.14  16 2.14  29 2.14
  66  0.750  0.250  0.550-  34 2.13  24 2.14  31 2.14  32 2.14  15 2.14  30 2.14

IMPORTANT INFORMATION: All symmetrisations will be switched off!
NOSYMM: (Re-)initialisation of all symmetry stuff for point group C_1.

                                     Primitive cell

  volume of cell :    1563.6717

  direct lattice vectors                    reciprocal lattice vectors
     8.546113626  0.000000000  0.000000000     0.117012252  0.000000000  0.000000000
     0.000000000  8.546113626  0.000000000     0.000000000  0.117012252  0.000000000
     0.000000000  0.000000000 21.409585219     0.000000000  0.000000000  0.046708051

  length of vectors
     8.546113626  8.546113626 21.409585219     0.117012252  0.117012252  0.046708051

  position of ions in fractional coordinates (direct lattice)
     0.500000000  0.500000000  0.757106758
     0.500000000  0.500000001  0.811924447
     0.000000000  0.750000000  0.350310383
     0.250000000  0.000000000  0.350310383
     0.000000000  0.000000000  0.450103461
     0.250000000  0.750000000  0.450103461
     0.000000000  0.750000000  0.550423065
     0.250000000  0.000000000  0.550423065
     0.000000000  0.000000000  0.649678241
     0.250000000  0.750000000  0.649678241
     0.000000000  0.250000000  0.350310383
     0.250000000  0.500000000  0.350310383
     0.000000000  0.500000000  0.450103461
     0.250000000  0.250000000  0.450103461
     0.000000000  0.250000000  0.550423065
     0.250000000  0.500000000  0.550423065
     0.000000000  0.500000000  0.649678241
     0.250000000  0.250000000  0.649678241
     0.500000000  0.750000000  0.350310383
     0.750000000  0.000000000  0.350310383
     0.500000000  0.000000000  0.450103461
     0.750000000  0.750000000  0.450103461
     0.500000000  0.750000000  0.550423065
     0.750000000  0.000000000  0.550423065
     0.500000000  0.000000000  0.649678241
     0.750000000  0.750000000  0.649678241
     0.500000000  0.250000000  0.350310383
     0.750000000  0.500000000  0.350310383
     0.500000000  0.500000000  0.450103461
     0.750000000  0.250000000  0.450103461
     0.500000000  0.250000000  0.550423065
     0.750000000  0.500000000  0.550423065
     0.500000000  0.500000000  0.649678241
     0.750000000  0.250000000  0.649678241
     0.000000000  0.750000000  0.450103461
     0.250000000  0.000000000  0.450103461
     0.000000000  0.000000000  0.350310383
     0.250000000  0.750000000  0.350310383
     0.000000000  0.750000000  0.651489980
     0.250000000  0.000000000  0.651489980
     0.000000000  0.000000000  0.550159231
     0.250000000  0.750000000  0.550159231
     0.000000000  0.250000000  0.450103461
     0.250000000  0.500000000  0.450103461
     0.000000000  0.500000000  0.350310383
     0.250000000  0.250000000  0.350310383
     0.000000000  0.250000000  0.651489980
     0.250000000  0.500000000  0.651489980
     0.000000000  0.500000000  0.550159231
     0.250000000  0.250000000  0.550159231
     0.500000000  0.750000000  0.450103461
     0.750000000  0.000000000  0.450103461
     0.500000000  0.000000000  0.350310383
     0.750000000  0.750000000  0.350310383
     0.500000000  0.750000000  0.651489980
     0.750000000  0.000000000  0.651489980
     0.500000000  0.000000000  0.550159231
     0.750000000  0.750000000  0.550159231
     0.500000000  0.250000000  0.450103461
     0.750000000  0.500000000  0.450103461
     0.500000000  0.500000000  0.350310383
     0.750000000  0.250000000  0.350310383
     0.500000000  0.250000000  0.651489980
     0.750000000  0.500000000  0.651489980
     0.500000000  0.500000000  0.550159231
     0.750000000  0.250000000  0.550159231

  ion indices of the primitive-cell ions
   primitive index   ion index
                 1           1
[...]
   0.00000000  0.00000000 13.90934166
   2.13652841  6.40958522 13.90934166
   0.00000000  2.13652841  7.50000000
   2.13652841  4.27305681  7.50000000
   0.00000000  4.27305681  9.63652841
   2.13652841  2.13652841  9.63652841
   0.00000000  2.13652841 11.78432951
   2.13652841  4.27305681 11.78432951
   0.00000000  4.27305681 13.90934166
   2.13652841  2.13652841 13.90934166
   4.27305681  6.40958522  7.50000000
   6.40958522  0.00000000  7.50000000
   4.27305681  0.00000000  9.63652841
   6.40958522  6.40958522  9.63652841
   4.27305681  6.40958522 11.78432951
   6.40958522  0.00000000 11.78432951
   4.27305681  0.00000000 13.90934166
   6.40958522  6.40958522 13.90934166
   4.27305681  2.13652841  7.50000000
   6.40958522  4.27305681  7.50000000
   4.27305681  4.27305681  9.63652841
   6.40958522  2.13652841  9.63652841
   4.27305681  2.13652841 11.78432951
   6.40958522  4.27305681 11.78432951
   4.27305681  4.27305681 13.90934166
   6.40958522  2.13652841 13.90934166
   0.00000000  6.40958522  9.63652841
   2.13652841  0.00000000  9.63652841
   0.00000000  0.00000000  7.50000000
   2.13652841  6.40958522  7.50000000
   0.00000000  6.40958522 13.94813025
   2.13652841  0.00000000 13.94813025
   0.00000000  0.00000000 11.77868095
   2.13652841  6.40958522 11.77868095
   0.00000000  2.13652841  9.63652841
   2.13652841  4.27305681  9.63652841
   0.00000000  4.27305681  7.50000000
   2.13652841  2.13652841  7.50000000
   0.00000000  2.13652841 13.94813025
   2.13652841  4.27305681 13.94813025
   0.00000000  4.27305681 11.77868095
   2.13652841  2.13652841 11.77868095
   4.27305681  6.40958522  9.63652841
   6.40958522  0.00000000  9.63652841
   4.27305681  0.00000000  7.50000000
   6.40958522  6.40958522  7.50000000
   4.27305681  6.40958522 13.94813025
   6.40958522  0.00000000 13.94813025
   4.27305681  0.00000000 11.77868095
   6.40958522  6.40958522 11.77868095
   4.27305681  2.13652841  9.63652841
   6.40958522  4.27305681  9.63652841
   4.27305681  4.27305681  7.50000000
   6.40958522  2.13652841  7.50000000
   4.27305681  2.13652841 13.94813025
   6.40958522  4.27305681 13.94813025
   4.27305681  4.27305681 11.77868095
   6.40958522  2.13652841 11.77868095

--------------------------------------- Iteration      FINAL  ---------------------------------------

--------------------OUTCAR has been truncated-------------------------

[...]

--------------------OUTCAR has been truncated-------------------------

  FORCE on cell =-STRESS in cart. coord.  units (eV):
  Direction    XX          YY          ZZ          XY          YZ          ZX
  Alpha Z   884.72509   884.72509   884.72509
  Ewald  152620.15741152620.15157************     0.24409    -0.00025    -0.00022
  Hartree163103.04487163103.06244************     6.15434    -0.00008    -0.00007
  E(xc)   -2570.85628 -2570.85542 -2571.15285     0.24178    -0.00000    -0.00000
  Local  ************************324784.60618   -17.73187     0.00030     0.00026
  n-local -2845.83398 -2845.84827 -2872.00887    -4.00272     0.00000     0.00000
  augment  1085.80349  1085.80723  1076.26612     1.03614     0.00000     0.00000
  Kinetic  7540.88484  7540.93549  7547.99150    13.88772     0.00003     0.00003
  Fock        0.00000     0.00000     0.00000     0.00000     0.00000     0.00000
  Total     -30.41851   -30.41784    -2.49927    -0.17054     0.00000     0.00000
  in kB     -31.16757   -31.16689    -2.56082    -0.17474     0.00000     0.00000

 VOLUME and BASIS-vectors are now :
  energy-cutoff  :      600.00
  volume of cell :     1563.67
      direct lattice vectors                 reciprocal lattice vectors
     8.546113626  0.000000000  0.000000000     0.117012252  0.000000000  0.000000000
     0.000000000  8.546113626  0.000000000     0.000000000  0.117012252  0.000000000
     0.000000000  0.000000000 21.409585219     0.000000000  0.000000000  0.046708051

  length of vectors
     8.546113626  8.546113626 21.409585219     0.117012252  0.117012252  0.046708051

 FORCES acting on ions:
    Electron-Ion                     Ewald-Force                    Non-Local-Force
   -.202E-03 -.226E-03 -.103E+04   0.233E-03 0.261E-03 0.994E+03   -.307E-04 -.345E-04 0.410E+02
   0.172E-03 0.194E-03 -.145E+04   -.213E-03 -.241E-03 0.151E+04   0.413E-04 0.467E-04 -.591E+02
   0.550E-02 -.145E+00 0.202E+04   -.584E-02 0.145E+00 -.201E+04   0.288E-03 0.425E-03 -.640E+01
   0.146E+00 -.549E-02 0.202E+04   -.145E+00 0.583E-02 -.201E+04   -.428E-03 -.288E-03 -.640E+01
   0.129E-04 0.112E-04 0.697E+03   -.139E-04 -.122E-04 -.697E+03   0.701E-06 0.720E-06 0.421E+00
   0.609E+00 -.608E+00 0.698E+03   -.604E+00 0.603E+00 -.699E+03   -.393E-02 0.393E-02 0.436E+00
   0.166E+00 -.294E+01 -.617E+03   -.174E+00 0.292E+01 0.617E+03   0.856E-02 0.160E-01 -.231E+00
   0.295E+01 -.166E+00 -.617E+03   -.293E+01 0.174E+00 0.617E+03   -.160E-01 -.856E-02 -.231E+00
   0.177E-04 0.160E-04 -.194E+04   -.170E-04 -.155E-04 0.194E+04   -.910E-06 -.613E-06 0.559E+01
   0.205E+02 -.205E+02 -.192E+04   -.206E+02 0.206E+02 0.191E+04   0.953E-01 -.960E-01 0.566E+01
   -.549E-02 0.145E+00 0.202E+04   0.583E-02 -.145E+00 -.201E+04   -.288E-03 -.425E-03 -.640E+01
   0.175E+00 0.618E-02 0.202E+04   -.173E+00 -.622E-02 -.201E+04   -.177E-02 0.299E-04 -.641E+01
   0.287E-04 -.127E-04 0.698E+03   -.306E-04 0.135E-04 -.698E+03   0.131E-05 -.610E-06 0.410E+00
   0.615E+00 0.614E+00 0.698E+03   -.603E+00 -.602E+00 -.698E+03   -.784E-02 -.784E-02 0.459E+00
   -.166E+00 0.294E+01 -.617E+03   0.174E+00 -.292E+01 0.617E+03   -.856E-02 -.160E-01 -.231E+00
   0.547E+01 0.184E+00 -.609E+03   -.536E+01 -.193E+00 0.610E+03   -.115E+00 0.847E-02 -.327E+00
   0.148E-04 -.295E-04 -.193E+04   -.115E-04 0.278E-04 0.192E+04   -.287E-05 0.193E-05 0.561E+01
   0.203E+02 0.203E+02 -.192E+04   -.205E+02 -.205E+02 0.192E+04   0.136E+00 0.137E+00 0.566E+01
   -.619E-02 -.175E+00 0.202E+04   0.623E-02 0.172E+00 -.201E+04   -.301E-04 0.177E-02 -.641E+01
   -.146E+00 0.550E-02 0.202E+04   0.145E+00 -.584E-02 -.201E+04   0.428E-03 0.288E-03 -.640E+01
   -.126E-04 0.272E-04 0.698E+03   0.136E-04 -.289E-04 -.698E+03   -.653E-06 0.119E-05 0.409E+00
   -.615E+00 -.614E+00 0.698E+03   0.603E+00 0.602E+00 -.698E+03   0.784E-02 0.784E-02 0.459E+00
   -.184E+00 -.546E+01 -.609E+03   0.193E+00 0.535E+01 0.610E+03   -.846E-02 0.115E+00 -.329E+00
   -.295E+01 0.166E+00 -.617E+03   0.293E+01 -.174E+00 0.617E+03   0.160E-01 0.856E-02 -.231E+00
   -.200E-04 0.772E-05 -.193E+04   0.190E-04 -.555E-05 0.192E+04   0.117E-05 -.172E-05 0.561E+01
   -.203E+02 -.203E+02 -.192E+04   0.205E+02 0.205E+02 0.192E+04   -.136E+00 -.137E+00 0.566E+01
   0.618E-02 0.175E+00 0.202E+04   -.622E-02 -.172E+00 -.201E+04   0.299E-04 -.177E-02 -.641E+01
   -.175E+00 -.619E-02 0.202E+04   0.173E+00 0.623E-02 -.201E+04   0.177E-02 -.301E-04 -.641E+01
   -.295E-04 -.293E-04 0.699E+03   0.311E-04 0.309E-04 -.699E+03   -.115E-05 -.113E-05 0.509E+00
   -.609E+00 0.608E+00 0.698E+03   0.604E+00 -.603E+00 -.699E+03   0.393E-02 -.393E-02 0.436E+00
   0.184E+00 0.546E+01 -.609E+03   -.193E+00 -.535E+01 0.610E+03   0.847E-02 -.115E+00 -.329E+00
   -.547E+01 -.184E+00 -.609E+03   0.536E+01 0.193E+00 0.610E+03   0.115E+00 -.846E-02 -.327E+00
   -.132E-04 -.279E-04 -.184E+04   0.923E-05 0.232E-04 0.184E+04   0.374E-05 0.474E-05 0.501E+01
   -.205E+02 0.205E+02 -.192E+04   0.206E+02 -.206E+02 0.191E+04   -.953E-01 0.960E-01 0.566E+01
   0.291E-01 -.400E+00 0.523E+03   -.212E-01 0.396E+00 -.523E+03   -.108E-01 0.496E-02 -.630E-01
   0.401E+00 -.291E-01 0.523E+03   -.397E+00 0.212E-01 -.523E+03   -.504E-02 0.108E-01 -.629E-01
   0.252E-05 0.238E-05 0.152E+04   -.270E-05 -.256E-05 -.152E+04   0.216E-06 0.210E-06 0.358E+01
   0.120E+00 -.119E+00 0.152E+04   -.118E+00 0.118E+00 -.152E+04   -.214E-02 0.213E-02 0.358E+01
   0.189E+00 -.794E+01 -.147E+04   -.208E+00 0.789E+01 0.148E+04   0.195E-01 0.470E-01 -.491E+01
   0.795E+01 -.189E+00 -.147E+04   -.789E+01 0.208E+00 0.148E+04   -.472E-01 -.195E-01 -.491E+01
   0.784E-05 0.178E-05 -.460E+03   -.834E-05 -.218E-05 0.460E+03   0.612E-06 0.806E-06 0.252E+00
   0.305E+01 -.305E+01 -.454E+03   -.305E+01 0.305E+01 0.454E+03   -.457E-02 0.442E-02 0.355E+00
   -.291E-01 0.400E+00 0.523E+03   0.212E-01 -.396E+00 -.523E+03   0.108E-01 -.496E-02 -.630E-01
   0.615E+00 0.412E-01 0.523E+03   -.638E+00 -.407E-01 -.523E+03   0.302E-01 -.802E-03 -.932E-01
   0.393E-05 -.243E-05 0.152E+04   -.417E-05 0.258E-05 -.152E+04   0.336E-06 -.231E-06 0.357E+01
   0.119E+00 0.119E+00 0.152E+04   -.118E+00 -.118E+00 -.152E+04   -.180E-02 -.180E-02 0.358E+01
   -.189E+00 0.795E+01 -.147E+04   0.208E+00 -.789E+01 0.148E+04   -.195E-01 -.470E-01 -.491E+01
   0.280E+02 0.245E+00 -.144E+04   -.278E+02 -.263E+00 0.144E+04   -.194E+00 0.179E-01 -.490E+01
   0.188E-04 -.993E-05 -.456E+03   -.199E-04 0.106E-04 0.455E+03   0.793E-06 -.777E-06 0.277E+00
   0.303E+01 0.303E+01 -.455E+03   -.301E+01 -.301E+01 0.455E+03   -.149E-01 -.148E-01 0.276E+00
   -.413E-01 -.614E+00 0.523E+03   0.407E-01 0.637E+00 -.523E+03   0.801E-03 -.303E-01 -.933E-01
   -.401E+00 0.291E-01 0.523E+03   0.397E+00 -.212E-01 -.523E+03   0.504E-02 -.108E-01 -.629E-01
   -.254E-05 0.380E-05 0.152E+04   0.270E-05 -.403E-05 -.152E+04   -.216E-06 0.324E-06 0.357E+01
   -.119E+00 -.119E+00 0.152E+04   0.118E+00 0.118E+00 -.152E+04   0.180E-02 0.180E-02 0.358E+01
   -.245E+00 -.279E+02 -.144E+04   0.263E+00 0.277E+02 0.144E+04   -.179E-01 0.194E+00 -.490E+01
   -.795E+01 0.189E+00 -.147E+04   0.789E+01 -.208E+00 0.148E+04   0.472E-01 0.195E-01 -.491E+01
   -.509E-05 0.125E-04 -.456E+03   0.562E-05 -.132E-04 0.455E+03   -.893E-06 0.691E-06 0.276E+00
   -.303E+01 -.303E+01 -.455E+03   0.301E+01 0.301E+01 0.455E+03   0.149E-01 0.148E-01 0.276E+00
   0.412E-01 0.614E+00 0.523E+03   -.407E-01 -.637E+00 -.523E+03   -.803E-03 0.303E-01 -.933E-01
   -.615E+00 -.413E-01 0.523E+03   0.638E+00 0.407E-01 -.523E+03   -.302E-01 0.801E-03 -.932E-01
   -.394E-05 -.383E-05 0.152E+04   0.419E-05 0.406E-05 -.152E+04   -.354E-06 -.328E-06 0.357E+01
   -.120E+00 0.119E+00 0.152E+04   0.118E+00 -.118E+00 -.152E+04   0.214E-02 -.213E-02 0.358E+01
   0.245E+00 0.279E+02 -.144E+04   -.263E+00 -.277E+02 0.144E+04   0.179E-01 -.194E+00 -.490E+01
   -.280E+02 -.245E+00 -.144E+04   0.278E+02 0.263E+00 0.144E+04   0.194E+00 -.179E-01 -.490E+01
   -.195E-04 -.243E-04 -.453E+03   0.203E-04 0.250E-04 0.454E+03   -.503E-06 -.950E-07 -.236E+00
   -.305E+01 0.305E+01 -.454E+03   0.305E+01 -.305E+01 0.454E+03   0.457E-02 -.442E-02 0.355E+00
   -.155E-04 -.140E-04 0.331E+02   0.101E-12 -.109E-12 -.341E-12   0.148E-04 0.137E-04 -.331E+02

 POSITION                                       TOTAL-FORCE (eV/Angst)
      4.27306      4.27306     16.39230         0.000000      0.000000      0.009771
      4.27306      4.27306     17.56960        -0.000000     -0.000000     -0.001351
      0.00000      6.40959      7.50000        -0.000051     -0.000192      0.323424
      2.13653      0.00000      7.50000         0.000194      0.000050      0.323424
      0.00000      0.00000      9.63653        -0.000000     -0.000000      0.019927
      2.13653      6.40959      9.63653         0.001590     -0.001590      0.022710
     -0.00091      6.40919     11.78220         0.000548     -0.003152      0.002510
      2.13692      0.00091     11.78219         0.003152     -0.000548      0.002507
      0.00000      0.00000     13.90597        -0.000000     -0.000000      0.000058
      2.13279      6.41334     13.90043        -0.001767      0.001771     -0.001839
      0.00000      2.13653      7.50000         0.000050      0.000192      0.323424
      2.13653      4.27306      7.50000         0.000429     -0.000004      0.324040
      0.00000      4.27306      9.63653        -0.000001      0.000000      0.030623
      2.13653      2.13653      9.63653         0.003808      0.003808      0.022653
      0.00091      2.13692     11.78220        -0.000548      0.003152      0.002510
      2.14054      4.27322     11.78566        -0.003207      0.000190     -0.000502
      0.00000      4.27306     13.90520         0.000000      0.000000     -0.004449
      2.13538      2.13537     13.90685        -0.001983     -0.001987     -0.002860
      4.27306      6.40959      7.50000         0.000004     -0.000427      0.324046
      6.40959      0.00000      7.50000        -0.000194     -0.000050      0.323424
      4.27306      0.00000      9.63653         0.000000     -0.000001      0.030624
      6.40959      6.40959      9.63653        -0.003808     -0.003808      0.022654
      4.27290      6.40558     11.78567        -0.000189      0.003208     -0.000496
      6.40920     -0.00091     11.78219        -0.003152      0.000548      0.002507
      4.27306      0.00000     13.90518         0.000000      0.000000     -0.004461
      6.41073      6.41075     13.90685         0.001983      0.001988     -0.002860
      4.27306      2.13653      7.50000        -0.000004      0.000427      0.324045
      6.40959      4.27306      7.50000        -0.000429      0.000004      0.324040
      4.27306      4.27306      9.63653         0.000000      0.000000      0.032712
      6.40959      2.13653      9.63653        -0.001590      0.001590      0.022710
      4.27322      2.14053     11.78567         0.000190     -0.003207     -0.000496
      6.40558      4.27290     11.78566         0.003207     -0.000190     -0.000503
      4.27306      4.27306     13.95143        -0.000000      0.000000     -0.007593
      6.41332      2.13278     13.90043         0.001767     -0.001772     -0.001839
      0.00000      6.40959      9.63653        -0.002890      0.001190      0.046468
      2.13653      0.00000      9.63653        -0.001216      0.002890      0.046462
      0.00000      0.00000      7.50000         0.000000      0.000000     -0.396391
      2.13653      6.40959      7.50000        -0.000607      0.000604     -0.396603
     -0.00078      6.41143     13.94643         0.000938     -0.004569      0.000565
      2.13468      0.00078     13.94642         0.004570     -0.000938      0.000561
     -0.00000     -0.00000     11.77659         0.000000      0.000000      0.000024
      2.13574      6.41037     11.77702         0.001027     -0.001030     -0.002061
      0.00000      2.13653      9.63653         0.002890     -0.001190      0.046468
      2.13653      4.27306      9.63653         0.007189     -0.000267      0.053884
      0.00000      4.27306      7.50000         0.000000     -0.000000     -0.396678
      2.13653      2.13653      7.50000        -0.000504     -0.000502     -0.396692
      0.00078      2.13468     13.94643        -0.000938      0.004569      0.000565
      2.12872      4.27573     13.94453         0.002489     -0.000264     -0.000083
      0.00000      4.27306     11.77695        -0.000000     -0.000000     -0.000916
      2.13681      2.13682     11.77869         0.000593      0.000596     -0.002399
      4.27306      6.40959      9.63653         0.000267     -0.007214      0.053869
      6.40959      0.00000      9.63653         0.001216     -0.002890      0.046462
      4.27306      0.00000      7.50000        -0.000000      0.000000     -0.396682
      6.40959      6.40959      7.50000         0.000504      0.000502     -0.396692
      4.27038      6.41741     13.94447         0.000265     -0.002480     -0.000106
      6.41144     -0.00078     13.94642        -0.004570      0.000937      0.000560
      4.27306      0.00000     11.77693        -0.000000     -0.000000     -0.000921
      6.40930      6.40930     11.77869        -0.000593     -0.000596     -0.002399
      4.27306      2.13653      9.63653        -0.000267      0.007214      0.053868
      6.40959      4.27306      9.63653        -0.007189      0.000267      0.053885
      4.27306      4.27306      7.50000        -0.000000     -0.000000     -0.397516
      6.40959      2.13653      7.50000         0.000607     -0.000604     -0.396603
      4.27573      2.12870     13.94447        -0.000264      0.002480     -0.000105
      6.41739      4.27038     13.94452        -0.002489      0.000265     -0.000084
      4.27306      4.27306     11.78548         0.000000      0.000001     -0.003741
      6.41037      2.13575     11.77702        -0.001027      0.001031     -0.002061
    total drift:                               -0.000001     -0.000000      0.011464

  FREE ENERGIE OF THE ION-ELECTRON SYSTEM (eV)
  free  energy   TOTEN  =      -235.81270601 eV

  energy  without entropy=     -235.81270596  energy(sigma->0) =     -235.81270598

 d Force = 0.1686381E-04[ 0.978E-05, 0.239E-04]  d Energy = 0.2044450E-04-0.358E-05
 d Force = 0.4516362E+01[ 0.452E+01, 0.452E+01]  d Ewald  = 0.4516363E+01-0.107E-05

 reached required accuracy - stopping structural energy minimisation