 vasp.6.3.0 20Jan22 (build Aug 21 2024 11:13:42) complex
 executed on        HPECrayEX_GCC date 2024.11.26  21:59:16

 INCAR:
   SYSTEM = TiO2
   ISMEAR = 0
   SIGMA = 0.05
   EDIFF = 1E-4
   ALGO = ALL
   ISTART = 0
   IBRION = -1
   NSW = 0
   ISYM = 0
   ISIF = 2
   EDIFFG = -0.01
   DIPOL = 0.5 0.5 0.5
   IDIPOL = 3
   LDIPOL = .TRUE.
   GGA = RE
   AGGAC = 0.0
   LUSE_VDW = .TRUE.
   LASPH = .TRUE.
   ENCUT = 600
   PREC = Accurate
   LASPH = .TRUE.
   LREAL = .FALSE.
   ISPIN = 1
   NELM = 200
   NELMIN = 8
   NCORE = 16
   KPAR = 1
   LWAVE = .FALSE.
   LCHARG = .FALSE.

 POTCAR:    PAW_PBE C 08Apr2002
 POTCAR:    PAW_PBE O 08Apr2002
 POTCAR:    PAW_PBE H 15Jun2001
 POTCAR:    PAW_PBE Ti_pv 07Sep2000
 POTCAR:    PAW_PBE O 08Apr2002
|               ----> ADVICE to this user running VASP <----                  |
|     You have switched on vdW-DFT.                                           |
|     This routine was written and supplied by Jiri Klimes. We recommend      |
|     that you carefully read and cite the following publications:            |
|       J. Klimes, D.R. Bowler, A. Michelides                                 |
|          J. Phys.: Cond Matt. 22 022201 (2010)                              |
|       J. Klimes, D.R. Bowler, A. Michelides                                 |
|          Phys. Rev. B. 83, 195131 (2011)                                    |
|     and references therein.                                                 |

   TITEL  = PAW_PBE C 08Apr2002
   POMASS =   12.011; ZVAL   =    4.000    mass and valenz
   ENMAX  =  400.000; ENMIN  =  300.000 eV

[...]

   TITEL  = PAW_PBE H 15Jun2001
   POMASS =    1.000; ZVAL   =    1.000    mass and valenz
   ENMAX  =  250.000; ENMIN  =  200.000 eV

   TITEL  = PAW_PBE Ti_pv 07Sep2000
   POMASS =   47.880; ZVAL   =   10.000    mass and valenz
   ENMAX  =  222.335; ENMIN  =  166.751 eV

   TITEL  = PAW_PBE O 08Apr2002
   POMASS =   16.000; ZVAL   =    6.000    mass and valenz
   ENMAX  =  400.000; ENMIN  =  300.000 eV

  PAW_PBE C 08Apr2002                   :
  PAW_PBE O 08Apr2002                   :
  PAW_PBE H 15Jun2001                   :
  PAW_PBE Ti_pv 07Sep2000               :
  PAW_PBE O 08Apr2002                   :

 POSCAR:  C  O  H Ti  O
  positions in direct lattice
 exchange correlation table for  LEXCH =       40
   RHO(1)=    0.500       N(1)  =     2000
   RHO(2)=  100.500       N(2)  =     4000

 ion  position               nearest neighbor table
   1  0.510  0.585  0.811-   3 1.10   5 1.10   6 1.10   2 1.45
   2  0.540  0.498  0.781-   4 1.01   1 1.45  86 2.15
   3  0.426  0.592  0.810-   1 1.10
   4  0.617  0.493  0.780-   2 1.01
   5  0.535  0.561  0.844-   1 1.10
   6  0.546  0.666  0.803-   1 1.10
   7  0.750  0.625  0.287-  87 1.96  88 1.96 147 1.96 148 1.96  90 1.99 169 1.99  17 2.96  37 2.96

   8  0.000  0.750  0.287-  89 1.96  90 1.96 109 1.96 110 1.96  91 1.99  38 2.96  18 2.96
   9  0.000  0.625  0.393-  91 1.96  92 1.96 151 1.96 152 1.96  93 1.99  94 1.99  19 2.96  39 2.96

[...]

  87  0.750  0.750  0.245-   7 1.96  17 1.96
  88  0.750  0.750  0.328-   7 1.96  17 1.96  10 1.99
  89  0.098  0.625  0.287-   8 1.96  38 1.96  47 1.99
  90  0.902  0.625  0.287-   8 1.96  38 1.96   7 1.99
  91  0.000  0.750  0.352-   9 1.96  19 1.96   8 1.99
  92  0.000  0.750  0.435-   9 1.96  19 1.96  12 1.99
  93  0.848  0.625  0.393-  10 1.96  40 1.96   9 1.99
  94  0.152  0.625  0.393-  50 1.96  80 1.96   9 1.99
  95  0.750  0.750  0.458-  11 1.96  21 1.96  10 1.99
  96  0.750  0.750  0.542-  11 1.96  21 1.96  14 2.10
  97  0.098  0.625  0.500-  12 1.96  42 1.96  51 1.99
  98  0.902  0.625  0.500-  12 1.96  42 1.96  11 1.99
  99  0.001  0.750  0.565-  23 1.90  13 1.90  12 2.01
 100  1.000  0.750  0.649-  16 1.82  13 2.02  23 2.02
 101  0.851  0.625  0.607-  14 1.94  44 1.95  13 2.02
 102  0.150  0.625  0.607-  13 1.90  54 2.01  84 2.01
 103  0.754  0.751  0.672-  14 1.88  15 2.07  25 2.09
 104  0.749  0.749  0.755-  15 1.83  25 1.84
 105  0.095  0.625  0.719-  46 1.95  16 1.95  55 2.04
 106  0.907  0.624  0.720-  46 1.95  16 1.96  15 2.03
 107  0.750  0.000  0.245-  17 1.96  27 1.96
 108  0.750  0.000  0.328-  17 1.96  27 1.96  20 1.99
 109  0.098  0.875  0.287-   8 1.96  18 1.96  57 1.99
 110  0.902  0.875  0.287-   8 1.96  18 1.96  17 1.99
 111  0.000  0.000  0.352-  19 1.96  29 1.96  18 1.99
 112  0.000  0.000  0.435-  19 1.96  29 1.96  22 1.99
 113  0.848  0.875  0.393-  10 1.96  20 1.96  19 1.99
 114  0.152  0.875  0.393-  50 1.96  60 1.96  19 1.99
 115  0.750  0.000  0.458-  21 1.96  31 1.96  20 1.99
 116  0.750  0.000  0.542-  21 1.96  31 1.96  24 2.11
 117  0.098  0.875  0.500-  12 1.96  22 1.96  61 1.99
 118  0.902  0.875  0.500-  12 1.96  22 1.96  21 1.99
 119  0.001  0.000  0.565-  33 1.90  23 1.90  22 2.01
 120  0.000  0.000  0.649-  26 1.82  23 2.02  33 2.02
 121  0.851  0.876  0.607-  24 1.94  14 1.95  23 2.02
 122  0.150  0.875  0.607-  23 1.90  54 2.01  64 2.01
 123  0.751  1.000  0.672-  24 1.88  35 2.09  25 2.09
 124  0.751  1.000  0.756-  35 1.83  25 1.83
 125  0.095  0.875  0.719-  16 1.94  26 1.95  65 2.05
 126  0.907  0.875  0.720-  16 1.95  26 1.95  25 2.05
 127  0.750  0.250  0.245-  27 1.96  37 1.96
 128  0.750  0.250  0.328-  27 1.96  37 1.96  30 1.99
 129  0.098  0.125  0.287-  18 1.96  28 1.96  67 1.99
 130  0.902  0.125  0.287-  18 1.96  28 1.96  27 1.99
 131  0.000  0.250  0.352-  29 1.96  39 1.96  28 1.99
 132  0.000  0.250  0.435-  29 1.96  39 1.96  32 1.99
 133  0.848  0.125  0.393-  20 1.96  30 1.96  29 1.99
 134  0.152  0.125  0.393-  60 1.96  70 1.96  29 1.99
 135  0.750  0.250  0.458-  31 1.96  41 1.96  30 1.99
 136  0.750  0.250  0.542-  31 1.96  41 1.96  34 2.09
 137  0.098  0.125  0.500-  22 1.96  32 1.96  71 1.99
 138  0.902  0.125  0.500-  22 1.96  32 1.96  31 1.99
 139  0.001  0.250  0.565-  33 1.90  43 1.90  32 2.01
 140  0.000  0.250  0.649-  36 1.82  43 2.02  33 2.02
 141  0.851  0.125  0.607-  24 1.94  34 1.94  33 2.03
 142  0.150  0.125  0.607-  33 1.89  64 2.01  74 2.02
 143  0.753  0.250  0.672-  34 1.88  45 2.06  35 2.10
 144  0.750  0.251  0.755-  45 1.83  35 1.84
 145  0.095  0.125  0.719-  36 1.94  26 1.95  75 2.05
 146  0.907  0.125  0.719-  36 1.95  26 1.95  35 2.05
[...]
 232  0.500  0.500  0.435-  49 1.96  79 1.96  82 1.99
 233  0.348  0.375  0.393-  70 1.96  80 1.96  79 1.99
 234  0.652  0.375  0.393-  30 1.96  40 1.96  79 1.99
 235  0.250  0.500  0.458-  51 1.96  81 1.96  80 1.99
 236  0.250  0.500  0.542-  51 1.96  81 1.96  84 2.11
 237  0.598  0.375  0.500-  72 1.96  82 1.96  41 1.99
 238  0.402  0.375  0.500-  72 1.96  82 1.96  81 1.99
 239  0.501  0.500  0.566-  53 1.90  83 1.90  82 2.01
 240  0.500  0.500  0.650-  86 1.93  53 1.98  83 1.98
 241  0.350  0.375  0.607-  74 1.94  84 1.94  83 2.03
 242  0.651  0.375  0.608-  83 1.91  34 2.01  44 2.01
 243  0.250  0.500  0.672-  84 1.87  55 2.09  85 2.10
 244  0.252  0.500  0.756-  85 1.84  55 1.84
 245  0.597  0.371  0.715-  76 1.92  86 1.97  45 2.03
 246  0.407  0.374  0.718-  86 1.94  76 1.95  85 2.04

IMPORTANT INFORMATION: All symmetrisations will be switched off!
NOSYMM: (Re-)initialisation of all symmetry stuff for point group C_1.

                                     Primitive cell

  volume of cell :    4737.1735

  direct lattice vectors                    reciprocal lattice vectors
    13.061198858  0.000000000  0.000000000     0.076562650  0.000000000  0.000000000
     0.000000000 11.845266045  0.000000000     0.000000000  0.084421911  0.000000000
     0.000000000  0.000000000 30.619030317     0.000000000  0.000000000  0.032659427

  length of vectors
    13.061198858 11.845266045 30.619030317     0.076562650  0.084421911  0.032659427

  position of ions in fractional coordinates (direct lattice)
     0.509872094  0.585202634  0.811453052
     0.540176521  0.497677985  0.781092194
     0.426237677  0.591531863  0.810078053
     0.617117940  0.493319431  0.779733426
     0.534596417  0.561027305  0.844449359
     0.545657125  0.666453761  0.802533298
     0.750000000  0.625000000  0.286714362
     0.000000000  0.750000000  0.286714362
     0.000000000  0.625000000  0.393357181
     0.750000000  0.750000000  0.393357181
     0.750000000  0.625000000  0.500000000
     0.000000000  0.750000000  0.500000000
     0.005305917  0.625094080  0.604401677
     0.754632802  0.750136232  0.610199044
     0.751311270  0.626057315  0.719060425
     0.000463868  0.750363496  0.708653661
     0.750000000  0.875000000  0.286714362
     0.000000000  0.000000000  0.286714362
     0.000000000  0.875000000  0.393357181
     0.750000000  0.000000000  0.393357181
     0.750000000  0.875000000  0.500000000
     0.000000000  0.000000000  0.500000000
     0.005463366  0.875066386  0.604463518
     0.754305508  0.000031495  0.610523670
     0.750221006  0.875116757  0.720187996
     0.000721878  0.999963468  0.708610229
     0.750000000  0.125000000  0.286714362
     0.000000000  0.250000000  0.286714362
     0.000000000  0.125000000  0.393357181
     0.750000000  0.250000000  0.393357181
     0.750000000  0.125000000  0.500000000
     0.000000000  0.250000000  0.500000000
     0.005630171  0.124972700  0.604454413
     0.754611078  0.249879134  0.610142129
     0.750167338  0.124328429  0.720189602
     0.000670098  0.249620903  0.708640952
     0.750000000  0.375000000  0.286714362
     0.000000000  0.500000000  0.286714362
     0.000000000  0.375000000  0.393357181
     0.750000000  0.500000000  0.393357181
     0.750000000  0.375000000  0.500000000
     0.000000000  0.500000000  0.500000000
     0.005385602  0.374992517  0.604395378
     0.754970435  0.500005885  0.610381482
     0.751994627  0.373241608  0.719114125
     0.001173532  0.500120144  0.708594614
     0.250000000  0.625000000  0.286714362
     0.500000000  0.750000000  0.286714362
     0.500000000  0.625000000  0.393357181
     0.250000000  0.750000000  0.393357181
     0.250000000  0.625000000  0.500000000
     0.500000000  0.750000000  0.500000000
     0.505504119  0.622510409  0.605810445
     0.254679998  0.749945891  0.610496130
     0.250701223  0.625286867  0.720136367
     0.501116889  0.750187069  0.707375604
     0.250000000  0.875000000  0.286714362
     0.500000000  0.000000000  0.286714362
     0.500000000  0.875000000  0.393357181
     0.250000000  0.000000000  0.393357181
[...]
     0.500000000  0.500000000  0.435125836
     0.347917178  0.375000000  0.393357181
     0.652082822  0.375000000  0.393357181
     0.250000000  0.500000000  0.458231344
     0.250000000  0.500000000  0.541768656
     0.597917178  0.375000000  0.500000000
     0.402082822  0.375000000  0.500000000
     0.500853813  0.499883548  0.565676257
     0.500107887  0.500340667  0.649797767
     0.350017814  0.375077102  0.607302591
     0.651285271  0.374938221  0.607708036
     0.250400671  0.500338751  0.671834871
     0.252356896  0.500179752  0.755633097
     0.596969601  0.371154432  0.714815010
     0.407054335  0.373978780  0.718394913

  ion indices of the primitive-cell ions
   primitive index   ion index
                 1           1
                 2           2
                 3           3
                 4           4
[...]
   6.60248982  7.37380141 18.54932839
   3.32642610  8.88330859 18.69279951
   3.27445853  7.40668930 22.04987726
   6.54518733  8.88616541 21.65915507
   3.26529971 10.36460779  8.77891573
   6.53059943  0.00000000  8.77891573
   6.53059943 10.36460779 12.04421544
   3.26529971  0.00000000 12.04421544
[...]
   6.53059943  5.92263302 13.32313117
   4.54421544  4.44197477 12.04421544
   8.51698341  4.44197477 12.04421544
   3.26529971  5.92263302 14.03059943
   3.26529971  5.92263302 16.58843089
   7.80951516  4.44197477 15.30951516
   5.25168370  4.44197477 15.30951516
   6.54175125  5.92125361 17.32045846
   6.53200857  5.92666831 19.89617752
   4.57165227  4.44288806 18.59501644
   8.50656643  4.44124297 18.60743077
   3.27053296  5.92664562 20.57093227
   3.29608361  5.92476224 23.13675269
   7.79713866  4.39642299 21.88694247
   5.31661762  4.42987815 21.99655562

--------------------------------------- Iteration      FINAL  ---------------------------------------

--------------------OUTCAR has been truncated-------------------------

[...]

--------------------OUTCAR has been truncated-------------------------

  FORCE on cell =-STRESS in cart. coord.  units (eV):
  Direction    XX          YY          ZZ          XY          YZ          ZX
  Alpha Z  4674.71811  4674.71811  4674.71811
  Ewald  967777.98191985376.69783************   -73.40551   131.96179   -71.06054
  Hartree************************************   -39.79337    77.00577   -47.79944
  E(xc)   -8874.24818 -8849.11135 -8874.87326    -0.04193     0.03346    -0.13146
  Local  ************************************   107.50456  -199.73439   115.83875
  n-local -5452.17721 -5372.71646 -5490.91166    -1.02677     1.73364    -0.62159
  augment  5308.51647  5287.00095  5314.23815     0.41308    -0.72383     0.06892
  Kinetic 28927.84813 28478.03065 28975.27250     6.15828    -9.99293     3.44151
  Fock        0.00000     0.00000     0.00000     0.00000     0.00000     0.00000
  Total     138.79176   121.93834    85.86531    -0.19167     0.28352    -0.26385
  in kB      46.94128    41.24123    29.04083    -0.06483     0.09589    -0.08924

 VOLUME and BASIS-vectors are now :
  energy-cutoff  :      600.00
  volume of cell :     4737.17
      direct lattice vectors                 reciprocal lattice vectors
    13.061198858  0.000000000  0.000000000     0.076562650  0.000000000  0.000000000
     0.000000000 11.845266045  0.000000000     0.000000000  0.084421911  0.000000000
     0.000000000  0.000000000 30.619030317     0.000000000  0.000000000  0.032659427

  length of vectors
    13.061198858 11.845266045 30.619030317     0.076562650  0.084421911  0.032659427

 FORCES acting on ions:
    Electron-Ion                     Ewald-Force                    Non-Local-Force
   0.392E+02 -.892E+02 -.160E+04   -.419E+02 0.944E+02 0.161E+04   0.256E+01 -.487E+01 -.473E+01
   0.196E+02 0.123E+03 -.250E+04   -.412E+02 -.148E+03 0.249E+04   0.218E+02 0.250E+02 0.103E+02
   0.583E+02 -.134E+02 -.392E+03   -.642E+02 0.138E+02 0.391E+03   0.603E+01 -.445E+00 0.174E+00
   -.685E+02 0.150E+02 -.426E+03   0.757E+02 -.156E+02 0.426E+03   -.739E+01 0.572E+00 0.350E+00
   -.125E+02 0.691E+01 -.384E+03   0.141E+02 -.837E+01 0.389E+03   -.168E+01 0.150E+01 -.545E+01
   -.174E+02 -.618E+02 -.390E+03   0.197E+02 0.667E+02 0.389E+03   -.245E+01 -.503E+01 0.129E+01
   -.199E+00 -.189E-01 0.377E+04   0.195E+00 0.192E-01 -.377E+04   0.125E-02 -.227E-04 0.400E+00
   -.631E-01 -.628E-01 0.395E+04   0.646E-01 0.629E-01 -.394E+04   -.307E-03 -.114E-04 -.368E+01
   -.203E+00 -.444E-01 0.193E+04   0.209E+00 0.445E-01 -.193E+04   -.106E-02 0.105E-03 -.432E-01
   -.445E+00 -.625E-01 0.192E+04   0.433E+00 0.629E-01 -.192E+04   0.280E-02 0.303E-04 0.203E+00
   -.160E+01 -.979E-01 0.175E+02   0.155E+01 0.805E-01 -.168E+02   0.123E-01 0.807E-03 -.114E+00
   0.660E+00 -.878E+00 0.246E+02   -.657E+00 0.883E+00 -.257E+02   -.104E-02 -.293E-02 0.336E+00
   0.833E+01 -.183E+01 -.184E+04   -.838E+01 0.183E+01 0.184E+04   -.183E-01 -.670E-02 0.135E+00
   -.300E+01 -.978E+01 -.189E+04   0.302E+01 0.979E+01 0.189E+04   -.494E-01 -.589E-02 -.145E+00
   -.100E+03 -.159E+02 -.368E+04   0.999E+02 0.157E+02 0.368E+04   0.192E+00 0.128E+00 -.707E-01
   -.576E+01 -.529E+01 -.375E+04   0.580E+01 0.529E+01 0.375E+04   -.501E-01 -.199E-01 0.905E+00
   -.207E+00 -.669E-01 0.377E+04   0.202E+00 0.671E-01 -.377E+04   0.124E-02 0.381E-04 0.400E+00
   -.603E-01 -.302E-01 0.395E+04   0.618E-01 0.303E-01 -.394E+04   -.252E-03 -.122E-04 -.368E+01
   -.168E+00 -.138E+00 0.193E+04   0.174E+00 0.137E+00 -.193E+04   -.102E-02 0.727E-04 -.432E-01
   -.531E+00 -.780E-01 0.192E+04   0.519E+00 0.776E-01 -.192E+04   0.264E-02 -.379E-04 0.203E+00
   -.294E+01 -.945E+00 0.161E+02   0.291E+01 0.972E+00 -.153E+02   0.881E-02 -.924E-03 -.115E+00
   0.106E+01 -.258E+00 0.233E+02   -.105E+01 0.257E+00 -.243E+02   -.560E-03 -.176E-03 0.333E+00
   0.114E+02 -.283E+01 -.185E+04   -.114E+02 0.284E+01 0.185E+04   -.205E-01 -.930E-02 0.137E+00
   0.801E+00 -.176E+01 -.191E+04   -.785E+00 0.176E+01 0.191E+04   -.610E-01 0.819E-03 -.158E+00
   -.296E+02 -.285E+02 -.373E+04   0.295E+02 0.285E+02 0.373E+04   0.573E-01 0.152E-01 -.214E+00
   -.506E+01 -.217E+01 -.376E+04   0.504E+01 0.217E+01 0.376E+04   0.250E-01 -.133E-02 0.947E+00
   -.202E+00 0.188E-01 0.377E+04   0.197E+00 -.192E-01 -.377E+04   0.124E-02 0.161E-04 0.400E+00
   -.635E-01 0.628E-01 0.395E+04   0.650E-01 -.629E-01 -.394E+04   -.295E-03 0.574E-05 -.368E+01
   -.170E+00 0.474E-01 0.193E+04   0.177E+00 -.474E-01 -.193E+04   -.111E-02 -.414E-04 -.432E-01
   -.411E+00 0.626E-01 0.192E+04   0.400E+00 -.630E-01 -.192E+04   0.267E-02 -.306E-04 0.203E+00
   -.280E+01 0.418E+00 0.156E+02   0.277E+01 -.458E+00 -.149E+02   0.977E-02 0.232E-02 -.115E+00
   0.673E+00 0.905E+00 0.242E+02   -.666E+00 -.909E+00 -.252E+02   -.151E-02 0.212E-02 0.337E+00
   0.126E+02 0.149E+01 -.185E+04   -.126E+02 -.149E+01 0.185E+04   -.190E-01 0.777E-02 0.140E+00
   -.189E+01 0.925E+01 -.189E+04   0.189E+01 -.925E+01 0.189E+04   -.460E-01 -.259E-03 -.156E+00
   -.221E+02 0.155E+02 -.373E+04   0.220E+02 -.155E+02 0.373E+04   0.547E-01 -.572E-02 -.226E+00
   -.483E+01 0.480E+01 -.375E+04   0.486E+01 -.479E+01 0.375E+04   -.404E-01 0.166E-01 0.906E+00
   -.194E+00 0.669E-01 0.377E+04   0.190E+00 -.671E-01 -.377E+04   0.123E-02 -.334E-04 0.400E+00
   -.662E-01 0.301E-01 0.395E+04   0.677E-01 -.303E-01 -.394E+04   -.264E-03 0.129E-04 -.368E+01
   -.206E+00 0.134E+00 0.193E+04   0.213E+00 -.134E+00 -.193E+04   -.115E-02 -.868E-04 -.432E-01
   -.328E+00 0.780E-01 0.192E+04   0.318E+00 -.775E-01 -.192E+04   0.251E-02 -.219E-04 0.203E+00
   -.142E+01 0.628E+00 0.171E+02   0.137E+01 -.598E+00 -.163E+02   0.127E-01 -.156E-02 -.113E+00
   0.502E+00 0.286E+00 0.255E+02   -.496E+00 -.285E+00 -.265E+02   -.238E-02 -.603E-03 0.335E+00
   0.896E+01 0.325E+01 -.185E+04   -.901E+01 -.326E+01 0.185E+04   -.195E-01 0.673E-02 0.137E+00
   -.393E+01 0.172E+01 -.188E+04   0.399E+01 -.172E+01 0.188E+04   -.102E+00 0.316E-02 -.152E+00
   -.853E+02 0.251E+02 -.369E+04   0.852E+02 -.248E+02 0.369E+04   0.114E+00 -.159E+00 -.722E-01
   -.776E+01 0.279E+01 -.375E+04   0.773E+01 -.280E+01 0.375E+04   0.332E-01 0.369E-02 0.858E+00
   0.195E+00 -.143E-01 0.377E+04   -.191E+00 0.143E-01 -.377E+04   -.119E-02 0.205E-04 0.399E+00
   0.673E-01 -.512E-01 0.395E+04   -.687E-01 0.515E-01 -.394E+04   0.303E-03 -.515E-04 -.368E+01
   0.298E+00 0.150E+00 0.193E+04   -.304E+00 -.138E+00 -.193E+04   0.715E-03 -.264E-02 -.451E-01
   0.353E+00 -.104E-01 0.192E+04   -.342E+00 0.107E-01 -.192E+04   -.203E-02 -.516E-04 0.198E+00
   0.663E+00 0.181E+00 0.149E+02   -.606E+00 -.195E+00 -.141E+02   -.105E-01 0.853E-03 -.124E+00
   0.299E+01 0.992E+00 0.292E+02   -.302E+01 -.108E+01 -.300E+02   0.228E-02 0.405E-01 0.251E+00
   0.174E+02 -.140E+02 -.183E+04   -.174E+02 0.142E+02 0.183E+04   -.381E-01 -.945E-01 0.947E-01
   0.194E+02 -.684E+01 -.190E+04   -.194E+02 0.684E+01 0.190E+04   -.677E-01 0.875E-02 -.153E+00
   0.641E+02 -.155E+02 -.369E+04   -.642E+02 0.155E+02 0.369E+04   0.724E-01 0.120E-01 -.232E+00
   0.254E+02 -.819E+02 -.366E+04   -.252E+02 0.820E+02 0.366E+04   -.187E+00 -.431E-01 0.110E+01
   0.202E+00 -.625E-01 0.377E+04   -.198E+00 0.628E-01 -.377E+04   -.119E-02 0.300E-05 0.399E+00
   0.646E-01 -.380E-01 0.395E+04   -.660E-01 0.380E-01 -.394E+04   0.267E-03 -.135E-04 -.368E+01
   0.265E+00 -.958E-03 0.193E+04   -.271E+00 0.113E-02 -.193E+04   0.815E-03 -.107E-02 -.461E-01
   0.436E+00 -.850E-01 0.192E+04   -.425E+00 0.849E-01 -.192E+04   -.206E-02 0.627E-04 0.198E+00
[...]
   -.542E+02 0.186E-01 0.115E+04   0.583E+02 -.194E-01 -.115E+04   -.362E+01 0.112E-02 0.157E+00
   0.543E+02 0.316E-01 0.116E+04   -.584E+02 -.322E-01 -.116E+04   0.363E+01 0.837E-03 0.164E+00
   0.176E+00 0.143E+00 0.511E+03   -.153E+00 -.145E+00 -.516E+03   -.330E-01 0.267E-02 0.424E+01
   0.263E+01 0.613E+00 -.509E+03   -.281E+01 -.617E+00 0.516E+03   0.162E+00 0.330E-02 -.704E+01
   -.555E+02 -.406E-01 0.163E+02   0.603E+02 0.382E-01 -.165E+02   -.509E+01 0.235E-01 0.243E+00
   0.567E+02 -.122E+00 0.138E+02   -.614E+02 0.116E+00 -.139E+02   0.513E+01 0.290E-01 0.216E+00
   0.986E+01 0.129E+01 -.601E+03   -.107E+02 -.135E+01 0.594E+03   0.803E+00 0.618E-01 0.689E+01
   0.177E+02 0.270E+01 -.159E+04   -.187E+02 -.261E+01 0.159E+04   0.955E+00 -.950E-01 -.257E+01
   -.444E+02 0.387E+01 -.111E+04   0.502E+02 -.392E+01 0.110E+04   -.563E+01 0.466E-01 0.124E+01
   0.929E+01 0.616E+01 -.111E+04   -.102E+02 -.631E+01 0.111E+04   0.896E+00 0.150E+00 0.572E+00
   0.236E+02 0.262E+01 -.178E+04   -.239E+02 -.266E+01 0.178E+04   0.305E+00 0.382E-01 -.195E+01
   0.593E+02 0.102E+02 -.269E+04   -.591E+02 -.102E+02 0.271E+04   -.208E+00 0.533E-01 -.202E+02
   -.534E+02 0.585E+02 -.219E+04   0.595E+02 -.583E+02 0.220E+04   -.599E+01 -.265E+00 -.662E+00
   0.720E+02 0.495E+02 -.227E+04   -.783E+02 -.497E+02 0.227E+04   0.624E+01 0.156E+00 -.311E+01
   0.406E+01 -.177E+02 0.828E+02   0.369E-11 0.178E-11 -.236E-10   -.407E+01 0.177E+02 -.828E+02

 POSITION                                       TOTAL-FORCE (eV/Angst)
      6.65954      6.93188     24.84591        -0.143463      0.372509      0.406909
      7.05535      5.89513     23.91629         0.284833     -0.296340      0.076815
      5.56718      7.00685     24.80380         0.138630     -0.004905      0.031063
      8.06030      5.84350     23.87468        -0.249625      0.013057      0.111419
      6.98247      6.64552     25.85622        -0.035454      0.037590     -0.095762
      7.12694      7.89432     24.57279        -0.068670     -0.107713      0.066042
      9.79590      7.40329      8.77892        -0.002884      0.000267     -3.586124
      0.00000      8.88395      8.77892         0.001139      0.000127      2.442564
      0.00000      7.40329     12.04422         0.005323      0.000189      0.520243
      9.79590      8.88395     12.04422        -0.008337      0.000454     -0.742524
      9.79590      7.40329     15.30952        -0.039979     -0.016673      0.600172
      0.00000      8.88395     15.30952         0.002844      0.001988     -0.708644
      0.06930      7.40441     18.50619        -0.010192     -0.002264      0.021852
      9.85641      8.88556     18.68370        -0.006657      0.002936     -0.033500
      9.81303      7.41582     22.01693         0.040555     -0.030846      0.013308
      0.00606      8.88826     21.69829        -0.003403     -0.008652      0.268211
      9.79590     10.36461      8.77892        -0.002985      0.000261     -3.586341
      0.00000      0.00000      8.77892         0.001265      0.000064      2.442294
      0.00000     10.36461     12.04422         0.005166     -0.000116      0.520456
      9.79590      0.00000     12.04422        -0.008507     -0.000441     -0.743484
      9.79590     10.36461     15.30952        -0.025310      0.026160      0.608055
      0.00000      0.00000     15.30952         0.002325     -0.000779     -0.705894
      0.07136     10.36539     18.50809        -0.014499     -0.001569      0.021582
      9.85213      0.00037     18.69364        -0.011918      0.000590     -0.030900
      9.79879     10.36599     22.05146         0.000362     -0.003891      0.018037
      0.00943     11.84483     21.69696         0.002066     -0.000597      0.270001
      9.79590      1.48066      8.77892        -0.002934     -0.000415     -3.586610
      0.00000      2.96132      8.77892         0.001217     -0.000103      2.442291
      0.00000      1.48066     12.04422         0.005410     -0.000045      0.520377
      9.79590      2.96132     12.04422        -0.008069     -0.000467     -0.744315
      9.79590      1.48066     15.30952        -0.024577     -0.038005      0.600063
      0.00000      2.96132     15.30952         0.005352     -0.001747     -0.708390
      0.07354      1.48033     18.50781        -0.017976      0.002093      0.022814
      9.85613      2.95988     18.68196        -0.009507     -0.002077     -0.031633
      9.79808      1.47270     22.05151        -0.000503      0.003312      0.017100
      0.00875      2.95683     21.69790        -0.003792      0.009190      0.268286
      9.79590      4.44197      8.77892        -0.002832     -0.000153     -3.586452
      0.00000      5.92263      8.77892         0.001299     -0.000200      2.442483
      0.00000      4.44197     12.04422         0.005571     -0.000051      0.520167
      9.79590      5.92263     12.04422        -0.008016      0.000440     -0.743533
      9.79590      4.44197     15.30952        -0.040268      0.028225      0.593208
      0.00000      5.92263     15.30952         0.004676      0.000440     -0.710760
      0.07034      4.44189     18.50600        -0.012496      0.000921      0.022145
      9.86082      5.92270     18.68929        -0.013593      0.000038     -0.036050
      9.82195      4.42115     22.01858         0.031249      0.035032      0.018067
      0.01533      5.92406     21.69648         0.001609     -0.000974      0.262779
      3.26530      7.40329      8.77892         0.002929     -0.000049     -3.583945
      6.53060      8.88395      8.77892        -0.001082      0.000234      2.449724
      6.53060      7.40329     12.04422        -0.005157      0.009205      0.546581
      3.26530      8.88395     12.04422         0.008630      0.000310     -0.726996
      3.26530      7.40329     15.30952         0.046680     -0.013837      0.649085
      6.53060      8.88395     15.30952        -0.021922     -0.046157     -0.563345
      6.60249      7.37380     18.54933        -0.010071      0.015360      0.009163
      3.32643      8.88331     18.69280        -0.010159      0.002783     -0.033084
      3.27446      7.40669     22.04988        -0.007615      0.000945      0.000792
      6.54519      8.88617     21.65916        -0.018305      0.024043      0.231285
      3.26530     10.36461      8.77892         0.003050      0.000253     -3.584140
      6.53060      0.00000      8.77892        -0.001100      0.000035      2.449568
      6.53060     10.36461     12.04422        -0.005272     -0.000900      0.547880
      3.26530      0.00000     12.04422         0.008910      0.000022     -0.726701
[...]
      6.53060      5.92263     13.32313         0.002926     -0.000674     -0.045062
      4.54422      4.44197     12.04422         0.517431      0.000345      0.049804
      8.51698      4.44197     12.04422        -0.511356      0.000261      0.051991
      3.26530      5.92263     14.03060        -0.010019      0.001513     -0.186148
      3.26530      5.92263     16.58843        -0.011786     -0.000387      0.157161
      7.80952      4.44197     15.30952        -0.312770      0.021082      0.064196
      5.25168      4.44197     15.30952         0.348121      0.023385      0.080621
      6.54175      5.92125     17.32046        -0.012581     -0.000173     -0.124441
      6.53201      5.92667     19.89618        -0.025139     -0.001926      0.099292
      4.57165      4.44289     18.59502         0.111173     -0.000354     -0.015155
      8.50657      4.44124     18.60743        -0.049295      0.000351     -0.003392
      3.27053      5.92665     20.57093        -0.003052     -0.002020      0.009629
      3.29608      5.92476     23.13675         0.001906     -0.004160      0.523546
      7.79714      4.39642     21.88694         0.104556     -0.014185      0.018543
      5.31662      4.42988     21.99656        -0.105692     -0.004716      0.097732
    total drift:                               -0.007329      0.001316     -0.062484

  FREE ENERGIE OF THE ION-ELECTRON SYSTEM (eV)
  free  energy   TOTEN  =     -1591.35243210 eV

  energy  without entropy=    -1591.35243210  energy(sigma->0) =    -1591.35243210