 vasp.6.3.0 20Jan22 (build Apr  1 2022 16:44:48) complex
 executed on        HPECrayEX_GCC date 2022.11.13  14:00:33

 INCAR:
   SYSTEM = MgO-rocksalt
   ISMEAR = 0
   SIGMA = 0.05
   EDIFF = 1E-6
   ALGO = ALL
   ISTART = 0
   IBRION = -1
   NSW = 0
   ISYM = 0
   DIPOL = 0.5 0.5 0.5
   IDIPOL = 3
   LDIPOL = .TRUE.
   LHFCALC = .TRUE.
   GGA = B5
   AEXX = 0.2
   AGGAX = 0.72
   AGGAC = 0.81
   ALDAC = 0.19
   IVDW = 1
   VDW_S6 = 1.05
   VDW_C6 = 0.63 0.70
   VDW_R0 = 1.243 1.342
   ENCUT = 600
   PREC = Accurate
   LASPH = .TRUE.
   LREAL = .FALSE.
   ISPIN = 2
   MAGMOM = 0.0 0.0 0.0 0.0 0.0 0.0 0.0 0.0 0.0 0.0 0.0 0.0 0.0 0.0 0.0 0.0 0.0 0.0 0.0 0.0 0.0 0.0 0.0 0.0 0.0 0.0 0.0 0.0 0.0 0.0 0.0 0.0 0.0 0.0 0.0 0.0 0.0 0.0 0.0 0.0 0.0 0.0 0.0 0.0 0.0 0.0 0.0 0.0 0.0 0.0 0.0 0.0 0.0 0.0 0.0 0.0 0.0 0.0 0.0 0.0 0.0 0.0 0.0 0.0
   NELM = 200
   NELMIN = 8
   NCORE = 8
   KPAR = 1
   LWAVE = .FALSE.
   LCHARG = .FALSE.

 POTCAR:    PAW_PBE Mg_pv 13Apr2007
 POTCAR:    PAW_PBE O 08Apr2002
 POTCAR:    PAW_PBE Mg_pv 13Apr2007
   VRHFIN =Mg: p6s2

   TITEL  = PAW_PBE Mg_pv 13Apr2007
   POMASS =   24.305; ZVAL   =    8.000    mass and valenz
   ENMAX  =  403.929; ENMIN  =  302.947 eV

   TITEL  = PAW_PBE O 08Apr2002
   POMASS =   16.000; ZVAL   =    6.000    mass and valenz
   ENMAX  =  400.000; ENMIN  =  300.000 eV

  PAW_PBE Mg_pv 13Apr2007               :
  PAW_PBE O 08Apr2002                   :

 POSCAR: Mg  O
  positions in direct lattice
 exchange correlation table for  LEXCH =       12
   RHO(1)=    0.500       N(1)  =     2000
   RHO(2)=  100.500       N(2)  =     4000

 ion  position               nearest neighbor table
   1  0.000  0.750  0.352-  33 2.11  35 2.11  36 2.11  43 2.11  52 2.11
   2  0.250  0.000  0.352-  34 2.11  35 2.11  36 2.11  44 2.11  51 2.11
   3  0.000  0.000  0.451-  35 2.11  34 2.11  33 2.11  41 2.11  50 2.11  39 2.12
   4  0.250  0.750  0.451-  36 2.11  34 2.11  33 2.11  42 2.11  49 2.11  40 2.12
   5  0.000  0.750  0.550-  47 2.11  39 2.11  40 2.11  56 2.12  33 2.12  37 2.15
   6  0.250  1.000  0.550-  40 2.11  39 2.11  55 2.11  48 2.11  34 2.13  38 2.14
   7  0.000  0.000  0.649-  45 2.11  38 2.11  54 2.11  39 2.11  37 2.11
   8  0.248  0.750  0.649-  37 2.09  38 2.11  46 2.11  40 2.12  53 2.13
   9  0.000  0.250  0.352-  41 2.11  35 2.11  43 2.11  44 2.11  60 2.11
  10  0.250  0.500  0.352-  42 2.11  36 2.11  43 2.11  44 2.11  59 2.11
  11  0.000  0.500  0.451-  43 2.11  41 2.11  42 2.11  33 2.11  58 2.11  47 2.12
  12  0.250  0.250  0.451-  44 2.11  41 2.11  42 2.11  34 2.11  57 2.11  48 2.12
  13  1.000  0.250  0.550-  47 2.11  39 2.11  48 2.11  64 2.11  41 2.12  45 2.15
  14  0.250  0.500  0.550-  40 2.11  47 2.11  63 2.11  48 2.11  42 2.13  46 2.14
  15  0.000  0.500  0.649-  45 2.11  46 2.11  62 2.11  47 2.11  37 2.11
  16  0.250  0.250  0.649-  45 2.11  48 2.11  38 2.11  46 2.11  61 2.11
  17  0.500  0.750  0.352-  49 2.11  36 2.11  51 2.11  52 2.11  59 2.11
  18  0.750  0.000  0.352-  50 2.11  35 2.11  51 2.11  52 2.11  60 2.11
  19  0.500  0.000  0.451-  51 2.11  49 2.11  50 2.11  34 2.11  57 2.11  55 2.12
  20  0.750  0.750  0.451-  52 2.11  49 2.11  50 2.11  33 2.11  58 2.11  56 2.12
  21  0.500  0.750  0.549-  40 2.11  63 2.11  55 2.11  49 2.11  56 2.11  53 2.15
  22  0.750  0.000  0.550-  64 2.11  55 2.11  56 2.11  39 2.11  50 2.13  54 2.14
  23  0.500  0.002  0.649-  61 2.09  38 2.11  54 2.11  55 2.12  53 2.13
  24  0.753  0.750  0.649-  37 2.09  54 2.11  62 2.11  56 2.11  53 2.13
  25  0.500  0.250  0.352-  57 2.11  51 2.11  44 2.11  59 2.11  60 2.11
  26  0.750  0.500  0.352-  58 2.11  52 2.11  43 2.11  59 2.11  60 2.11
  27  0.500  0.500  0.451-  59 2.11  49 2.11  57 2.11  58 2.11  42 2.11  63 2.12
  28  0.750  0.250  0.451-  60 2.11  50 2.11  57 2.11  58 2.11  41 2.11  64 2.12
  29  0.500  0.250  0.550-  48 2.11  64 2.11  63 2.11  55 2.11  57 2.12  61 2.15
  30  0.750  0.500  0.550-  64 2.11  63 2.11  56 2.11  47 2.11  58 2.13  62 2.14
  31  0.500  0.498  0.649-  61 2.09  46 2.11  62 2.11  63 2.12  53 2.13
  32  0.750  0.250  0.649-  45 2.11  64 2.11  54 2.11  62 2.11  61 2.11
  33  0.000  0.750  0.451-   1 2.11   3 2.11   4 2.11  11 2.11  20 2.11   5 2.12
  34  0.250  0.000  0.451-   2 2.11   3 2.11   4 2.11  12 2.11  19 2.11   6 2.13
  35  0.000  0.000  0.352-   3 2.11   2 2.11   1 2.11   9 2.11  18 2.11
  36  0.250  0.750  0.352-   4 2.11   2 2.11   1 2.11  10 2.11  17 2.11
  37  0.001  0.750  0.651-  24 2.09   8 2.09  15 2.11   7 2.11   5 2.15
  38  0.250  1.000  0.651-  23 2.11   8 2.11   7 2.11  16 2.11   6 2.14
  39  1.000  1.000  0.550-   6 2.11   5 2.11  13 2.11  22 2.11   7 2.11   3 2.12
  40  0.250  0.750  0.550-  21 2.11   6 2.11  14 2.11   5 2.11   4 2.12   8 2.12
  41  0.000  0.250  0.451-   9 2.11   3 2.11  11 2.11  12 2.11  28 2.11  13 2.12
  42  0.250  0.500  0.451-  10 2.11   4 2.11  11 2.11  12 2.11  27 2.11  14 2.13
  43  0.000  0.500  0.352-  11 2.11   9 2.11  10 2.11   1 2.11  26 2.11
  44  0.250  0.250  0.352-  12 2.11   9 2.11  10 2.11   2 2.11  25 2.11
  45  1.000  0.250  0.651-  15 2.11   7 2.11  16 2.11  32 2.11  13 2.15
  46  0.250  0.500  0.651-  31 2.11   8 2.11  15 2.11  16 2.11  14 2.14
  47  1.000  0.500  0.550-  14 2.11   5 2.11  13 2.11  30 2.11  15 2.11  11 2.12
  48  0.250  0.250  0.550-  29 2.11  13 2.11   6 2.11  14 2.11  16 2.11  12 2.12
  49  0.500  0.750  0.451-  21 2.11  17 2.11  19 2.11  20 2.11   4 2.11  27 2.11
  50  0.750  0.000  0.451-  18 2.11   3 2.11  19 2.11  20 2.11  28 2.11  22 2.13
  51  0.500  0.000  0.352-  19 2.11  17 2.11  18 2.11   2 2.11  25 2.11
  52  0.750  0.750  0.352-  20 2.11  17 2.11  18 2.11   1 2.11  26 2.11
  53  0.501  0.750  0.650-  31 2.13  23 2.13   8 2.13  24 2.13  21 2.15
  54  0.750  1.000  0.651-  24 2.11  23 2.11   7 2.11  32 2.11  22 2.14
  55  0.500  1.000  0.550-  21 2.11  22 2.11   6 2.11  29 2.11  23 2.12  19 2.12
  56  0.750  0.750  0.550-  21 2.11  22 2.11  30 2.11  24 2.11   5 2.12  20 2.12
  57  0.500  0.250  0.451-  25 2.11  19 2.11  12 2.11  27 2.11  28 2.11  29 2.12
  58  0.750  0.500  0.451-  26 2.11  20 2.11  11 2.11  27 2.11  28 2.11  30 2.13
  59  0.500  0.500  0.352-  27 2.11  17 2.11  25 2.11  26 2.11  10 2.11
  60  0.750  0.250  0.352-  28 2.11  18 2.11  25 2.11  26 2.11   9 2.11
  61  0.500  0.250  0.651-  31 2.09  23 2.09  32 2.11  16 2.11  29 2.15
  62  0.750  0.500  0.651-  24 2.11  31 2.11  15 2.11  32 2.11  30 2.14
  63  0.500  0.500  0.550-  21 2.11  30 2.11  14 2.11  29 2.11  31 2.12  27 2.12
  64  0.750  0.250  0.550-  29 2.11  22 2.11  30 2.11  13 2.11  32 2.11  28 2.12

IMPORTANT INFORMATION: All symmetrisations will be switched off!
NOSYMM: (Re-)initialisation of all symmetry stuff for point group C_1.

                                     Primitive cell

  volume of cell :    1519.8199

  direct lattice vectors                    reciprocal lattice vectors
     8.440984654  0.000000000  0.000000000     0.118469591  0.000000000  0.000000000
     0.000000000  8.440984654  0.000000000     0.000000000  0.118469591  0.000000000
     0.000000000  0.000000000 21.330738491     0.000000000  0.000000000  0.046880702

  length of vectors
     8.440984654  8.440984654 21.330738491     0.118469591  0.118469591  0.046880702

  position of ions in fractional coordinates (direct lattice)
     0.000000000  0.750000000  0.351605267
     0.250000000  0.000000000  0.351605267
     0.000000000  0.000000000  0.450535089
     0.250000000  0.750000000  0.450535089
     0.000367904  0.749999990  0.550043145
     0.249922494  0.999938497  0.550323600
     0.000026201  0.000433416  0.648958586
     0.248410135  0.750000005  0.649423040
     0.000000000  0.250000000  0.351605267
     0.250000000  0.500000000  0.351605267
     0.000000000  0.500000000  0.450535089
     0.250000000  0.250000000  0.450535089
     0.999953346  0.250000010  0.550087816
     0.249922511  0.500061504  0.550323598
     0.000026203  0.499566585  0.648958615
     0.249533183  0.249999994  0.648897869
     0.500000000  0.750000000  0.351605267
     0.750000000  0.000000000  0.351605267
     0.500000000  0.000000000  0.450535089
     0.750000000  0.750000000  0.450535089
     0.499952976  0.749999976  0.549347374
     0.749909505  0.000025171  0.550329701
     0.499727085  0.001919818  0.649268616
     0.753433634  0.750000006  0.648926089
     0.500000000  0.250000000  0.351605267
     0.750000000  0.500000000  0.351605267
     0.500000000  0.500000000  0.450535089
     0.750000000  0.250000000  0.450535089
     0.499935671  0.250000027  0.550109689
     0.749909490  0.499974828  0.550329703
     0.499727081  0.498080182  0.649268691
     0.750227902  0.249999994  0.648941426
     0.000000000  0.750000000  0.450535089
     0.250000000  0.000000000  0.450535089
     0.000000000  0.000000000  0.351605267
     0.250000000  0.750000000  0.351605267
     0.000500028  0.749999998  0.650715135
     0.250131441  0.999786317  0.650789700
     0.999945577  0.999988300  0.549871453
     0.250469588  0.750000003  0.549946092
     0.000000000  0.250000000  0.450535089
     0.250000000  0.500000000  0.450535089
     0.000000000  0.500000000  0.351605267
     0.250000000  0.250000000  0.351605267
     0.999903133  0.250000003  0.650952119
     0.250131447  0.500213683  0.650789710
     0.999945576  0.500011701  0.549871455
     0.250013447  0.249999997  0.549873551
     0.500000000  0.750000000  0.450535089
     0.750000000  0.000000000  0.450535089
     0.500000000  0.000000000  0.351605267
     0.750000000  0.750000000  0.351605267
     0.500684446  0.750000000  0.650144819
     0.749699000  0.999666883  0.650785089
     0.499917403  0.999629843  0.549965372
     0.749762970  0.750000004  0.549913950
     0.500000000  0.250000000  0.450535089
     0.750000000  0.500000000  0.450535089
     0.500000000  0.500000000  0.351605267
     0.750000000  0.250000000  0.351605267
     0.499890153  0.250000003  0.650892832
     0.749698989  0.500333117  0.650785099
     0.499917403  0.500370158  0.549965380
     0.749872120  0.249999997  0.549887990

  ion indices of the primitive-cell ions
   primitive index   ion index
                 1           1
                 2           2
                 3           3
                 4           4
                 5           5
                 6           6
                 7           7
                 8           8
                 9           9
                10          10
                11          11
                12          12
                13          13
                14          14
                15          15
                16          16
                17          17
                18          18
                19          19
                20          20
                21          21
                22          22
                23          23
                24          24
                25          25
                26          26
                27          27
                28          28
                29          29
                30          30
                31          31
                32          32
                33          33
                34          34
                35          35
[...]
   0.25000000  0.50000000  0.45053509
   0.00000000  0.50000000  0.35160527
   0.25000000  0.25000000  0.35160527
   0.99990313  0.25000000  0.65095212
   0.25013145  0.50021368  0.65078971
   0.99994558  0.50001170  0.54987146
   0.25001345  0.25000000  0.54987355
   0.50000000  0.75000000  0.45053509
   0.75000000  0.00000000  0.45053509
   0.50000000  0.00000000  0.35160527
   0.75000000  0.75000000  0.35160527
   0.50068445  0.75000000  0.65014482
   0.74969900  0.99966688  0.65078509
   0.49991740  0.99962984  0.54996537
   0.74976297  0.75000000  0.54991395
   0.50000000  0.25000000  0.45053509
   0.75000000  0.50000000  0.45053509
   0.50000000  0.50000000  0.35160527
   0.75000000  0.25000000  0.35160527
   0.49989015  0.25000000  0.65089283
   0.74969899  0.50033312  0.65078510
   0.49991740  0.50037016  0.54996538
   0.74987212  0.25000000  0.54988799

 position of ions in cartesian coordinates  (Angst):
   0.00000000  6.33073849  7.50000000
   2.11024616  0.00000000  7.50000000
   0.00000000  0.00000000  9.61024616
   2.11024616  6.33073849  9.61024616
   0.00310547  6.33073841 11.73282648
   2.10959194  8.44046551 11.73880880
   0.00022117  0.00365846 13.84276589
   2.09682614  6.33073853 13.85267304
   0.00000000  2.11024616  7.50000000
   2.11024616  4.22049233  7.50000000
   0.00000000  4.22049233  9.61024616
   2.11024616  2.11024616  9.61024616
   8.44059084  2.11024625 11.73377935
   2.10959208  4.22101149 11.73880876
   0.00022118  4.21683388 13.84276651
   2.10630577  2.11024611 13.84147075
   4.22049233  6.33073849  7.50000000
   6.33073849  0.00000000  7.50000000
   4.22049233  0.00000000  9.61024616
   6.33073849  6.33073849  9.61024616
   4.22009539  6.33073829 11.71798517
   6.32997463  0.00021247 11.73893894
   4.21818865  0.01620515 13.84937905
   6.35972174  6.33073854 13.84207270
   4.22049233  2.11024616  7.50000000
   6.33073849  4.22049233  7.50000000
   4.22049233  4.22049233  9.61024616
   6.33073849  2.11024616  9.61024616
   4.21994933  2.11024639 11.73424591
   6.32997450  4.22027985 11.73893898
   4.21818863  4.20428717 13.84938066
   6.33266221  2.11024611 13.84239984
   0.00000000  6.33073849  9.61024616
   2.11024616  0.00000000  9.61024616
   0.00000000  0.00000000  7.50000000
   2.11024616  6.33073849  7.50000000
   0.00422073  6.33073848 13.88023437
   2.11135565  8.43918096 13.88182489
   8.44052527  8.44088589 11.72916417
   2.11420995  6.33073852 11.73075627
   0.00000000  2.11024616  9.61024616
   2.11024616  4.22049233  9.61024616
   0.00000000  4.22049233  7.50000000
   2.11024616  2.11024616  7.50000000
   8.44016700  2.11024619 13.88528942
   2.11135570  4.22229602 13.88182512
   8.44052526  4.22059109 11.72916421
   2.11035967  2.11024614 11.72920892
   4.22049233  6.33073849  9.61024616
   6.33073849  0.00000000  9.61024616
   4.22049233  0.00000000  7.50000000
   6.33073849  6.33073849  7.50000000
   4.22626972  6.33073849 13.86806912
   6.32819775  8.43817282 13.88172655
   4.21979513  8.43786016 11.73116753
   6.32873772  6.33073852 11.73007065
   4.22049233  2.11024616  9.61024616
   6.33073849  4.22049233  9.61024616
   4.22049233  4.22049233  7.50000000
   6.33073849  2.11024616  7.50000000
   4.21956511  2.11024619 13.88402479
   6.32819767  4.22330416 13.88172675
   4.21979513  4.22361683 11.73116769
   6.32965906  2.11024614 11.72951691

--------------------------------------- Iteration      FINAL  ---------------------------------------

--------------------OUTCAR has been truncated-------------------------

[...]

--------------------OUTCAR has been truncated-------------------------

  DFT-D2 method for vdW energy calculation

  Parameters of vdW forcefield:
         C6(Jnm^6/mol)     R0(A)
   Mg       0.630          1.243
   O        0.700          1.342

  vdW correction parametrized for the method ²­ÿ      

  IVDW =   1
  VDW_RADIUS =    50.000 A
  VDW_S6 =     1.050
  VDW_SR =     1.000
  VDW_D =    20.000
  LVDW_EWALD = F

  Number of pair interactions contributing to vdW energy:  723302
  Edisp (eV):   -5.06714

 VOLUME and BASIS-vectors are now :
  energy-cutoff  :      600.00
  volume of cell :     1519.82
      direct lattice vectors                 reciprocal lattice vectors
     8.440984654  0.000000000  0.000000000     0.118469591  0.000000000  0.000000000
     0.000000000  8.440984654  0.000000000     0.000000000  0.118469591  0.000000000
     0.000000000  0.000000000 21.330738491     0.000000000  0.000000000  0.046880702

  length of vectors
     8.440984654  8.440984654 21.330738491     0.118469591  0.118469591  0.046880702

 FORCES acting on ions:
    Electron-Ion                     Ewald-Force                    Non-Local-Force
   0.200E-01 0.269E-05 0.207E+04   -.196E-01 -.153E-05 -.206E+04   -.323E-03 -.430E-05 -.639E+01
   0.321E-01 -.760E-01 0.207E+04   -.334E-01 0.779E-01 -.206E+04   0.907E-03 -.125E-02 -.640E+01
   0.763E-01 -.693E-01 0.683E+03   -.835E-01 0.590E-01 -.683E+03   0.401E-02 0.664E-02 0.473E+00
   0.632E+00 0.473E-05 0.683E+03   -.668E+00 -.310E-05 -.683E+03   0.230E-01 0.195E-05 0.428E+00
   0.286E+00 0.250E-04 -.688E+03   -.247E+00 -.248E-04 0.688E+03   -.444E-01 0.194E-06 0.165E-02
   -.601E+00 0.221E+00 -.692E+03   0.774E+00 -.384E+00 0.692E+03   -.110E+00 0.111E+00 -.201E+00
   0.378E+00 0.188E-01 -.205E+04   -.362E+00 0.157E+00 0.205E+04   -.155E-01 -.153E+00 0.546E+01
   -.878E+01 0.608E-05 -.206E+04   0.907E+01 -.335E-05 0.205E+04   0.900E-02 0.283E-05 0.556E+01
   0.110E-01 -.146E-05 0.207E+04   -.117E-01 0.154E-05 -.206E+04   0.415E-03 0.130E-05 -.638E+01
   0.321E-01 0.760E-01 0.207E+04   -.334E-01 -.779E-01 -.206E+04   0.902E-03 0.126E-02 -.640E+01
   0.763E-01 0.693E-01 0.683E+03   -.835E-01 -.591E-01 -.683E+03   0.402E-02 -.664E-02 0.473E+00
   -.108E+00 -.771E-05 0.683E+03   0.126E+00 0.382E-05 -.683E+03   -.114E-01 -.207E-05 0.474E+00
   0.175E+00 -.238E-04 -.689E+03   -.178E+00 0.263E-04 0.689E+03   0.349E-03 -.207E-05 -.275E-02
   -.601E+00 -.221E+00 -.692E+03   0.774E+00 0.384E+00 0.692E+03   -.110E+00 -.111E+00 -.201E+00
   0.378E+00 -.188E-01 -.205E+04   -.362E+00 -.157E+00 0.205E+04   -.154E-01 0.153E+00 0.546E+01
   -.337E+00 -.838E-05 -.205E+04   0.228E+00 0.539E-05 0.204E+04   0.104E+00 0.834E-05 0.545E+01
   -.168E-01 0.220E-05 0.207E+04   0.173E-01 -.420E-06 -.206E+04   -.279E-03 0.167E-05 -.637E+01
   -.340E-01 -.688E-01 0.207E+04   0.349E-01 0.710E-01 -.206E+04   -.605E-03 -.153E-02 -.640E+01
   -.640E-01 -.830E+00 0.683E+03   0.620E-01 0.883E+00 -.683E+03   0.100E-02 -.326E-01 0.424E+00
   -.652E+00 0.151E-04 0.683E+03   0.707E+00 -.717E-05 -.683E+03   -.339E-01 -.592E-05 0.409E+00
   -.390E+00 -.841E-05 -.685E+03   0.379E+00 0.853E-05 0.686E+03   0.233E-01 -.732E-05 -.439E+00
   0.652E+00 0.209E+00 -.692E+03   -.812E+00 -.362E+00 0.692E+03   0.104E+00 0.966E-01 -.225E+00
   -.766E+00 0.801E+01 -.205E+04   0.819E+00 -.842E+01 0.205E+04   -.111E-01 0.793E-01 0.554E+01
   0.103E+02 0.104E-04 -.205E+04   -.107E+02 -.794E-05 0.205E+04   -.371E-01 -.582E-06 0.551E+01
   -.107E-01 -.416E-05 0.207E+04   0.111E-01 0.410E-06 -.206E+04   -.244E-03 0.397E-05 -.639E+01
   -.340E-01 0.688E-01 0.207E+04   0.349E-01 -.710E-01 -.206E+04   -.601E-03 0.153E-02 -.640E+01
   -.640E-01 0.830E+00 0.683E+03   0.620E-01 -.883E+00 -.683E+03   0.100E-02 0.326E-01 0.424E+00
   0.878E-01 -.956E-05 0.683E+03   -.110E+00 0.647E-05 -.683E+03   0.143E-01 0.687E-05 0.477E+00
   -.148E+00 0.952E-05 -.689E+03   0.149E+00 -.944E-05 0.689E+03   -.322E-03 0.142E-05 0.196E-02
   0.652E+00 -.209E+00 -.692E+03   -.811E+00 0.362E+00 0.692E+03   0.104E+00 -.966E-01 -.225E+00
   -.766E+00 -.801E+01 -.205E+04   0.819E+00 0.842E+01 0.205E+04   -.111E-01 -.793E-01 0.554E+01
   0.354E+00 -.122E-04 -.205E+04   -.235E+00 0.568E-05 0.205E+04   -.108E+00 0.231E-05 0.545E+01
   0.127E+00 0.658E-05 0.512E+03   -.148E+00 -.465E-05 -.512E+03   0.240E-01 -.678E-06 -.782E-01
   0.387E-01 -.209E+00 0.511E+03   -.255E-01 0.206E+00 -.511E+03   -.161E-01 0.450E-02 -.150E+00
   0.113E-01 -.267E-01 0.155E+04   -.115E-01 0.260E-01 -.156E+04   0.287E-03 0.927E-03 0.313E+01
   0.628E-01 -.261E-05 0.155E+04   -.672E-01 -.610E-06 -.156E+04   0.547E-02 -.791E-08 0.313E+01
   -.869E+00 -.150E-05 -.156E+04   0.103E+01 0.402E-05 0.156E+04   -.148E+00 -.117E-05 -.423E+01
   -.113E+01 0.106E+01 -.156E+04   0.128E+01 -.123E+01 0.156E+04   -.200E+00 0.216E+00 -.426E+01
   0.203E+00 -.549E-01 -.512E+03   -.235E+00 0.199E-01 0.511E+03   0.344E-01 0.426E-01 0.341E+00
   -.638E+00 0.226E-04 -.515E+03   0.877E+00 -.180E-04 0.515E+03   -.311E+00 -.980E-06 -.191E-01
   0.326E-01 -.104E-04 0.512E+03   -.303E-01 0.478E-05 -.512E+03   -.284E-02 0.133E-05 -.571E-01
   0.387E-01 0.209E+00 0.511E+03   -.256E-01 -.206E+00 -.511E+03   -.161E-01 -.449E-02 -.150E+00
   0.113E-01 0.267E-01 0.155E+04   -.115E-01 -.260E-01 -.156E+04   0.288E-03 -.930E-03 0.313E+01
   -.284E-02 0.133E-05 0.155E+04   0.475E-02 0.626E-06 -.156E+04   -.242E-02 -.302E-06 0.313E+01
   0.286E+00 0.649E-05 -.156E+04   -.315E+00 -.393E-05 0.156E+04   0.324E-01 0.234E-05 -.440E+01
   -.113E+01 -.106E+01 -.156E+04   0.128E+01 0.123E+01 0.156E+04   -.200E+00 -.216E+00 -.426E+01
   0.203E+00 0.549E-01 -.512E+03   -.235E+00 -.199E-01 0.511E+03   0.344E-01 -.426E-01 0.341E+00
   -.186E+00 -.249E-04 -.512E+03   0.220E+00 0.227E-04 0.511E+03   -.454E-01 0.189E-06 0.368E+00
   -.792E-01 -.161E-05 0.514E+03   0.785E-01 0.483E-05 -.514E+03   0.144E-02 -.260E-05 0.129E-01
   -.656E-01 -.162E+00 0.511E+03   0.633E-01 0.153E+00 -.511E+03   0.331E-02 0.119E-01 -.154E+00
   -.981E-02 -.935E-01 0.155E+04   0.104E-01 0.986E-01 -.156E+04   -.762E-03 -.638E-02 0.313E+01
   -.652E-01 0.427E-05 0.155E+04   0.689E-01 -.935E-06 -.156E+04   -.456E-02 0.153E-06 0.313E+01
   -.100E+01 -.259E-04 -.155E+04   0.125E+01 0.241E-04 0.155E+04   -.267E+00 -.169E-05 -.376E+01
   0.166E+01 0.874E+00 -.156E+04   -.195E+01 -.107E+01 0.156E+04   0.347E+00 0.254E+00 -.433E+01
   -.140E+00 0.205E+00 -.515E+03   0.143E+00 -.426E+00 0.515E+03   -.271E-02 0.295E+00 0.155E-01
   0.704E+00 0.316E-04 -.513E+03   -.950E+00 -.229E-04 0.513E+03   0.322E+00 -.248E-05 0.836E-01
   -.354E-01 0.239E-05 0.512E+03   0.386E-01 -.521E-05 -.512E+03   -.379E-02 0.107E-05 -.941E-01
   -.656E-01 0.162E+00 0.511E+03   0.633E-01 -.153E+00 -.511E+03   0.331E-02 -.119E-01 -.154E+00
   -.981E-02 0.935E-01 0.155E+04   0.104E-01 -.986E-01 -.156E+04   -.761E-03 0.638E-02 0.313E+01
   0.250E-02 -.324E-05 0.155E+04   -.429E-02 0.919E-06 -.156E+04   0.227E-02 0.119E-05 0.312E+01
   -.279E+00 0.363E-04 -.156E+04   0.288E+00 -.340E-04 0.156E+04   -.964E-02 0.125E-05 -.429E+01
   0.166E+01 -.874E+00 -.156E+04   -.195E+01 0.107E+01 0.156E+04   0.347E+00 -.254E+00 -.433E+01
   -.140E+00 -.205E+00 -.515E+03   0.143E+00 0.426E+00 0.515E+03   -.270E-02 -.295E+00 0.155E-01
   0.156E+00 -.218E-04 -.512E+03   -.185E+00 0.189E-04 0.512E+03   0.394E-01 0.111E-05 0.346E+00
   0.161E+00 -.927E-05 0.149E+02   0.164E-12 0.406E-14 -.364E-11   -.151E+00 0.214E-04 -.131E+02

 POSITION                                       TOTAL-FORCE (eV/Angst)
      0.00000      6.33074      7.50000         0.000080     -0.000003      0.468374
      2.11025      0.00000      7.50000        -0.000278      0.000495      0.470181
      0.00000      0.00000      9.61025        -0.002575     -0.002787      0.039555
      2.11025      6.33074      9.61025        -0.010176      0.000004      0.050893
      0.00311      6.33074     11.73283        -0.008785      0.000001     -0.025473
      2.10959      8.44047     11.73881         0.048702     -0.039507     -0.010596
      0.00022      0.00366     13.84277        -0.000737      0.007983     -0.154974
      2.09683      6.33074     13.85267         0.278626      0.000006     -0.252145
      0.00000      2.11025      7.50000        -0.000120      0.000002      0.465951
      2.11025      4.22049      7.50000        -0.000287     -0.000490      0.470142
      0.00000      4.22049      9.61025        -0.002570      0.002788      0.039555
      2.11025      2.11025      9.61025         0.004777     -0.000007      0.040663
      8.44059      2.11025     11.73378        -0.002700     -0.000000     -0.009216
      2.10959      4.22101     11.73881         0.048707      0.039507     -0.010594
      0.00022      4.21683     13.84277        -0.000732     -0.007985     -0.154972
      2.10631      2.11025     13.84147         0.003865      0.000005     -0.142030
      4.22049      6.33074      7.50000         0.000183      0.000004      0.463742
      6.33074      0.00000      7.50000         0.000258      0.000555      0.470666
      4.22049      0.00000      9.61025        -0.000802      0.015715      0.057636
      6.33074      6.33074      9.61025         0.017035      0.000002      0.058741
      4.22010      6.33074     11.71799         0.013171     -0.000008      0.319539
      6.32997      0.00021     11.73894        -0.042189     -0.043664     -0.007536
      4.21819      0.01621     13.84938         0.037285     -0.297928     -0.220921
      6.35972      6.33074     13.84207        -0.393343      0.000002     -0.177671
      4.22049      2.11025      7.50000         0.000153     -0.000001      0.469333
      6.33074      4.22049      7.50000         0.000256     -0.000560      0.470686
      4.22049      4.22049      9.61025        -0.000802     -0.015717      0.057642
      6.33074      2.11025      9.61025        -0.006051      0.000004      0.040691
      4.21995      2.11025     11.73425         0.000794      0.000000     -0.021015
      6.32997      4.22028     11.73894        -0.042192      0.043664     -0.007539
      4.21819      4.20429     13.84938         0.037282      0.297921     -0.220941
      6.33266      2.11025     13.84240         0.001536     -0.000004     -0.145809
      0.00000      6.33074      9.61025         0.006501      0.000001      0.059480
      2.11025      0.00000      9.61025        -0.005039      0.001925      0.062639
      0.00000      0.00000      7.50000         0.000125      0.000350     -0.434133
      2.11025      6.33074      7.50000         0.001863     -0.000003     -0.433404
      0.00422      6.33074     13.88023        -0.009917      0.000001     -0.012320
      2.11136      8.43918     13.88182        -0.074440      0.076156     -0.006774
      8.44053      8.44089     11.72916         0.006928      0.013345      0.066947
      2.11421      6.33074     11.73076        -0.116345      0.000003     -0.009750
      0.00000      2.11025      9.61025        -0.000860     -0.000004      0.070607
      2.11025      4.22049      9.61025        -0.005039     -0.001921      0.062636
      0.00000      4.22049      7.50000         0.000137     -0.000354     -0.434124
      2.11025      2.11025      7.50000        -0.000813      0.000002     -0.434255
      8.44017      2.11025     13.88529         0.007407      0.000005     -0.064999
      2.11136      4.22230     13.88183        -0.074442     -0.076160     -0.006767
      8.44053      4.22059     11.72916         0.006928     -0.013346      0.066943
      2.11036      2.11025     11.72921        -0.017506     -0.000002      0.069355
      4.22049      6.33074      9.61025         0.001015      0.000000      0.017442
      6.33074      0.00000      9.61025         0.001413      0.003964      0.062076
      4.22049      0.00000      7.50000        -0.000234     -0.002104     -0.433730
      6.33074      6.33074      7.50000        -0.001455      0.000003     -0.433507
      4.22627      6.33074     13.86807        -0.060122     -0.000004      0.085238
      6.32820      8.43817     13.88173         0.108312      0.094096     -0.021038
      4.21980      8.43786     11.73117         0.000057      0.117239     -0.017571
      6.32874      6.33074     11.73007         0.123271      0.000006     -0.020329
      4.22049      2.11025      9.61025        -0.001065     -0.000002      0.060962
      6.33074      4.22049      9.61025         0.001412     -0.003968      0.062071
      4.22049      4.22049      7.50000        -0.000236      0.002104     -0.433734
      6.33074      2.11025      7.50000         0.000836     -0.000001     -0.434587
      4.21957      2.11025     13.88402        -0.001880      0.000004     -0.033319
      6.32820      4.22330     13.88173         0.108308     -0.094091     -0.021041
      4.21980      4.22362     11.73117         0.000056     -0.117238     -0.017574
      6.32966      2.11025     11.72952         0.016453     -0.000002      0.064000
    total drift:                               -0.002398      0.000012      0.007510

  FREE ENERGIE OF THE ION-ELECTRON SYSTEM (eV)
  free  energy   TOTEN  =      -438.41426713 eV

  energy  without entropy=     -438.41426713  energy(sigma->0) =     -438.41426713