 vasp.6.3.0 20Jan22 (build Mar 11 2022 13:48:16) complex

 executed on             LinuxIFC date 2024.02.11  21:31:55

 INCAR:
   SYSTEM = Oxide-Surface
   ISMEAR = 0
   SIGMA = 0.05
   EDIFF = 1E-5
   ALGO = ALL
   ISTART = 0
   IBRION = -1
   NSW = 0
   ISYM = 2
   DIPOL = 0.5 0.5 0.5
   IDIPOL = 3
   LDIPOL = .TRUE.
   GGA = PE
   IVDW = 263
   ENCUT = 600
   PREC = Accurate
   LASPH = .TRUE.
   LREAL = .FALSE.
   ISPIN = 1
   NELM = 200
   NELMIN = 8
   NCORE = 19
   KPAR = 1
   LWAVE = .FALSE.
   LCHARG = .FALSE.

 POTCAR:    PAW_PBE N 08Apr2002
 POTCAR:    PAW_PBE O 08Apr2002
 POTCAR:    PAW_PBE Mg_pv 13Apr2007
 POTCAR:    PAW_PBE O 08Apr2002
 POTCAR:    PAW_PBE N 08Apr2002
   VRHFIN =N: s2p3

   TITEL  = PAW_PBE N 08Apr2002
   POMASS =   14.001; ZVAL   =    5.000    mass and valenz
   ENMAX  =  400.000; ENMIN  =  300.000 eV

[...]

   TITEL  = PAW_PBE Mg_pv 13Apr2007
   POMASS =   24.305; ZVAL   =    8.000    mass and valenz
   ENMAX  =  403.929; ENMIN  =  302.947 eV

   TITEL  = PAW_PBE O 08Apr2002
   POMASS =   16.000; ZVAL   =    6.000    mass and valenz
   ENMAX  =  400.000; ENMIN  =  300.000 eV

  PAW_PBE N 08Apr2002                   :
  PAW_PBE O 08Apr2002                   :
  PAW_PBE Mg_pv 13Apr2007               :
  PAW_PBE O 08Apr2002                   :

 POSCAR:  N  O Mg  O
  positions in direct lattice
 exchange correlation table for  LEXCH =        8
   RHO(1)=    0.500       N(1)  =     2000
   RHO(2)=  100.500       N(2)  =     4000

 ion  position               nearest neighbor table
   1  0.525  0.547  0.791-   2 1.14
   2  0.624  0.638  0.783-   1 1.14   3 1.20
   3  0.727  0.733  0.774-   2 1.20
   4  0.000  0.750  0.352-  36 2.11  38 2.11  39 2.11  46 2.11  55 2.11
   5  0.250  0.000  0.352-  37 2.11  38 2.11  39 2.11  47 2.11  54 2.11
   6  0.000  0.000  0.451-  38 2.11  37 2.11  36 2.11  44 2.11  53 2.11  42 2.12
   7  0.250  0.750  0.451-  39 2.11  37 2.11  36 2.11  45 2.11  52 2.11  43 2.12
   8  1.000  0.750  0.550-  59 2.11  42 2.11  50 2.11  43 2.11  36 2.13  40 2.14
   9  0.250  1.000  0.550-  42 2.11  51 2.11  58 2.11  43 2.11  37 2.13  41 2.15
  10  0.000  0.000  0.649-  57 2.11  40 2.11  42 2.11  48 2.11  41 2.11
  11  0.250  0.750  0.649-  40 2.11  43 2.11  49 2.11  56 2.11  41 2.11
  12  0.000  0.250  0.352-  44 2.11  38 2.11  46 2.11  47 2.11  63 2.11
  13  0.250  0.500  0.352-  45 2.11  39 2.11  46 2.11  47 2.11  62 2.11
  14  0.000  0.500  0.451-  46 2.11  44 2.11  45 2.11  36 2.11  61 2.11  50 2.12
  15  0.250  0.250  0.451-  47 2.11  44 2.11  45 2.11  37 2.11  60 2.11  51 2.12
  16  0.000  0.250  0.550-  42 2.11  50 2.11  51 2.11  67 2.11  44 2.13  48 2.15
  17  0.250  0.500  0.550-  50 2.11  51 2.11  43 2.11  66 2.11  45 2.12  49 2.15
  18  0.000  0.500  0.649-  49 2.11  50 2.11  40 2.11  48 2.11  65 2.12
  19  0.250  0.250  0.649-  49 2.11  64 2.11  48 2.11  41 2.11  51 2.11
  20  0.500  0.750  0.352-  52 2.11  39 2.11  54 2.11  55 2.11  62 2.11
  21  0.750  0.000  0.352-  53 2.11  38 2.11  54 2.11  55 2.11  63 2.11
  22  0.500  0.000  0.451-  54 2.11  52 2.11  53 2.11  37 2.11  60 2.11  58 2.12
  23  0.750  0.750  0.451-  55 2.11  52 2.11  53 2.11  36 2.11  61 2.11  59 2.12
  24  0.500  0.750  0.550-  59 2.11  58 2.11  66 2.11  43 2.11  52 2.13  56 2.16
  25  0.750  1.000  0.550-  59 2.11  42 2.11  58 2.11  67 2.11  53 2.13  57 2.14
  26  0.500  0.000  0.649-  64 2.11  58 2.11  57 2.11  41 2.11  56 2.11
  27  0.751  0.751  0.650-  40 2.11  57 2.11  65 2.12  56 2.12  59 2.12
  28  0.500  0.250  0.352-  60 2.11  54 2.11  47 2.11  62 2.11  63 2.11
  29  0.750  0.500  0.352-  61 2.11  55 2.11  46 2.11  62 2.11  63 2.11
  30  0.500  0.500  0.451-  62 2.11  52 2.11  60 2.11  61 2.11  45 2.11  66 2.12
  31  0.750  0.250  0.451-  63 2.11  53 2.11  60 2.11  61 2.11  44 2.11  67 2.12
  32  0.500  0.250  0.550-  58 2.11  51 2.11  67 2.11  66 2.11  60 2.12  64 2.15
  33  0.750  0.500  0.550-  59 2.11  50 2.11  66 2.11  67 2.11  61 2.13  65 2.16
  34  0.499  0.499  0.648-  66 2.10  49 2.10  64 2.10  65 2.12  56 2.12
  35  0.750  0.250  0.649-  57 2.11  67 2.11  64 2.11  65 2.11  48 2.11
  36  0.000  0.750  0.451-   4 2.11   6 2.11   7 2.11  14 2.11  23 2.11   8 2.13
  37  0.250  0.000  0.451-   5 2.11   6 2.11   7 2.11  15 2.11  22 2.11   9 2.13
  38  0.000  0.000  0.352-   6 2.11   5 2.11   4 2.11  12 2.11  21 2.11
  39  0.250  0.750  0.352-   7 2.11   5 2.11   4 2.11  13 2.11  20 2.11
  40  0.000  0.750  0.651-  11 2.11  27 2.11  18 2.11  10 2.11   8 2.14
  41  0.250  1.000  0.651-  19 2.11  10 2.11  26 2.11  11 2.11   9 2.15
  42  0.000  0.000  0.550-   9 2.11  16 2.11  25 2.11  10 2.11   8 2.11   6 2.12
  43  0.250  0.750  0.550-  11 2.11   9 2.11  24 2.11  17 2.11   8 2.11   7 2.12
  44  0.000  0.250  0.451-  12 2.11   6 2.11  14 2.11  15 2.11  31 2.11  16 2.13
  45  0.250  0.500  0.451-  13 2.11   7 2.11  14 2.11  15 2.11  30 2.11  17 2.12
  46  0.000  0.500  0.352-  14 2.11  12 2.11  13 2.11   4 2.11  29 2.11
  47  0.250  0.250  0.352-  15 2.11  12 2.11  13 2.11   5 2.11  28 2.11
  48  1.000  0.250  0.651-  19 2.11  10 2.11  18 2.11  35 2.11  16 2.15
  49  0.250  0.500  0.651-  34 2.10  18 2.11  19 2.11  11 2.11  17 2.15
  50  1.000  0.500  0.550-  33 2.11  18 2.11  16 2.11  17 2.11   8 2.11  14 2.12
  51  0.250  0.250  0.550-   9 2.11  16 2.11  32 2.11  17 2.11  19 2.11  15 2.12
  52  0.500  0.750  0.451-  20 2.11   7 2.11  22 2.11  23 2.11  30 2.11  24 2.13
  53  0.750  0.000  0.451-  21 2.11   6 2.11  22 2.11  23 2.11  31 2.11  25 2.13
  54  0.500  0.000  0.352-  22 2.11  20 2.11  21 2.11   5 2.11  28 2.11
  55  0.750  0.750  0.352-  23 2.11  20 2.11  21 2.11   4 2.11  29 2.11
  56  0.500  0.750  0.651-  11 2.11  26 2.11  34 2.12  27 2.12  24 2.16
  57  0.750  0.001  0.651-  35 2.11  27 2.11  26 2.11  10 2.11  25 2.14
  58  0.500  1.000  0.550-  26 2.11  24 2.11  32 2.11   9 2.11  25 2.11  22 2.12
  59  0.750  0.750  0.550-  33 2.11  24 2.11   8 2.11  25 2.11  27 2.12  23 2.12
  60  0.500  0.250  0.451-  28 2.11  22 2.11  15 2.11  30 2.11  31 2.11  32 2.12
  61  0.750  0.500  0.451-  29 2.11  23 2.11  14 2.11  30 2.11  31 2.11  33 2.13
  62  0.500  0.500  0.352-  30 2.11  20 2.11  28 2.11  29 2.11  13 2.11
  63  0.750  0.250  0.352-  31 2.11  21 2.11  28 2.11  29 2.11  12 2.11
  64  0.500  0.250  0.651-  34 2.10  26 2.11  19 2.11  35 2.11  32 2.15
  65  0.750  0.500  0.651-  35 2.11  18 2.12  34 2.12  27 2.12  33 2.16
  66  0.500  0.500  0.550-  34 2.10  33 2.11  24 2.11  32 2.11  17 2.11  30 2.12
  67  0.750  0.250  0.550-  35 2.11  16 2.11  33 2.11  32 2.11  25 2.11  31 2.12

  LATTYP: Found a simple tetragonal cell.
 ALAT       =     8.4409846542
 C/A-ratio  =     2.5270438657

  Lattice vectors:

 A1 = (   8.4409846542,   0.0000000000,   0.0000000000)
 A2 = (   0.0000000000,   8.4409846542,   0.0000000000)
 A3 = (   0.0000000000,   0.0000000000,  21.3307384906)

Analysis of symmetry for initial positions (statically):
 Subroutine PRICEL returns:
 Original cell was already a primitive cell.

 Routine SETGRP: Setting up the symmetry group for a
 simple tetragonal supercell.

 Subroutine GETGRP returns: Found  1 space group operations
 (whereof  1 operations were pure point group operations)
 out of a pool of 16 trial point group operations.

The static configuration has the point symmetry C_1 .

Analysis of symmetry for dynamics (positions and initial velocities):
 Subroutine PRICEL returns:
 Original cell was already a primitive cell.

[...]

The dynamic configuration has the point symmetry C_1 .

Analysis of constrained symmetry for selective dynamics:
 Subroutine PRICEL returns:
 Original cell was already a primitive cell.

 Routine SETGRP: Setting up the symmetry group for a
 simple tetragonal supercell.

 Subroutine GETGRP returns: Found  1 space group operations
 (whereof  1 operations were pure point group operations)
 out of a pool of 16 trial point group operations.

The constrained configuration has the point symmetry C_1 .

 Subroutine INISYM returns: Found  1 space group operations
 (whereof  1 operations are pure point group operations),
 and found     1 'primitive' translations

                                     Primitive cell

  volume of cell :    1519.8199

  direct lattice vectors                    reciprocal lattice vectors
     8.440984654  0.000000000  0.000000000     0.118469591  0.000000000  0.000000000
     0.000000000  8.440984654  0.000000000     0.000000000  0.118469591  0.000000000
     0.000000000  0.000000000 21.330738491     0.000000000  0.000000000  0.046880702

  length of vectors
     8.440984654  8.440984654 21.330738491     0.118469591  0.118469591  0.046880702

  position of ions in fractional coordinates (direct lattice)
     0.524930995  0.547217210  0.790832042
     0.623755693  0.637956408  0.783228089
     0.727359511  0.733121747  0.774357699
     0.000000000  0.750000000  0.351605267
     0.250000000  0.000000000  0.351605267
     0.000000000  0.000000000  0.450535089
     0.250000000  0.750000000  0.450535089
     0.999952972  0.750069933  0.550182699
     0.249960180  0.999999612  0.550158547
     0.000071767  0.000081746  0.648822182
     0.249898085  0.749854229  0.648747211
     0.000000000  0.250000000  0.351605267
     0.250000000  0.500000000  0.351605267
     0.000000000  0.500000000  0.450535089
     0.250000000  0.250000000  0.450535089
     0.000003654  0.249979963  0.550161251
     0.249748591  0.499976608  0.550096481
     0.000002192  0.500168966  0.648801089
     0.249937473  0.249969046  0.648946383
     0.500000000  0.750000000  0.351605267
     0.750000000  0.000000000  0.351605267
     0.500000000  0.000000000  0.450535089
     0.750000000  0.750000000  0.450535089
     0.500260010  0.749982125  0.550295780
     0.750090200  0.999950935  0.550181221
     0.500174938  0.000063538  0.648739290
     0.751039523  0.750995909  0.649603103
     0.500000000  0.250000000  0.351605267
     0.750000000  0.500000000  0.351605267
     0.500000000  0.500000000  0.450535089
     0.750000000  0.250000000  0.450535089
     0.499969996  0.249784160  0.550090882
     0.749966853  0.500263841  0.550296262
     0.498939953  0.498985897  0.648486242
     0.749869906  0.249927386  0.648747568
     0.000000000  0.750000000  0.450535089
     0.250000000  0.000000000  0.450535089
     0.000000000  0.000000000  0.351605267
     0.250000000  0.750000000  0.351605267
     0.000499353  0.750094498  0.650694193
     0.250109797  0.999979088  0.651114683
     0.000136884  0.000132227  0.549867764
     0.250236395  0.750027713  0.549854657
     0.000000000  0.250000000  0.450535089
     0.250000000  0.500000000  0.450535089
     0.000000000  0.500000000  0.351605267
     0.250000000  0.250000000  0.351605267
     0.999972823  0.250117149  0.651102115
     0.249721265  0.499887596  0.650744450
     0.999777560  0.499924314  0.549903838
     0.249958822  0.249941630  0.549902197
     0.500000000  0.750000000  0.450535089
     0.750000000  0.000000000  0.450535089
     0.500000000  0.000000000  0.351605267
     0.750000000  0.750000000  0.351605267
     0.499900511  0.749702745  0.651434291
     0.750092168  0.000531548  0.650666996
     0.499920717  0.999831546  0.549889159
[...]
   O          20.883          3.286          5.663          2.299          1.939          1.055
   O          22.318          3.320          5.843          2.771          3.396          1.085
   O          22.319          3.320          5.844          2.773          3.404          1.085
   O          22.380          3.322          5.851          2.803          3.515          1.087
   O          22.149          3.316          5.822          2.771          3.398          1.082
   O          20.875          3.286          5.663          2.315          1.980          1.055
   O          20.860          3.285          5.661          2.306          1.958          1.054
   O          20.896          3.286          5.665          2.300          1.943          1.055
   O          20.885          3.286          5.664          2.298          1.938          1.055
   O          22.318          3.320          5.843          2.771          3.396          1.085
   O          22.315          3.320          5.843          2.770          3.392          1.085
   O          21.954          3.311          5.797          2.746          3.306          1.077
   O          22.100          3.315          5.816          2.756          3.344          1.080
   O          20.873          3.286          5.663          2.314          1.979          1.055
   O          20.823          3.284          5.657          2.359          2.095          1.054
   O          20.883          3.286          5.664          2.299          1.940          1.055
   O          20.895          3.286          5.665          2.300          1.943          1.055
   O          22.318          3.320          5.843          2.769          3.390          1.085
   O          22.318          3.320          5.843          2.772          3.400          1.085
   O          22.171          3.317          5.825          2.773          3.403          1.082
   O          21.997          3.312          5.803          2.748          3.311          1.078
   O          20.838          3.285          5.658          2.334          2.030          1.054
   O          20.871          3.286          5.662          2.320          1.994          1.055

  vdW correction parametrized for the method pbe

  IVDW = 263
  VDW_RADIUS =    50.000 A
  VDW_SR =     0.830
  VDW_D =     6.000
  SCSRAD =   120.000 A
  LVDWSCS = T
  LSCSGRAD = T
  LSCALER0 = T
  ITIM =  1
  Edisp (eV):  -17.92309

  FORCE on cell =-STRESS in cart. coord.  units (eV):
  Direction    XX          YY          ZZ          XY          YZ          ZX
  Alpha Z   926.74691   926.74691   926.74691
  Ewald  157170.30703157097.13218************   401.80393   -85.17924   -93.68850
  Hartree167582.19062167546.79062************   179.63449   -39.24824   -42.70679
  E(xc)   -2528.26867 -2528.46338 -2534.48352     1.14341    -0.23341    -0.25187
  Local  ************************334038.02503  -539.94260   115.99384   127.00159
  n-local -2859.98917 -2859.52408 -2877.85098    -2.69482     0.53894     0.55042
  augment  1055.24738  1055.49165  1047.37515    -1.43938     0.31106     0.34984
  Kinetic  7610.69668  7617.28944  7690.58022   -38.67140     7.87762     8.87581
  Fock        0.00000     0.00000     0.00000     0.00000     0.00000     0.00000
  vdW       -23.50146   -23.50382   -16.52390     0.01879    -0.00151    -0.00389
  Total     -42.89066   -42.80731   -12.21296    -0.14758     0.05907     0.12660
  in kB     -45.21486   -45.12700   -12.87477    -0.15558     0.06227     0.13346

 VOLUME and BASIS-vectors are now :
  energy-cutoff  :      600.00
  volume of cell :     1519.82
      direct lattice vectors                 reciprocal lattice vectors
     8.440984654  0.000000000  0.000000000     0.118469591  0.000000000  0.000000000
     0.000000000  8.440984654  0.000000000     0.000000000  0.118469591  0.000000000
     0.000000000  0.000000000 21.330738491     0.000000000  0.000000000  0.046880702

  length of vectors
     8.440984654  8.440984654 21.330738491     0.118469591  0.118469591  0.046880702

 FORCES acting on ions:
    Electron-Ion                     Ewald-Force                    Non-Local-Force
   0.214E+03 0.196E+03 -.124E+04   -.250E+03 -.230E+03 0.125E+04   0.369E+02 0.338E+02 -.730E+01
   0.167E+02 0.154E+02 -.124E+04   -.165E+02 -.153E+02 0.124E+04   -.197E+00 -.188E+00 -.117E+00
   -.219E+03 -.202E+03 -.149E+04   0.266E+03 0.244E+03 0.149E+04   -.466E+02 -.428E+02 0.859E+01
   -.209E+00 -.164E+00 0.209E+04   0.207E+00 0.164E+00 -.208E+04   0.102E-02 0.154E-03 -.704E+01
   0.185E+00 -.213E+00 0.209E+04   -.185E+00 0.213E+00 -.208E+04   -.240E-03 0.233E-03 -.705E+01
   -.837E+00 -.927E+00 0.736E+03   0.851E+00 0.940E+00 -.737E+03   -.108E-01 -.990E-02 0.519E+00
   0.870E+00 -.758E+00 0.738E+03   -.839E+00 0.774E+00 -.738E+03   -.220E-01 -.116E-01 0.505E+00
   -.629E+01 -.289E+01 -.601E+03   0.626E+01 0.290E+01 0.602E+03   0.330E-01 -.100E-01 -.375E+00
   0.313E+01 -.412E+01 -.612E+03   -.314E+01 0.412E+01 0.612E+03   0.134E-01 -.163E-02 -.176E+00
   -.197E+02 -.204E+02 -.196E+04   0.197E+02 0.204E+02 0.196E+04   0.639E-03 -.194E-02 0.600E+01
   0.224E+02 -.154E+02 -.195E+04   -.225E+02 0.154E+02 0.194E+04   0.115E+00 0.783E-02 0.599E+01
   -.189E+00 0.164E+00 0.209E+04   0.189E+00 -.163E+00 -.208E+04   0.200E-03 -.260E-03 -.705E+01
   0.208E+00 0.214E+00 0.209E+04   -.208E+00 -.214E+00 -.208E+04   0.315E-03 -.188E-03 -.704E+01
   -.869E+00 0.946E+00 0.737E+03   0.832E+00 -.957E+00 -.738E+03   0.261E-01 0.824E-02 0.536E+00
   0.825E+00 0.740E+00 0.736E+03   -.840E+00 -.757E+00 -.736E+03   0.111E-01 0.124E-01 0.528E+00
   -.365E+01 0.277E+01 -.613E+03   0.365E+01 -.277E+01 0.613E+03   -.219E-02 0.827E-02 -.184E+00
   0.509E+01 0.424E+01 -.603E+03   -.511E+01 -.424E+01 0.604E+03   0.274E-01 0.318E-02 -.288E+00
   -.250E+02 0.218E+02 -.195E+04   0.252E+02 -.218E+02 0.194E+04   -.139E+00 -.227E-02 0.601E+01
   0.141E+02 0.139E+02 -.197E+04   -.141E+02 -.139E+02 0.196E+04   0.604E-02 0.109E-02 0.600E+01
   0.211E+00 -.189E+00 0.209E+04   -.209E+00 0.189E+00 -.208E+04   -.149E-02 0.268E-03 -.705E+01
   -.186E+00 -.232E+00 0.209E+04   0.185E+00 0.231E+00 -.208E+04   0.132E-03 0.105E-02 -.704E+01
   0.857E+00 -.972E+00 0.738E+03   -.869E+00 0.938E+00 -.738E+03   0.903E-02 0.240E-01 0.532E+00
   -.894E+00 -.790E+00 0.739E+03   0.873E+00 0.769E+00 -.740E+03   0.154E-01 0.161E-01 0.575E+00
   0.649E+01 -.491E+01 -.595E+03   -.645E+01 0.493E+01 0.595E+03   -.389E-01 -.214E-01 -.112E+00
   -.326E+01 -.677E+01 -.601E+03   0.327E+01 0.674E+01 0.602E+03   -.143E-01 0.329E-01 -.385E+00
   0.212E+02 -.287E+02 -.194E+04   -.212E+02 0.288E+02 0.194E+04   -.421E-02 -.128E+00 0.601E+01
   -.309E+02 -.269E+02 -.185E+04   0.311E+02 0.271E+02 0.184E+04   -.244E+00 -.221E+00 0.562E+01
   0.190E+00 0.187E+00 0.209E+04   -.190E+00 -.187E+00 -.208E+04   -.155E-03 0.247E-03 -.704E+01
   -.211E+00 0.235E+00 0.209E+04   0.210E+00 -.233E+00 -.208E+04   0.327E-03 -.152E-02 -.705E+01
   0.887E+00 0.994E+00 0.739E+03   -.864E+00 -.972E+00 -.740E+03   -.171E-01 -.167E-01 0.537E+00
   -.845E+00 0.770E+00 0.737E+03   0.859E+00 -.738E+00 -.738E+03   -.103E-01 -.229E-01 0.508E+00
   0.374E+01 0.467E+01 -.604E+03   -.375E+01 -.470E+01 0.604E+03   0.466E-02 0.270E-01 -.258E+00
   -.530E+01 0.697E+01 -.596E+03   0.532E+01 -.694E+01 0.596E+03   -.216E-01 -.390E-01 -.958E-01
   0.311E+02 0.359E+02 -.187E+04   -.314E+02 -.362E+02 0.187E+04   0.206E+00 0.228E+00 0.594E+01
   -.152E+02 0.191E+02 -.195E+04   0.152E+02 -.192E+02 0.194E+04   0.149E-02 0.112E+00 0.599E+01
   -.722E+00 -.475E+00 0.553E+03   0.726E+00 0.473E+00 -.553E+03   -.592E-02 0.150E-02 -.906E-01
   0.536E+00 -.670E+00 0.552E+03   -.536E+00 0.665E+00 -.551E+03   0.723E-03 0.665E-02 -.113E+00
   -.149E+00 -.166E+00 0.157E+04   0.150E+00 0.167E+00 -.157E+04   -.155E-02 -.132E-02 0.349E+01
   0.148E+00 -.133E+00 0.157E+04   -.146E+00 0.135E+00 -.157E+04   -.319E-02 -.254E-02 0.349E+01
   -.285E+02 -.879E+01 -.147E+04   0.285E+02 0.879E+01 0.147E+04   0.848E-02 -.361E-03 -.505E+01
   0.880E+01 -.110E+02 -.150E+04   -.878E+01 0.110E+02 0.150E+04   -.124E-01 0.219E-01 -.502E+01
   -.344E+01 -.366E+01 -.452E+03   0.343E+01 0.365E+01 0.452E+03   0.118E-01 0.118E-01 0.244E+00
   0.332E+01 -.277E+01 -.447E+03   -.332E+01 0.277E+01 0.447E+03   -.351E-02 -.215E-02 0.282E+00
   -.592E+00 0.469E+00 0.551E+03   0.587E+00 -.470E+00 -.551E+03   0.649E-02 0.219E-02 -.111E+00
   0.672E+00 0.678E+00 0.553E+03   -.659E+00 -.673E+00 -.553E+03   -.168E-01 -.811E-02 -.746E-01
   -.148E+00 0.166E+00 0.157E+04   0.145E+00 -.167E+00 -.157E+04   0.414E-02 0.142E-02 0.349E+01
   0.147E+00 0.132E+00 0.157E+04   -.149E+00 -.134E+00 -.157E+04   0.228E-02 0.253E-02 0.349E+01
   -.956E+01 0.772E+01 -.150E+04   0.954E+01 -.771E+01 0.150E+04   0.196E-01 -.793E-02 -.502E+01
   0.212E+02 0.122E+02 -.148E+04   -.213E+02 -.122E+02 0.148E+04   0.590E-01 -.105E-01 -.509E+01
   -.368E+01 0.378E+01 -.448E+03   0.369E+01 -.378E+01 0.448E+03   0.262E-04 0.247E-03 0.279E+00
   0.280E+01 0.265E+01 -.454E+03   -.279E+01 -.264E+01 0.454E+03   -.107E-01 -.987E-02 0.202E+00
   0.762E+00 -.646E+00 0.554E+03   -.779E+00 0.650E+00 -.554E+03   0.237E-01 -.621E-02 -.140E+00
   -.543E+00 -.800E+00 0.553E+03   0.540E+00 0.804E+00 -.553E+03   0.314E-02 -.563E-02 -.897E-01
   0.150E+00 -.167E+00 0.157E+04   -.151E+00 0.164E+00 -.157E+04   0.166E-02 0.407E-02 0.349E+01
   -.150E+00 -.134E+00 0.157E+04   0.148E+00 0.131E+00 -.157E+04   0.399E-02 0.412E-02 0.348E+01
   0.347E+02 -.254E+02 -.143E+04   -.346E+02 0.254E+02 0.143E+04   -.113E+00 0.335E-01 -.476E+01
   -.100E+02 -.302E+02 -.147E+04   0.100E+02 0.302E+02 0.147E+04   -.108E-02 0.205E-01 -.506E+01
   0.357E+01 -.418E+01 -.447E+03   -.356E+01 0.417E+01 0.447E+03   -.763E-03 0.462E-02 0.293E+00
   -.353E+01 -.309E+01 -.440E+03   0.355E+01 0.311E+01 0.440E+03   -.126E-01 -.150E-01 0.909E-01
   0.600E+00 0.604E+00 0.553E+03   -.595E+00 -.594E+00 -.553E+03   -.787E-02 -.132E-01 -.754E-01
   -.717E+00 0.838E+00 0.554E+03   0.722E+00 -.856E+00 -.554E+03   -.717E-02 0.235E-01 -.141E+00
   0.151E+00 0.169E+00 0.157E+04   -.147E+00 -.165E+00 -.157E+04   -.518E-02 -.493E-02 0.349E+01
   -.148E+00 0.132E+00 0.157E+04   0.150E+00 -.129E+00 -.157E+04   -.227E-02 -.334E-02 0.349E+01
   0.104E+02 0.196E+02 -.148E+04   -.104E+02 -.197E+02 0.149E+04   -.135E-01 0.559E-01 -.508E+01
   -.261E+02 0.360E+02 -.143E+04   0.261E+02 -.359E+02 0.144E+04   0.122E-01 -.118E+00 -.480E+01
   0.388E+01 0.438E+01 -.439E+03   -.389E+01 -.439E+01 0.438E+03   0.127E-01 0.820E-02 0.391E+00
   -.292E+01 0.289E+01 -.448E+03   0.292E+01 -.290E+01 0.448E+03   -.504E-02 0.297E-02 0.285E+00
   0.100E+02 0.924E+01 0.160E+02   0.398E-12 0.409E-12 0.699E-11   -.100E+02 -.924E+01 -.160E+02

 POSITION                                       TOTAL-FORCE (eV/Angst)
      4.43093      4.61905     16.86903         0.243767      0.210796     -0.048439
      5.26511      5.38498     16.70683        -0.040441     -0.041006      0.005038
      6.13963      6.18827     16.51762        -0.191744     -0.172284      0.017277
      0.00000      6.33074      7.50000        -0.001239     -0.000252      0.512713
      2.11025      0.00000      7.50000         0.000269     -0.000549      0.514744
      0.00000      0.00000      9.61025         0.004404      0.004175      0.114711
      2.11025      6.33074      9.61025         0.007940      0.004696      0.121833
      8.44059      6.33133     11.73580        -0.000103     -0.000947     -0.039721
      2.10991      8.44098     11.73529         0.004409     -0.003474     -0.042652
      0.00061      0.00069     13.83986         0.004870      0.005231     -0.164264
      2.10939      6.32951     13.83826        -0.004652      0.005356     -0.168290
      0.00000      2.11025      7.50000        -0.000468      0.000252      0.514529
      2.11025      4.22049      7.50000         0.000460      0.000478      0.512166
      0.00000      4.22049      9.61025        -0.009703     -0.003486      0.115917
      2.11025      2.11025      9.61025        -0.004590     -0.005009      0.116160
      0.00003      2.11008     11.73535        -0.003984      0.003960     -0.042247
      2.10812      4.22029     11.73396         0.003926      0.000517     -0.042936
      0.00002      4.22192     13.83941         0.003377     -0.005540     -0.164400
      2.10972      2.10998     13.84251        -0.005407     -0.004844     -0.173082
      4.22049      6.33074      7.50000         0.001185     -0.000522      0.516092
      6.33074      0.00000      7.50000        -0.000225     -0.001309      0.512635
      4.22049      0.00000      9.61025        -0.003701     -0.008823      0.115861
      6.33074      6.33074      9.61025        -0.004026     -0.004276      0.123279
      4.22269      6.33059     11.73822        -0.004256     -0.000411     -0.045928
      6.33150      8.44057     11.73577        -0.001574      0.000517     -0.039928
      4.22197      0.00054     13.83809        -0.006257      0.003982     -0.165647
      6.33951      6.33914     13.85651         0.006855      0.006810     -0.141035
      4.22049      2.11025      7.50000         0.000397      0.000483      0.512269
      6.33074      4.22049      7.50000        -0.000515      0.001286      0.516107
      4.22049      4.22049      9.61025         0.004520      0.004581      0.116857
      6.33074      2.11025      9.61025         0.004351      0.008180      0.122054
      4.22024      2.10842     11.73384         0.000260      0.003620     -0.042926
      6.33046      4.22272     11.73823        -0.001354     -0.003838     -0.045430
      4.21154      4.21193     13.83269        -0.006332     -0.006237     -0.156097
      6.32964      2.10963     13.83826         0.004805     -0.003540     -0.168186
      0.00000      6.33074      9.61025        -0.001863      0.000101      0.069382
      2.11025      0.00000      9.61025         0.000564      0.001711      0.059335
      0.00000      0.00000      7.50000        -0.000536     -0.000474     -0.474018
      2.11025      6.33074      7.50000        -0.000899     -0.000820     -0.474335
      0.00422      6.33154     13.87979         0.004450     -0.000598     -0.023244
      2.11117      8.44081     13.88876         0.000906     -0.002554     -0.028998
      0.00116      0.00112     11.72909        -0.003738     -0.003486      0.012057
      2.11224      6.33097     11.72881        -0.005277     -0.003297      0.015979
      0.00000      2.11025      9.61025         0.001603      0.000901      0.060185
      2.11025      4.22049      9.61025        -0.003755     -0.002205      0.064981
      0.00000      4.22049      7.50000         0.001118      0.000509     -0.474140
      2.11025      2.11025      7.50000         0.000681      0.000754     -0.473987
      8.44076      2.11124     13.88849        -0.003043      0.001244     -0.028509
      2.10789      4.21954     13.88086        -0.000706      0.002249     -0.026387
      8.43911      4.21985     11.72985         0.002089      0.005795      0.014035
      2.10990      2.10975     11.72982        -0.000217      0.000887      0.008654
      4.22049      6.33074      9.61025         0.005994     -0.001768      0.065442
      6.33074      0.00000      9.61025         0.000526     -0.001729      0.069601
      4.22049      0.00000      7.50000         0.000578      0.001084     -0.474177
      6.33074      6.33074      7.50000         0.001119      0.001135     -0.474912
      4.21965      6.32823     13.89557        -0.009427      0.004811     -0.030457
      6.33152      0.00449     13.87921        -0.000964      0.005227     -0.023053
      4.21982      8.43956     11.72954         0.005697      0.001823      0.014222
      6.33011      6.33006     11.73375         0.003193      0.003238      0.008050
      4.22049      2.11025      9.61025        -0.002067     -0.002820      0.064141
      6.33074      4.22049      9.61025        -0.001972      0.005867      0.065103
      4.22049      4.22049      7.50000        -0.001437     -0.001356     -0.474100
      6.33074      2.11025      7.50000        -0.000746     -0.000923     -0.474314
      4.21933      2.10811     13.88220         0.002269     -0.000036     -0.027094
      6.32670      4.21994     13.89684         0.004112     -0.009140     -0.029312
      4.22034      4.22036     11.72949        -0.000591     -0.000080      0.014575
      6.33079      2.11237     11.72890        -0.002880     -0.004622      0.016261
    total drift:                                0.000841      0.001018     -0.005479

  FREE ENERGIE OF THE ION-ELECTRON SYSTEM (eV)
  free  energy   TOTEN  =      -411.57591749 eV

  energy  without entropy=     -411.57591749  energy(sigma->0) =     -411.57591749