 vasp.6.3.0 20Jan22 (build Mar 11 2022 13:48:16) complex

 executed on             LinuxIFC date 2023.12.26  18:04:32

 INCAR:
   SYSTEM = MgO-rocksalt
   ISMEAR = 0
   SIGMA = 0.05
   EDIFF = 1E-6
   ALGO = ALL
   ISTART = 0
   IBRION = -1
   NSW = 0
   ISYM = 2
   ISIF = 2
   EDIFFG = -0.01
   DIPOL = 0.5 0.5 0.5
   IDIPOL = 3
   LDIPOL = .TRUE.
   GGA = RE
   IVDW = 13
   VDW_S8 = 1.7468
   VDW_A1 = 0.5363
   VDW_A2 = 3.0726
   ENCUT = 600
   PREC = Accurate
   LASPH = .TRUE.
   LREAL = .FALSE.
   ISPIN = 1
   NELM = 200
   NELMIN = 8
   NCORE = 2
   KPAR = 1
   LWAVE = .FALSE.
   LCHARG = .FALSE.

 POTCAR:    PAW_PBE C 08Apr2002
 POTCAR:    PAW_PBE O 08Apr2002
 POTCAR:    PAW_PBE Mg_pv 13Apr2007
 POTCAR:    PAW_PBE O 08Apr2002
|           W    W    AA    RRRRR   N    N  II  N    N   GGGG   !!!           |
|           W    W   A  A   R    R  NN   N  II  NN   N  G    G  !!!           |
|           W    W  A    A  R    R  N N  N  II  N N  N  G       !!!           |
|           W WW W  AAAAAA  RRRRR   N  N N  II  N  N N  G  GGG   !            |
|           WW  WW  A    A  R   R   N   NN  II  N   NN  G    G                |
|           W    W  A    A  R    R  N    N  II  N    N   GGGG   !!!           |
|     For optimal performance we recommend to set                             |
|       NCORE = 2 up to number-of-cores-per-socket                            |
|     This setting can greatly improve the performance of VASP for DFT.       |
|     The default, NCORE=1 might be grossly inefficient on modern             |
|     multi-core architectures or massively parallel machines. Do your        |
|     Unfortunately you need to use the default for GW and RPA                |
|     calculations (for HF NCORE is supported but not extensively tested      |
|     yet).                                                                   |

   TITEL  = PAW_PBE C 08Apr2002
   POMASS =   12.011; ZVAL   =    4.000    mass and valenz
   ENMAX  =  400.000; ENMIN  =  300.000 eV

[...]

   TITEL  = PAW_PBE Mg_pv 13Apr2007
   POMASS =   24.305; ZVAL   =    8.000    mass and valenz
   ENMAX  =  403.929; ENMIN  =  302.947 eV

   TITEL  = PAW_PBE O 08Apr2002
   POMASS =   16.000; ZVAL   =    6.000    mass and valenz
   ENMAX  =  400.000; ENMIN  =  300.000 eV

  PAW_PBE C 08Apr2002                   :
  PAW_PBE O 08Apr2002                   :
  PAW_PBE Mg_pv 13Apr2007               :
  PAW_PBE O 08Apr2002                   :

 POSCAR:  C  O Mg  O
  positions in direct lattice
  velocities in cartesian coordinates
|           W    W    AA    RRRRR   N    N  II  N    N   GGGG   !!!           |
|           W    W   A  A   R    R  NN   N  II  NN   N  G    G  !!!           |
|           W    W  A    A  R    R  N N  N  II  N N  N  G       !!!           |
|           W WW W  AAAAAA  RRRRR   N  N N  II  N  N N  G  GGG   !            |
|           WW  WW  A    A  R   R   N   NN  II  N   NN  G    G                |
|           W    W  A    A  R    R  N    N  II  N    N   GGGG   !!!           |
|     Specifying the vdW parameters                                           |
|     VDW_S8 = 1.747                                                          |
|     VDW_A1 = 0.536                                                          |
|     VDW_A2 = 3.073                                                          |
|     in the INCAR file will overwrite the defaults for revpbe. Please        |
|     make sure that is what you intended.                                    |

 ion  position               nearest neighbor table
   1  0.500  0.500  0.765-   2 1.15
   2  0.500  0.500  0.819-   1 1.15
   3  0.000  0.750  0.352-  35 2.11  37 2.11  38 2.11  45 2.11  54 2.11
   4  0.250  0.000  0.352-  36 2.11  37 2.11  38 2.11  46 2.11  53 2.11
   5  0.000  0.000  0.451-  37 2.11  36 2.11  35 2.11  43 2.11  52 2.11  41 2.12
   6  0.250  0.750  0.451-  38 2.11  36 2.11  35 2.11  44 2.11  51 2.11  42 2.12
   7  0.000  0.750  0.550-  49 2.11  42 2.11  58 2.11  41 2.11  35 2.12  39 2.15
   8  0.250  0.000  0.550-  57 2.11  50 2.11  42 2.11  41 2.11  36 2.12  40 2.15
   9  0.000  0.000  0.649-  39 2.11  40 2.11  47 2.11  56 2.11  41 2.11
  10  0.250  0.750  0.649-  42 2.11  40 2.11  39 2.11  48 2.11  55 2.11
  11  0.000  0.250  0.352-  43 2.11  37 2.11  45 2.11  46 2.11  62 2.11
  12  0.250  0.500  0.352-  44 2.11  38 2.11  45 2.11  46 2.11  61 2.11
  13  0.000  0.500  0.451-  45 2.11  43 2.11  44 2.11  35 2.11  60 2.11  49 2.12
  14  0.250  0.250  0.451-  46 2.11  43 2.11  44 2.11  36 2.11  59 2.11  50 2.12
  15  0.000  0.250  0.550-  49 2.11  50 2.11  66 2.11  41 2.11  43 2.12  47 2.15
  16  0.250  0.500  0.550-  65 2.11  50 2.11  42 2.11  49 2.11  44 2.13  48 2.15
  17  0.000  0.500  0.649-  48 2.10  64 2.10  49 2.11  47 2.11  39 2.11
  18  0.250  0.250  0.649-  50 2.11  47 2.11  40 2.11  48 2.11  63 2.11
  19  0.500  0.750  0.352-  51 2.11  38 2.11  53 2.11  54 2.11  61 2.11
  20  0.750  0.000  0.352-  52 2.11  37 2.11  53 2.11  54 2.11  62 2.11
  21  0.500  0.000  0.451-  53 2.11  51 2.11  52 2.11  36 2.11  59 2.11  57 2.12
  22  0.750  0.750  0.451-  54 2.11  51 2.11  52 2.11  35 2.11  60 2.11  58 2.12
  23  0.500  0.750  0.550-  65 2.11  58 2.11  42 2.11  57 2.11  51 2.13  55 2.15
  24  0.750  0.000  0.550-  57 2.11  58 2.11  66 2.11  41 2.11  52 2.12  56 2.15
  25  0.500  0.000  0.649-  55 2.10  63 2.10  57 2.11  40 2.11  56 2.11
  26  0.750  0.750  0.649-  58 2.11  56 2.11  39 2.11  55 2.11  64 2.11
  27  0.500  0.250  0.352-  59 2.11  53 2.11  46 2.11  61 2.11  62 2.11
  28  0.750  0.500  0.352-  60 2.11  54 2.11  45 2.11  61 2.11  62 2.11
  29  0.500  0.500  0.451-  61 2.11  51 2.11  59 2.11  60 2.11  44 2.11  65 2.13
  30  0.750  0.250  0.451-  62 2.11  52 2.11  59 2.11  60 2.11  43 2.11  66 2.12
  31  0.500  0.250  0.550-  65 2.11  50 2.11  66 2.11  57 2.11  59 2.13  63 2.15
  32  0.750  0.500  0.550-  65 2.11  58 2.11  66 2.11  49 2.11  60 2.13  64 2.15
  33  0.500  0.500  0.651-  48 2.12  55 2.12  63 2.12  64 2.12  65 2.14
  34  0.750  0.250  0.649-  66 2.11  56 2.11  47 2.11  64 2.11  63 2.11
  35  0.000  0.750  0.451-   3 2.11   5 2.11   6 2.11  13 2.11  22 2.11   7 2.12
  36  0.250  0.000  0.451-   4 2.11   5 2.11   6 2.11  14 2.11  21 2.11   8 2.12
  37  0.000  0.000  0.352-   5 2.11   4 2.11   3 2.11  11 2.11  20 2.11
  38  0.250  0.750  0.352-   6 2.11   4 2.11   3 2.11  12 2.11  19 2.11
  39  0.000  0.750  0.651-   9 2.11  10 2.11  26 2.11  17 2.11   7 2.15
  40  0.250  0.000  0.651-   9 2.11  10 2.11  18 2.11  25 2.11   8 2.15
  41  0.000  0.000  0.550-   9 2.11   8 2.11   7 2.11  15 2.11  24 2.11   5 2.12
  42  0.250  0.750  0.550-  10 2.11   8 2.11   7 2.11  16 2.11  23 2.11   6 2.12
  43  0.000  0.250  0.451-  11 2.11   5 2.11  13 2.11  14 2.11  30 2.11  15 2.12
  44  0.250  0.500  0.451-  12 2.11   6 2.11  13 2.11  14 2.11  29 2.11  16 2.13
  45  0.000  0.500  0.352-  13 2.11  11 2.11  12 2.11   3 2.11  28 2.11
  46  0.250  0.250  0.352-  14 2.11  11 2.11  12 2.11   4 2.11  27 2.11
  47  0.000  0.250  0.651-   9 2.11  18 2.11  34 2.11  17 2.11  15 2.15
  48  0.249  0.500  0.651-  17 2.10  10 2.11  18 2.11  33 2.12  16 2.15
  49  0.000  0.500  0.550-  17 2.11  15 2.11   7 2.11  16 2.11  32 2.11  13 2.12
  50  0.250  0.250  0.550-  18 2.11  15 2.11   8 2.11  16 2.11  31 2.11  14 2.12
  51  0.500  0.750  0.451-  19 2.11   6 2.11  21 2.11  22 2.11  29 2.11  23 2.13
  52  0.750  0.000  0.451-  20 2.11   5 2.11  21 2.11  22 2.11  30 2.11  24 2.12
  53  0.500  0.000  0.352-  21 2.11  19 2.11  20 2.11   4 2.11  27 2.11
  54  0.750  0.750  0.352-  22 2.11  19 2.11  20 2.11   3 2.11  28 2.11
  55  0.500  0.751  0.651-  25 2.10  10 2.11  26 2.11  33 2.12  23 2.15
  56  0.750  0.000  0.651-   9 2.11  26 2.11  34 2.11  25 2.11  24 2.15
  57  0.500  0.000  0.550-  25 2.11  24 2.11   8 2.11  23 2.11  31 2.11  21 2.12
  58  0.750  0.750  0.550-  26 2.11  24 2.11   7 2.11  32 2.11  23 2.11  22 2.12
  59  0.500  0.250  0.451-  27 2.11  21 2.11  14 2.11  29 2.11  30 2.11  31 2.13
  60  0.750  0.500  0.451-  28 2.11  22 2.11  13 2.11  29 2.11  30 2.11  32 2.13
  61  0.500  0.500  0.352-  29 2.11  19 2.11  27 2.11  28 2.11  12 2.11
  62  0.750  0.250  0.352-  30 2.11  20 2.11  27 2.11  28 2.11  11 2.11
  63  0.500  0.249  0.651-  25 2.10  18 2.11  34 2.11  33 2.12  31 2.15
  64  0.751  0.500  0.651-  17 2.10  26 2.11  34 2.11  33 2.12  32 2.15
  65  0.500  0.500  0.550-  16 2.11  23 2.11  31 2.11  32 2.11  29 2.13  33 2.14
  66  0.750  0.250  0.550-  34 2.11  24 2.11  15 2.11  32 2.11  31 2.11  30 2.12

  LATTYP: Found a simple tetragonal cell.
 ALAT       =     8.4409846542
 C/A-ratio  =     2.5270438657

  Lattice vectors:

 A1 = (   8.4409846542,   0.0000000000,   0.0000000000)
 A2 = (   0.0000000000,   8.4409846542,   0.0000000000)
 A3 = (   0.0000000000,   0.0000000000,  21.3307384906)

Analysis of symmetry for initial positions (statically):
 Subroutine PRICEL returns:
 Original cell was already a primitive cell.

 Routine SETGRP: Setting up the symmetry group for a
 simple tetragonal supercell.

 Subroutine GETGRP returns: Found  8 space group operations
 (whereof  8 operations were pure point group operations)
 out of a pool of 16 trial point group operations.

The static configuration has the point symmetry C_4v.

Analysis of symmetry for dynamics (positions and initial velocities):
 Subroutine PRICEL returns:
 Original cell was already a primitive cell.

[...]

The dynamic configuration has the point symmetry C_4v.

Analysis of constrained symmetry for selective dynamics:
 Subroutine PRICEL returns:
 Original cell was already a primitive cell.

 Routine SETGRP: Setting up the symmetry group for a
 simple tetragonal supercell.

 Subroutine GETGRP returns: Found  8 space group operations
 (whereof  8 operations were pure point group operations)
 out of a pool of 16 trial point group operations.

The constrained configuration has the point symmetry C_4v.

 Subroutine INISYM returns: Found  8 space group operations
 (whereof  8 operations are pure point group operations),
 and found     1 'primitive' translations

                                     Primitive cell

  volume of cell :    1519.8199

  direct lattice vectors                    reciprocal lattice vectors
     8.440984654  0.000000000  0.000000000     0.118469591  0.000000000  0.000000000
     0.000000000  8.440984654  0.000000000     0.000000000  0.118469591  0.000000000
     0.000000000  0.000000000 21.330738491     0.000000000  0.000000000  0.046880702

  length of vectors
     8.440984654  8.440984654 21.330738491     0.118469591  0.118469591  0.046880702

  position of ions in fractional coordinates (direct lattice)
     0.500000000  0.500000000  0.765053803
     0.500000000  0.500000000  0.818817521
     0.000000000  0.750000000  0.351605267
     0.250000000  0.000000000  0.351605267
     0.000000000  0.000000000  0.450535089
     0.250000000  0.750000000  0.450535089
     0.000000000  0.749939268  0.550083239
     0.250060732  0.000000000  0.550083239
     0.000000000  0.000000000  0.648745309
     0.249858327  0.750141673  0.648569547
     0.000000000  0.250000000  0.351605267
     0.250000000  0.500000000  0.351605267
[...]
   0.00000000  0.00000000  9.61024616
   2.11024616  6.33073849  9.61024616
   0.00000000  6.33022585 11.73368172
   2.11075880  0.00000000 11.73368172
   0.00000000  0.00000000 13.83821654
   2.10905031  6.33193435 13.83446740
   0.00000000  2.11024616  7.50000000
   2.11024616  4.22049233  7.50000000
   0.00000000  4.22049233  9.61024616
   2.11024616  2.11024616  9.61024616
   0.00000000  2.11075880 11.73368172
   2.11344006  4.22049233 11.73658877
   0.00000000  4.22049233 13.83544293
   2.10905031  2.10905031 13.83446740
   4.22049233  6.33073849  7.50000000
   6.33073849  0.00000000  7.50000000
   4.22049233  0.00000000  9.61024616
   6.33073849  6.33073849  9.61024616
   4.22049233  6.32754460 11.73658877
   6.33022585  0.00000000 11.73368172
   4.22049233  0.00000000 13.83544293
   6.33193435  6.33193435 13.83446740
   4.22049233  2.11024616  7.50000000
   6.33073849  4.22049233  7.50000000
   4.22049233  4.22049233  9.61024616
   6.33073849  2.11024616  9.61024616
   4.22049233  2.11344006 11.73658877
   6.32754460  4.22049233 11.73658877
   4.22049233  4.22049233 13.87814023
   6.33193435  2.10905031 13.83446740
   0.00000000  6.33073849  9.61024616
   2.11024616  0.00000000  9.61024616
   0.00000000  0.00000000  7.50000000
   2.11024616  6.33073849  7.50000000
   0.00000000  6.33258312 13.88586825
   2.10840153  0.00000000 13.88586825
   0.00000000  0.00000000 11.72785099
   2.10978841  6.33119624 11.72890095
   0.00000000  2.11024616  9.61024616
   2.11024616  4.22049233  9.61024616
   0.00000000  4.22049233  7.50000000
   2.11024616  2.11024616  7.50000000
   0.00000000  2.10840153 13.88586825
   2.10030867  4.22049233 13.88381232
   0.00000000  4.22049233 11.72684365
   2.10978841  2.10978841 11.72890095
   4.22049233  6.33073849  9.61024616
   6.33073849  0.00000000  9.61024616
   4.22049233  0.00000000  7.50000000
   6.33073849  6.33073849  7.50000000
   4.22049233  6.34067598 13.88381232
   6.33258312  0.00000000 13.88586825
   4.22049233  0.00000000 11.72684365
   6.33119624  6.33119624 11.72890095
   4.22049233  2.11024616  9.61024616
   6.33073849  4.22049233  9.61024616
   4.22049233  4.22049233  7.50000000
   6.33073849  2.11024616  7.50000000
   4.22049233  2.10030867 13.88381232
   6.34067598  4.22049233 13.88381232
   4.22049233  4.22049233 11.73684118
   6.33119624  2.10978841 11.72890095

--------------------------------------- Iteration      FINAL  ---------------------------------------

--------------------OUTCAR has been truncated-------------------------

[...]

--------------------OUTCAR has been truncated-------------------------

  FORCE on cell =-STRESS in cart. coord.  units (eV):
  Direction    XX          YY          ZZ          XY          YZ          ZX
  Alpha Z   907.96410   907.96410   907.96410
  Ewald  157644.15472157644.15472************     0.00000     0.00000    -0.00000
  Hartree168068.16394168068.16394************    -0.00000    -0.00000    -0.00000
  E(xc)   -2509.91631 -2509.91631 -2516.40744     0.00000     0.00000     0.00000
  Local  ************************335293.37280     0.00000     0.00000    -0.00000
  n-local -2812.92169 -2813.69543 -2844.49389     0.00000     0.00000    -0.00000
  augment  1052.78942  1052.78942  1042.75683     0.00000    -0.00000     0.00000
  Kinetic  7500.94413  7503.42865  7523.20976     0.00002     0.00000     0.00000
  Fock        0.00000     0.00000     0.00000     0.00000     0.00000     0.00000
  vdW       -21.67641   -21.67643   -16.56908     0.00000     0.00000    -0.00000
  Total     -25.97967   -25.97967    -1.60607     0.00000     0.00000     0.00000
  in kB     -27.38748   -27.38748    -1.69310     0.00000     0.00000     0.00000

 VOLUME and BASIS-vectors are now :
  energy-cutoff  :      600.00
  volume of cell :     1519.82
      direct lattice vectors                 reciprocal lattice vectors
     8.440984654  0.000000000  0.000000000     0.118469591  0.000000000  0.000000000
     0.000000000  8.440984654  0.000000000     0.000000000  0.118469591  0.000000000
     0.000000000  0.000000000 21.330738491     0.000000000  0.000000000  0.046880702

  length of vectors
     8.440984654  8.440984654 21.330738491     0.118469591  0.118469591  0.046880702

 FORCES acting on ions:
    Electron-Ion                     Ewald-Force                    Non-Local-Force
   0.122E-12 0.593E-12 -.837E+03   0.107E-13 0.622E-14 0.811E+03   0.287E-22 0.241E-22 0.266E+02
   0.433E-12 0.315E-11 -.145E+04   -.888E-14 0.222E-15 0.151E+04   0.512E-23 0.648E-24 -.596E+02
   -.294E-13 -.128E+00 0.208E+04   -.132E-12 0.129E+00 -.207E+04   0.585E-23 -.215E-03 -.716E+01
   0.128E+00 -.155E-12 0.208E+04   -.129E+00 0.537E-13 -.207E+04   0.215E-03 -.573E-22 -.716E+01
   -.607E-13 -.646E-12 0.713E+03   -.151E-10 0.151E-10 -.714E+03   -.271E-23 -.977E-23 0.505E+00
   0.472E+00 -.472E+00 0.714E+03   -.467E+00 0.467E+00 -.715E+03   -.275E-02 0.275E-02 0.532E+00
   -.435E-13 -.284E+01 -.643E+03   0.162E-11 0.283E+01 0.643E+03   -.329E-23 0.140E-01 -.159E+00
   0.284E+01 0.215E-12 -.643E+03   -.283E+01 -.144E-11 0.643E+03   -.140E-01 0.148E-22 -.159E+00
   -.540E-13 0.970E-12 -.200E+04   0.419E-12 -.348E-12 0.200E+04   -.772E-24 -.762E-23 0.608E+01
   0.180E+02 -.180E+02 -.198E+04   -.182E+02 0.182E+02 0.198E+04   0.965E-01 -.965E-01 0.618E+01
   -.392E-13 0.128E+00 0.208E+04   -.356E-12 -.129E+00 -.207E+04   -.697E-22 0.215E-03 -.716E+01
   0.124E+00 0.337E-12 0.208E+04   -.121E+00 0.131E-10 -.207E+04   -.183E-02 -.219E-22 -.716E+01
   -.626E-13 0.108E-12 0.714E+03   -.166E-10 0.391E-13 -.715E+03   0.651E-23 -.777E-23 0.470E+00
   0.472E+00 0.472E+00 0.714E+03   -.467E+00 -.467E+00 -.715E+03   -.275E-02 -.275E-02 0.532E+00
   -.492E-13 0.284E+01 -.643E+03   0.298E-11 -.283E+01 0.643E+03   0.180E-22 -.140E-01 -.159E+00
   0.413E+01 0.611E-12 -.636E+03   -.405E+01 -.995E-13 0.636E+03   -.801E-01 0.956E-23 -.262E+00
   -.476E-13 0.110E-11 -.199E+04   0.142E-13 -.355E-14 0.198E+04   -.280E-22 0.889E-23 0.609E+01
   0.180E+02 0.180E+02 -.198E+04   -.182E+02 -.182E+02 0.198E+04   0.965E-01 0.965E-01 0.618E+01
   0.696E-12 -.124E+00 0.208E+04   -.128E-10 0.121E+00 -.207E+04   -.204E-22 0.183E-02 -.716E+01
   -.128E+00 -.141E-12 0.208E+04   0.129E+00 0.702E-13 -.207E+04   -.215E-03 -.824E-22 -.716E+01
   0.638E-12 0.192E-12 0.714E+03   0.154E-11 0.150E-10 -.715E+03   0.380E-23 -.868E-24 0.470E+00
   -.472E+00 -.472E+00 0.714E+03   0.467E+00 0.467E+00 -.715E+03   0.275E-02 0.275E-02 0.532E+00
   0.620E-12 -.413E+01 -.636E+03   -.153E-11 0.405E+01 0.636E+03   -.581E-23 0.801E-01 -.262E+00
   -.284E+01 0.148E-12 -.643E+03   0.283E+01 -.153E-11 0.643E+03   0.140E-01 -.107E-22 -.159E+00
   0.701E-12 -.444E-12 -.199E+04   0.853E-13 -.249E-13 0.198E+04   -.195E-22 0.234E-22 0.609E+01
   -.180E+02 -.180E+02 -.198E+04   0.182E+02 0.182E+02 0.198E+04   -.965E-01 -.965E-01 0.618E+01
   0.704E-12 0.124E+00 0.208E+04   -.132E-10 -.121E+00 -.207E+04   0.495E-22 -.183E-02 -.716E+01
   -.124E+00 -.248E-11 0.208E+04   0.121E+00 0.131E-10 -.207E+04   0.183E-02 0.458E-22 -.716E+01
   0.667E-12 -.296E-12 0.714E+03   -.249E-13 0.924E-13 -.715E+03   -.905E-23 0.162E-22 0.603E+00
   -.472E+00 0.472E+00 0.714E+03   0.467E+00 -.467E+00 -.715E+03   0.275E-02 -.275E-02 0.532E+00
   0.623E-12 0.413E+01 -.636E+03   0.000E+00 -.405E+01 0.636E+03   0.398E-23 -.801E-01 -.262E+00
   -.413E+01 -.169E-11 -.636E+03   0.405E+01 -.284E-13 0.636E+03   0.801E-01 0.293E-22 -.262E+00
   0.677E-12 0.149E-11 -.191E+04   0.675E-13 -.711E-14 0.191E+04   -.249E-23 0.143E-22 0.399E+01
   -.180E+02 0.180E+02 -.198E+04   0.182E+02 -.182E+02 0.198E+04   -.965E-01 0.965E-01 0.618E+01
   -.457E-13 -.404E+00 0.535E+03   0.950E-13 0.400E+00 -.535E+03   0.225E-22 0.668E-02 -.925E-01
   0.404E+00 0.269E-12 0.535E+03   -.400E+00 -.444E-14 -.535E+03   -.668E-02 0.634E-23 -.925E-01
   -.353E-13 0.269E-13 0.156E+04   0.854E-11 -.844E-11 -.156E+04   0.118E-22 0.106E-22 0.341E+01
   0.939E-01 -.939E-01 0.156E+04   -.931E-01 0.931E-01 -.156E+04   -.107E-02 0.107E-02 0.341E+01
   0.733E-15 -.733E+01 -.152E+04   -.771E-12 0.727E+01 0.153E+04   0.123E-22 0.531E-01 -.495E+01
   0.733E+01 0.108E-12 -.152E+04   -.727E+01 0.856E-12 0.153E+04   -.531E-01 0.746E-22 -.495E+01
   -.232E-13 0.199E-12 -.478E+03   -.711E-14 0.497E-13 0.478E+03   0.107E-22 0.882E-23 0.258E+00
   0.257E+01 -.257E+01 -.473E+03   -.256E+01 0.256E+01 0.473E+03   -.611E-02 0.611E-02 0.328E+00
   -.635E-13 0.404E+00 0.535E+03   0.924E-13 -.400E+00 -.535E+03   -.300E-22 -.668E-02 -.925E-01
   0.380E+00 0.727E-12 0.535E+03   -.406E+00 -.762E-11 -.535E+03   0.348E-01 -.248E-22 -.113E+00
   -.471E-13 0.458E-12 0.156E+04   0.846E-11 -.867E-12 -.156E+04   0.192E-22 0.316E-23 0.341E+01
   0.939E-01 0.939E-01 0.156E+04   -.931E-01 -.931E-01 -.156E+04   -.107E-02 -.107E-02 0.341E+01
   0.181E-15 0.733E+01 -.152E+04   -.782E-12 -.727E+01 0.153E+04   -.509E-22 -.531E-01 -.495E+01
   0.236E+02 0.397E-12 -.149E+04   -.233E+02 0.818E-11 0.150E+04   -.344E+00 0.113E-22 -.497E+01
   -.175E-13 0.747E-12 -.473E+03   -.742E-11 0.711E-14 0.473E+03   0.147E-22 -.421E-23 0.282E+00
   0.257E+01 0.257E+01 -.473E+03   -.256E+01 -.256E+01 0.473E+03   -.611E-02 -.611E-02 0.328E+00
   0.277E-12 -.380E+00 0.535E+03   0.763E-11 0.406E+00 -.535E+03   0.273E-22 -.348E-01 -.113E+00
   -.404E+00 0.273E-12 0.535E+03   0.400E+00 -.568E-13 -.535E+03   0.668E-02 0.525E-24 -.925E-01
   0.319E-12 0.114E-11 0.156E+04   0.918E-12 -.848E-11 -.156E+04   0.135E-22 0.321E-22 0.341E+01
   -.939E-01 -.939E-01 0.156E+04   0.931E-01 0.931E-01 -.156E+04   0.107E-02 0.107E-02 0.341E+01
   0.320E-12 -.236E+02 -.149E+04   -.815E-11 0.233E+02 0.150E+04   0.215E-22 0.344E+00 -.497E+01
   -.733E+01 0.121E-12 -.152E+04   0.727E+01 0.888E-12 0.153E+04   0.531E-01 0.273E-22 -.495E+01
   0.294E-12 0.166E-11 -.473E+03   -.355E-13 0.743E-11 0.473E+03   -.783E-23 0.113E-22 0.282E+00
   -.257E+01 -.257E+01 -.473E+03   0.256E+01 0.256E+01 0.473E+03   0.611E-02 0.611E-02 0.328E+00
   0.287E-12 0.380E+00 0.535E+03   0.769E-11 -.406E+00 -.535E+03   -.832E-24 0.348E-01 -.113E+00
   -.380E+00 -.189E-11 0.535E+03   0.406E+00 -.770E-11 -.535E+03   -.348E-01 0.127E-22 -.113E+00
   0.295E-12 0.280E-11 0.156E+04   0.876E-12 -.888E-12 -.156E+04   0.143E-22 0.157E-22 0.340E+01
   -.939E-01 0.939E-01 0.156E+04   0.931E-01 -.931E-01 -.156E+04   0.107E-02 -.107E-02 0.341E+01
   0.305E-12 0.236E+02 -.149E+04   -.818E-11 -.233E+02 0.150E+04   -.489E-22 -.344E+00 -.497E+01
   -.236E+02 0.193E-11 -.149E+04   0.233E+02 0.818E-11 0.150E+04   0.344E+00 0.289E-23 -.497E+01
   0.270E-12 -.808E-13 -.473E+03   -.782E-13 0.355E-13 0.473E+03   0.427E-23 -.146E-22 -.197E+00
   -.257E+01 0.257E+01 -.473E+03   0.256E+01 -.256E+01 0.473E+03   0.611E-02 -.611E-02 0.328E+00
   0.169E-10 0.214E-10 0.521E+02   -.959E-13 0.604E-13 0.972E-11   0.607E-16 -.607E-16 -.521E+02

 POSITION                                       TOTAL-FORCE (eV/Angst)
      4.22049      4.22049     16.31916         0.000000     -0.000000      0.009480
      4.22049      4.22049     17.46598         0.000000     -0.000000      0.010599
      0.00000      6.33074      7.50000         0.000000      0.000028      0.338786
      2.11025      0.00000      7.50000        -0.000028     -0.000000      0.338786
      0.00000      0.00000      9.61025         0.000000     -0.000000      0.073095
      2.11025      6.33074      9.61025         0.001453     -0.001453      0.074659
      0.00000      6.33023     11.73368         0.000000      0.000630     -0.003832
      2.11076      0.00000     11.73368        -0.000630     -0.000000     -0.003832
      0.00000      0.00000     13.83822         0.000000     -0.000000     -0.001836
      2.10905      6.33193     13.83447        -0.000435      0.000435      0.001314
      0.00000      2.11025      7.50000         0.000000     -0.000028      0.338786
      2.11025      4.22049      7.50000         0.000494     -0.000000      0.338868
      0.00000      4.22049      9.61025         0.000000     -0.000000      0.081473
      2.11025      2.11025      9.61025         0.001453      0.001453      0.074659
      0.00000      2.11076     11.73368         0.000000     -0.000630     -0.003832
      2.11344      4.22049     11.73659        -0.003905     -0.000000     -0.000145
      0.00000      4.22049     13.83544         0.000000     -0.000000     -0.001086
      2.10905      2.10905     13.83447        -0.000435     -0.000435      0.001314
      4.22049      6.33074      7.50000         0.000000     -0.000494      0.338868
      6.33074      0.00000      7.50000         0.000028     -0.000000      0.338786
      4.22049      0.00000      9.61025         0.000000     -0.000000      0.081473
      6.33074      6.33074      9.61025        -0.001453     -0.001453      0.074659
      4.22049      6.32754     11.73659         0.000000      0.003905     -0.000145
      6.33023      0.00000     11.73368         0.000630     -0.000000     -0.003832
      4.22049      0.00000     13.83544         0.000000     -0.000000     -0.001086
      6.33193      6.33193     13.83447         0.000435      0.000435      0.001314
      4.22049      2.11025      7.50000         0.000000      0.000494      0.338868
      6.33074      4.22049      7.50000        -0.000494     -0.000000      0.338868
      4.22049      4.22049      9.61025         0.000000     -0.000000      0.087923
      6.33074      2.11025      9.61025        -0.001453      0.001453      0.074659
      4.22049      2.11344     11.73659         0.000000     -0.003905     -0.000145
      6.32754      4.22049     11.73659         0.003905     -0.000000     -0.000145
      4.22049      4.22049     13.87814         0.000000     -0.000000      0.006368
      6.33193      2.10905     13.83447         0.000435     -0.000435      0.001314
      0.00000      6.33074      9.61025         0.000000      0.001995      0.075502
      2.11025      0.00000      9.61025        -0.001995     -0.000000      0.075502
      0.00000      0.00000      7.50000         0.000000     -0.000000     -0.501305
      2.11025      6.33074      7.50000        -0.000305      0.000305     -0.501048
      0.00000      6.33258     13.88587         0.000000     -0.002762      0.000518
      2.10840      0.00000     13.88587         0.002762     -0.000000      0.000518
      0.00000      0.00000     11.72785         0.000000     -0.000000      0.006931
      2.10979      6.33120     11.72890         0.003299     -0.003299      0.000871
      0.00000      2.11025      9.61025         0.000000     -0.001995      0.075502
      2.11025      4.22049      9.61025         0.008920     -0.000000      0.084530
      0.00000      4.22049      7.50000         0.000000     -0.000000     -0.501158
      2.11025      2.11025      7.50000        -0.000305     -0.000305     -0.501048
      0.00000      2.10840     13.88587         0.000000      0.002762      0.000518
      2.10031      4.22049     13.88381        -0.001440     -0.000000      0.000842
      0.00000      4.22049     11.72684         0.000000     -0.000000      0.004938
      2.10979      2.10979     11.72890         0.003299      0.003299      0.000871
      4.22049      6.33074      9.61025         0.000000     -0.008920      0.084530
      6.33074      0.00000      9.61025         0.001995     -0.000000      0.075502
      4.22049      0.00000      7.50000         0.000000     -0.000000     -0.501158
      6.33074      6.33074      7.50000         0.000305      0.000305     -0.501048
      4.22049      6.34068     13.88381         0.000000      0.001440      0.000842
      6.33258      0.00000     13.88587        -0.002762     -0.000000      0.000518
      4.22049      0.00000     11.72684         0.000000     -0.000000      0.004938
      6.33120      6.33120     11.72890        -0.003299     -0.003299      0.000871
      4.22049      2.11025      9.61025         0.000000      0.008920      0.084530
      6.33074      4.22049      9.61025        -0.008920     -0.000000      0.084530
      4.22049      4.22049      7.50000         0.000000     -0.000000     -0.501830
      6.33074      2.11025      7.50000         0.000305     -0.000305     -0.501048
      4.22049      2.10031     13.88381         0.000000     -0.001440      0.000842
      6.34068      4.22049     13.88381         0.001440     -0.000000      0.000842
      4.22049      4.22049     11.73684         0.000000     -0.000000     -0.001226
      6.33120      2.10979     11.72890        -0.003299      0.003299      0.000871
    total drift:                                0.000000      0.000000      0.002535

  FREE ENERGIE OF THE ION-ELECTRON SYSTEM (eV)
  free  energy   TOTEN  =      -386.04686283 eV

  energy  without entropy=     -386.04686283  energy(sigma->0) =     -386.04686283