 vasp.6.3.0 20Jan22 (build Apr  1 2022 16:44:48) complex
 executed on        HPECrayEX_GCC date 2022.11.13  22:48:00

 INCAR:
   SYSTEM = MgO-rocksalt
   ISMEAR = 0
   SIGMA = 0.05
   EDIFF = 1E-6
   ALGO = ALL
   ISTART = 0
   IBRION = -1
   NSW = 0
   ISYM = 0
   DIPOL = 0.5 0.5 0.5
   IDIPOL = 3
   LDIPOL = .TRUE.
   LHFCALC = .TRUE.
   GGA = B5
   AEXX = 0.2
   AGGAX = 0.72
   AGGAC = 0.81
   ALDAC = 0.19
   IVDW = 1
   VDW_S6 = 1.05
   VDW_C6 = 1.23 0.70 0.63 0.70
   VDW_R0 = 1.397 1.342 1.243 1.342
   ENCUT = 600
   PREC = Accurate
   LASPH = .TRUE.
   LREAL = .FALSE.
   ISPIN = 2
   MAGMOM = 1.0 0.0 0.0 0.0 0.0 0.0 0.0 0.0 0.0 0.0 0.0 0.0 0.0 0.0 0.0 0.0 0.0 0.0 0.0 0.0 0.0 0.0 0.0 0.0 0.0 0.0 0.0 0.0 0.0 0.0 0.0 0.0 0.0 0.0 0.0 0.0 0.0 0.0 0.0 0.0 0.0 0.0 0.0 0.0 0.0 0.0 0.0 0.0 0.0 0.0 0.0 0.0 0.0 0.0 0.0 0.0 0.0 0.0 0.0 0.0 0.0 0.0 0.0 0.0 0.0 0.0
   NELM = 200
   NELMIN = 8
   NCORE = 8
   KPAR = 1
   LWAVE = .FALSE.
   LCHARG = .FALSE.

 POTCAR:    PAW_PBE N 08Apr2002
 POTCAR:    PAW_PBE O 08Apr2002
 POTCAR:    PAW_PBE Mg_pv 13Apr2007
 POTCAR:    PAW_PBE O 08Apr2002
 POTCAR:    PAW_PBE N 08Apr2002
   VRHFIN =N: s2p3

   TITEL  = PAW_PBE N 08Apr2002
   POMASS =   14.001; ZVAL   =    5.000    mass and valenz
   ENMAX  =  400.000; ENMIN  =  300.000 eV

[...]

   TITEL  = PAW_PBE Mg_pv 13Apr2007
   POMASS =   24.305; ZVAL   =    8.000    mass and valenz
   ENMAX  =  403.929; ENMIN  =  302.947 eV

   TITEL  = PAW_PBE O 08Apr2002
   POMASS =   16.000; ZVAL   =    6.000    mass and valenz
   ENMAX  =  400.000; ENMIN  =  300.000 eV

  PAW_PBE N 08Apr2002                   :
  PAW_PBE O 08Apr2002                   :
  PAW_PBE Mg_pv 13Apr2007               :
  PAW_PBE O 08Apr2002                   :

 POSCAR:  N  O Mg  O
  positions in direct lattice
 exchange correlation table for  LEXCH =       12
   RHO(1)=    0.500       N(1)  =     2000
   RHO(2)=  100.500       N(2)  =     4000

 ion  position               nearest neighbor table
   1  0.625  0.625  0.763-   2 1.18
   2  0.625  0.625  0.818-   1 1.18
   3  0.000  0.750  0.350-  35 2.14  37 2.14  38 2.14  45 2.14  54 2.14
   4  0.250  0.000  0.350-  36 2.14  37 2.14  38 2.14  46 2.14  53 2.14
   5  0.000  0.000  0.450-  37 2.14  36 2.14  35 2.14  43 2.14  52 2.14  41 2.14
   6  0.250  0.750  0.450-  38 2.14  36 2.14  35 2.14  44 2.14  51 2.14  42 2.14
   7  1.000  0.750  0.550-  58 2.13  41 2.14  49 2.14  42 2.14  35 2.15  39 2.17
   8  0.250  0.000  0.550-  41 2.14  50 2.14  57 2.14  42 2.14  36 2.15  40 2.16
   9  1.000  1.000  0.650-  41 2.13  40 2.14  47 2.14  39 2.14  56 2.14
  10  0.249  0.750  0.649-  42 2.13  39 2.13  55 2.13  40 2.14  48 2.14
  11  0.000  0.250  0.350-  43 2.14  37 2.14  45 2.14  46 2.14  62 2.14
  12  0.250  0.500  0.350-  44 2.14  38 2.14  45 2.14  46 2.14  61 2.14
  13  0.000  0.500  0.450-  45 2.14  43 2.14  44 2.14  35 2.14  60 2.14  49 2.14
  14  0.250  0.250  0.450-  46 2.14  43 2.14  44 2.14  36 2.14  59 2.14  50 2.14
  15  0.000  0.250  0.550-  41 2.14  50 2.14  49 2.14  66 2.14  43 2.15  47 2.16
  16  0.250  0.500  0.550-  65 2.13  50 2.14  42 2.14  49 2.14  44 2.15  48 2.17
  17  0.001  0.500  0.649-  49 2.13  48 2.13  64 2.13  47 2.14  39 2.14
  18  0.250  0.250  0.650-  50 2.13  40 2.14  47 2.14  48 2.14  63 2.14
  19  0.500  0.750  0.350-  51 2.14  38 2.14  53 2.14  54 2.14  61 2.14
  20  0.750  0.000  0.350-  52 2.14  37 2.14  53 2.14  54 2.14  62 2.14
  21  0.500  0.000  0.450-  53 2.14  51 2.14  52 2.14  36 2.14  59 2.14  57 2.14
  22  0.750  0.750  0.450-  54 2.14  51 2.14  52 2.14  35 2.14  60 2.14  58 2.15
  23  0.500  0.750  0.550-  58 2.14  65 2.14  42 2.14  57 2.14  51 2.15  55 2.15
  24  0.750  1.000  0.550-  58 2.13  41 2.14  57 2.14  66 2.14  52 2.15  56 2.17
  25  0.500  0.001  0.649-  57 2.13  63 2.13  55 2.13  40 2.14  56 2.14
  26  0.750  0.750  0.651-  39 2.14  56 2.14  58 2.15  55 2.15  64 2.15
  27  0.500  0.250  0.350-  59 2.14  53 2.14  46 2.14  61 2.14  62 2.14
  28  0.750  0.500  0.350-  60 2.14  54 2.14  45 2.14  61 2.14  62 2.14
  29  0.500  0.500  0.450-  61 2.14  51 2.14  59 2.14  60 2.14  44 2.14  65 2.15
  30  0.750  0.250  0.450-  62 2.14  52 2.14  59 2.14  60 2.14  43 2.14  66 2.14
  31  0.500  0.250  0.550-  65 2.13  50 2.14  66 2.14  57 2.14  59 2.15  63 2.17
  32  0.750  0.500  0.550-  65 2.14  58 2.14  66 2.14  49 2.14  60 2.15  64 2.15
  33  0.500  0.500  0.651-  48 2.14  63 2.14  65 2.15  55 2.15  64 2.15
  34  0.750  0.249  0.649-  66 2.13  56 2.13  64 2.13  47 2.14  63 2.14
  35  0.000  0.750  0.450-   3 2.14   5 2.14   6 2.14  13 2.14  22 2.14   7 2.15
  36  0.250  0.000  0.450-   4 2.14   5 2.14   6 2.14  14 2.14  21 2.14   8 2.15
  37  0.000  0.000  0.350-   5 2.14   4 2.14   3 2.14  11 2.14  20 2.14
  38  0.250  0.750  0.350-   6 2.14   4 2.14   3 2.14  12 2.14  19 2.14
  39  1.000  0.750  0.652-  10 2.13  26 2.14  17 2.14   9 2.14   7 2.17
  40  0.250  0.000  0.652-   9 2.14  18 2.14  25 2.14  10 2.14   8 2.16
  41  1.000  1.000  0.550-   9 2.13  24 2.14   7 2.14  15 2.14   8 2.14   5 2.14
  42  0.250  0.750  0.550-  10 2.13   8 2.14  16 2.14   7 2.14  23 2.14   6 2.14
  43  0.000  0.250  0.450-  11 2.14   5 2.14  13 2.14  14 2.14  30 2.14  15 2.15
  44  0.250  0.500  0.450-  12 2.14   6 2.14  13 2.14  14 2.14  29 2.14  16 2.15
  45  0.000  0.500  0.350-  13 2.14  11 2.14  12 2.14   3 2.14  28 2.14
  46  0.250  0.250  0.350-  14 2.14  11 2.14  12 2.14   4 2.14  27 2.14
  47  0.000  0.250  0.652-   9 2.14  18 2.14  34 2.14  17 2.14  15 2.16
  48  0.250  0.500  0.652-  17 2.13  33 2.14  10 2.14  18 2.14  16 2.17
  49  0.000  0.500  0.550-  17 2.13  15 2.14   7 2.14  16 2.14  32 2.14  13 2.14
  50  0.250  0.250  0.550-  18 2.13  31 2.14  16 2.14   8 2.14  15 2.14  14 2.14
  51  0.500  0.750  0.450-  19 2.14   6 2.14  21 2.14  22 2.14  29 2.14  23 2.15
  52  0.750  0.000  0.450-  20 2.14   5 2.14  21 2.14  22 2.14  30 2.14  24 2.15
  53  0.500  0.000  0.350-  21 2.14  19 2.14  20 2.14   4 2.14  27 2.14
  54  0.750  0.750  0.350-  22 2.14  19 2.14  20 2.14   3 2.14  28 2.14
  55  0.499  0.751  0.651-  25 2.13  10 2.13  26 2.15  33 2.15  23 2.15
  56  0.750  1.000  0.652-  34 2.13  26 2.14  25 2.14   9 2.14  24 2.17
  57  0.500  0.000  0.550-  25 2.13   8 2.14  24 2.14  31 2.14  23 2.14  21 2.14
  58  0.750  0.750  0.550-   7 2.13  24 2.13  32 2.14  23 2.14  22 2.15  26 2.15
  59  0.500  0.250  0.450-  27 2.14  21 2.14  14 2.14  29 2.14  30 2.14  31 2.15
  60  0.750  0.500  0.450-  28 2.14  22 2.14  13 2.14  29 2.14  30 2.14  32 2.15
  61  0.500  0.500  0.350-  29 2.14  19 2.14  27 2.14  28 2.14  12 2.14
  62  0.750  0.250  0.350-  30 2.14  20 2.14  27 2.14  28 2.14  11 2.14
  63  0.500  0.250  0.652-  25 2.13  33 2.14  34 2.14  18 2.14  31 2.17
  64  0.751  0.499  0.651-  17 2.13  34 2.13  26 2.15  33 2.15  32 2.15
  65  0.500  0.500  0.550-  31 2.13  16 2.13  32 2.14  23 2.14  29 2.15  33 2.15
  66  0.750  0.250  0.550-  34 2.13  15 2.14  31 2.14  24 2.14  32 2.14  30 2.14

IMPORTANT INFORMATION: All symmetrisations will be switched off!
NOSYMM: (Re-)initialisation of all symmetry stuff for point group C_1.

                                     Primitive cell

  volume of cell :    1563.6717

  direct lattice vectors                    reciprocal lattice vectors
     8.546113626  0.000000000  0.000000000     0.117012252  0.000000000  0.000000000
     0.000000000  8.546113626  0.000000000     0.000000000  0.117012252  0.000000000
     0.000000000  0.000000000 21.409585219     0.000000000  0.000000000  0.046708051

  length of vectors
     8.546113626  8.546113626 21.409585219     0.117012252  0.117012252  0.046708051

  position of ions in fractional coordinates (direct lattice)
     0.624999964  0.624999905  0.762890508
     0.625000008  0.624999846  0.818011913
     0.000000000  0.750000000  0.350310383
     0.250000000  0.000000000  0.350310383
     0.000000000  0.000000000  0.450103461
     0.250000000  0.750000000  0.450103461
     0.999607356  0.749972594  0.550498917
     0.249914009  0.000085997  0.550437843
     0.999989365  0.999989366  0.649779267
     0.249227767  0.750310830  0.649426625
     0.000000000  0.250000000  0.350310383
     0.250000000  0.500000000  0.350310383
     0.000000000  0.500000000  0.450103461
     0.250000000  0.250000000  0.450103461
     0.000085993  0.249914008  0.550437842
     0.250392649  0.500027402  0.550498913
     0.000772229  0.499689165  0.649426607
     0.250010633  0.250010637  0.649779281
     0.500000000  0.750000000  0.350310383
     0.750000000  0.000000000  0.350310383
     0.500000000  0.000000000  0.450103461
     0.750000000  0.750000000  0.450103461
     0.500070030  0.749929957  0.550323965
     0.749972598  0.999607364  0.550498922
     0.499689162  0.000772233  0.649426610
     0.750059461  0.750059468  0.650706109
     0.500000000  0.250000000  0.350310383
     0.750000000  0.500000000  0.350310383
     0.500000000  0.500000000  0.450103461
     0.750000000  0.250000000  0.450103461
     0.500027397  0.250392650  0.550498917
     0.749929954  0.500070034  0.550323966
     0.499940528  0.499940535  0.650706138
     0.750310830  0.249227770  0.649426625
     0.000000000  0.750000000  0.450103461
     0.250000000  0.000000000  0.450103461
     0.000000000  0.000000000  0.350310383
     0.250000000  0.750000000  0.350310383
     0.999901325  0.749825649  0.651629181
     0.249811485  0.000188509  0.651545458
     0.999930524  0.999930530  0.550244419
     0.249752128  0.750084018  0.550104497
     0.000000000  0.250000000  0.450103461
     0.250000000  0.500000000  0.450103461
     0.000000000  0.500000000  0.350310383
     0.250000000  0.250000000  0.350310383
     0.000188504  0.249811488  0.651545458
     0.250098671  0.500174359  0.651629206
     0.000247875  0.499915971  0.550104494
     0.250069482  0.250069486  0.550244427
     0.500000000  0.750000000  0.450103461
     0.750000000  0.000000000  0.450103461
     0.500000000  0.000000000  0.350310383
     0.750000000  0.750000000  0.350310383
     0.498617326  0.751382679  0.650719951
     0.749825644  0.999901332  0.651629185
     0.499915970  0.000247883  0.550104493
     0.749914360  0.749914361  0.550339183
     0.500000000  0.250000000  0.450103461
     0.750000000  0.500000000  0.450103461
     0.500000000  0.500000000  0.350310383
     0.750000000  0.250000000  0.350310383
     0.500174356  0.250098668  0.651629211
     0.751382676  0.498617328  0.650719952
     0.500085628  0.500085625  0.550339189
     0.750084016  0.249752128  0.550104498

  ion indices of the primitive-cell ions
   primitive index   ion index
                 1           1
                 2           2
                 3           3
                 4           4
                 5           5
                 6           6
                 7           7
                 8           8
                 9           9
                10          10
                11          11
                12          12
                13          13
                14          14
                15          15
                16          16
                17          17
                18          18
                19          19
                20          20
[...]
   0.49991597  0.00024788  0.55010449
   0.74991436  0.74991436  0.55033918
   0.50000000  0.25000000  0.45010346
   0.75000000  0.50000000  0.45010346
   0.50000000  0.50000000  0.35031038
   0.75000000  0.25000000  0.35031038
   0.50017436  0.25009867  0.65162921
   0.75138268  0.49861733  0.65071995
   0.50008563  0.50008563  0.55033919
   0.75008402  0.24975213  0.55010450

 position of ions in cartesian coordinates  (Angst):
   5.34132071  5.34132020 16.33316935
   5.34132108  5.34131970 17.51329577
   0.00000000  6.40958522  7.50000000
   2.13652841  0.00000000  7.50000000
   0.00000000  0.00000000  9.63652841
   2.13652841  6.40958522  9.63652841
   8.54275804  6.40935101 11.78595348
   2.13579351  0.00073494 11.78464591
   8.54602274  8.54602274 13.91150458
   2.12992881  6.41224161 13.90395467
   0.00000000  2.13652841  7.50000000
   2.13652841  4.27305681  7.50000000
   0.00000000  4.27305681  9.63652841
   2.13652841  2.13652841  9.63652841
   0.00073490  2.13579351 11.78464588
   2.13988403  4.27329100 11.78595339
   0.00659956  4.27040038 13.90395429
   2.13661928  2.13661931 13.91150489
   4.27305681  6.40958522  7.50000000
   6.40958522  0.00000000  7.50000000
   4.27305681  0.00000000  9.63652841
   6.40958522  6.40958522  9.63652841
   4.27365530  6.40898663 11.78220783
   6.40935104  8.54275811 11.78595359
   4.27040036  0.00659959 13.90395435
   6.41009338  6.41009344 13.93134790
   4.27305681  2.13652841  7.50000000
   6.40958522  4.27305681  7.50000000
   4.27305681  4.27305681  9.63652841
   6.40958522  2.13652841  9.63652841
   4.27329095  2.13988404 11.78595347
   6.40898660  4.27365533 11.78220785
   4.27254856  4.27254862 13.93134851
   6.41224161  2.12992884 13.90395466
   0.00000000  6.40958522  9.63652841
   2.13652841  0.00000000  9.63652841
   0.00000000  0.00000000  7.50000000
   2.13652841  6.40958522  7.50000000
   8.54527033  6.40809519 13.95111048
   2.13491733  0.00161102 13.94931802
   8.54551987  8.54551993 11.78050478
   2.13441006  6.41030324 11.77750911
   0.00000000  2.13652841  9.63652841
   2.13652841  4.27305681  9.63652841
   0.00000000  4.27305681  7.50000000
   2.13652841  2.13652841  7.50000000
   0.00161098  2.13491736 13.94931801
   2.13737166  4.27454691 13.95111102
   0.00211837  4.27233869 11.77750904
   2.13712221  2.13712224 11.78050495
   4.27305681  6.40958522  9.63652841
   6.40958522  0.00000000  9.63652841
   4.27305681  0.00000000  7.50000000
   6.40958522  6.40958522  7.50000000
   4.26124032  6.42140175 13.93164425
   6.40809516  8.54527040 13.95111057
   4.27233868  0.00211844 11.77750903
   6.40885333  6.40885334 11.78253364
   4.27305681  2.13652841  9.63652841
   6.40958522  4.27305681  9.63652841
   4.27305681  4.27305681  7.50000000
   6.40958522  2.13652841  7.50000000
   4.27454688  2.13737163 13.95111113
   6.42140172  4.26124034 13.93164427
   4.27378860  4.27378858 11.78253376
   6.41030323  2.13441006 11.77750913

--------------------------------------- Iteration      FINAL  ---------------------------------------

--------------------OUTCAR has been truncated-------------------------

[...]

--------------------OUTCAR has been truncated-------------------------

  DFT-D2 method for vdW energy calculation

  Parameters of vdW forcefield:
         C6(Jnm^6/mol)     R0(A)
   N        1.230          1.397
   O        0.700          1.342
   Mg       0.630          1.243
   O        0.700          1.342

  vdW correction parametrized for the method        |³³

  IVDW =   1
  VDW_RADIUS =    50.000 A
  VDW_S6 =     1.050
  VDW_SR =     1.000
  VDW_D =    20.000
  LVDW_EWALD = F

  Number of pair interactions contributing to vdW energy:  749083
  Edisp (eV):   -4.93559

 VOLUME and BASIS-vectors are now :
  energy-cutoff  :      600.00
  volume of cell :     1563.67
      direct lattice vectors                 reciprocal lattice vectors
     8.546113626  0.000000000  0.000000000     0.117012252  0.000000000  0.000000000
     0.000000000  8.546113626  0.000000000     0.000000000  0.117012252  0.000000000
     0.000000000  0.000000000 21.409585219     0.000000000  0.000000000  0.046708051

  length of vectors
     8.546113626  8.546113626 21.409585219     0.117012252  0.117012252  0.046708051

 FORCES acting on ions:
    Electron-Ion                     Ewald-Force                    Non-Local-Force
   0.621E-04 -.123E-03 -.104E+04   -.707E-04 0.156E-03 0.100E+04   0.109E-04 -.171E-04 0.405E+02
   -.111E-03 0.115E-03 -.147E+04   0.108E-03 -.121E-03 0.153E+04   0.122E-04 0.208E-04 -.534E+02
   -.174E+00 -.176E+00 0.202E+04   0.174E+00 0.177E+00 -.201E+04   0.339E-03 -.805E-03 -.634E+01
   0.176E+00 -.176E+00 0.202E+04   -.178E+00 0.178E+00 -.201E+04   0.105E-02 -.105E-02 -.633E+01
   -.570E+00 -.570E+00 0.697E+03   0.557E+00 0.557E+00 -.697E+03   0.815E-02 0.813E-02 0.457E+00
   0.877E+00 -.542E+00 0.698E+03   -.916E+00 0.536E+00 -.699E+03   0.242E-01 0.419E-02 0.396E+00
   -.359E+01 -.284E+01 -.615E+03   0.353E+01 0.283E+01 0.615E+03   0.539E-01 -.181E-02 -.192E+00
   0.288E+01 -.288E+01 -.618E+03   -.287E+01 0.287E+01 0.618E+03   -.784E-02 0.782E-02 -.202E+00
   -.876E+01 -.876E+01 -.194E+04   0.885E+01 0.885E+01 0.194E+04   -.712E-01 -.712E-01 0.556E+01
   0.187E+02 -.100E+02 -.193E+04   -.186E+02 0.101E+02 0.192E+04   -.301E-01 -.604E-01 0.560E+01
   -.176E+00 0.176E+00 0.202E+04   0.178E+00 -.178E+00 -.201E+04   -.104E-02 0.102E-02 -.633E+01
   0.174E+00 0.176E+00 0.202E+04   -.174E+00 -.177E+00 -.201E+04   -.329E-03 0.822E-03 -.634E+01
   -.877E+00 0.542E+00 0.698E+03   0.916E+00 -.536E+00 -.699E+03   -.242E-01 -.419E-02 0.396E+00
   0.570E+00 0.570E+00 0.697E+03   -.557E+00 -.557E+00 -.697E+03   -.815E-02 -.814E-02 0.457E+00
   -.288E+01 0.288E+01 -.618E+03   0.287E+01 -.287E+01 0.618E+03   0.783E-02 -.783E-02 -.202E+00
   0.359E+01 0.284E+01 -.615E+03   -.353E+01 -.283E+01 0.615E+03   -.539E-01 0.181E-02 -.192E+00
   -.187E+02 0.100E+02 -.193E+04   0.186E+02 -.101E+02 0.192E+04   0.301E-01 0.604E-01 0.560E+01
   0.876E+01 0.876E+01 -.194E+04   -.885E+01 -.885E+01 0.194E+04   0.712E-01 0.712E-01 0.556E+01
   0.172E+00 -.172E+00 0.202E+04   -.172E+00 0.172E+00 -.201E+04   0.291E-03 -.260E-03 -.633E+01
   -.176E+00 -.174E+00 0.202E+04   0.177E+00 0.174E+00 -.201E+04   -.856E-03 0.355E-03 -.634E+01
   0.542E+00 -.877E+00 0.698E+03   -.536E+00 0.916E+00 -.699E+03   -.418E-02 -.242E-01 0.396E+00
   -.898E+00 -.898E+00 0.699E+03   0.917E+00 0.917E+00 -.700E+03   -.128E-01 -.128E-01 0.459E+00
   0.373E+01 -.373E+01 -.602E+03   -.368E+01 0.368E+01 0.603E+03   -.482E-01 0.482E-01 -.415E+00
   -.284E+01 -.359E+01 -.615E+03   0.283E+01 0.353E+01 0.615E+03   -.183E-02 0.539E-01 -.192E+00
   0.100E+02 -.187E+02 -.193E+04   -.101E+02 0.186E+02 0.192E+04   0.604E-01 0.301E-01 0.560E+01
   -.288E+02 -.288E+02 -.188E+04   0.292E+02 0.292E+02 0.187E+04   -.294E+00 -.294E+00 0.561E+01
   0.176E+00 0.174E+00 0.202E+04   -.177E+00 -.174E+00 -.201E+04   0.851E-03 -.366E-03 -.634E+01
   -.172E+00 0.172E+00 0.202E+04   0.172E+00 -.172E+00 -.201E+04   -.295E-03 0.278E-03 -.633E+01
   0.898E+00 0.898E+00 0.699E+03   -.917E+00 -.917E+00 -.700E+03   0.128E-01 0.128E-01 0.459E+00
   -.542E+00 0.877E+00 0.698E+03   0.536E+00 -.916E+00 -.699E+03   0.417E-02 0.243E-01 0.396E+00
   0.284E+01 0.359E+01 -.615E+03   -.283E+01 -.353E+01 0.615E+03   0.183E-02 -.539E-01 -.192E+00
   -.373E+01 0.373E+01 -.602E+03   0.368E+01 -.368E+01 0.603E+03   0.482E-01 -.482E-01 -.415E+00
   0.288E+02 0.288E+02 -.188E+04   -.292E+02 -.292E+02 0.187E+04   0.294E+00 0.294E+00 0.561E+01
   -.100E+02 0.187E+02 -.193E+04   0.101E+02 -.186E+02 0.192E+04   -.604E-01 -.301E-01 0.560E+01
   -.549E+00 -.548E+00 0.523E+03   0.578E+00 0.544E+00 -.523E+03   -.344E-01 0.578E-02 -.117E+00
   0.550E+00 -.550E+00 0.522E+03   -.538E+00 0.538E+00 -.522E+03   -.145E-01 0.145E-01 -.924E-01
   -.116E+00 -.116E+00 0.152E+04   0.115E+00 0.115E+00 -.152E+04   0.100E-02 0.993E-03 0.315E+01
   0.147E+00 -.116E+00 0.152E+04   -.150E+00 0.115E+00 -.152E+04   0.314E-02 0.124E-02 0.315E+01
   -.142E+02 -.797E+01 -.146E+04   0.141E+02 0.793E+01 0.147E+04   0.688E-01 0.439E-01 -.432E+01
   0.692E+01 -.692E+01 -.147E+04   -.688E+01 0.688E+01 0.148E+04   -.394E-01 0.394E-01 -.437E+01
   -.185E+01 -.185E+01 -.460E+03   0.184E+01 0.184E+01 0.459E+03   0.442E-02 0.441E-02 0.287E+00
   0.309E+01 -.180E+01 -.454E+03   -.304E+01 0.179E+01 0.454E+03   -.540E-01 0.501E-02 0.322E+00
   -.550E+00 0.550E+00 0.522E+03   0.538E+00 -.538E+00 -.522E+03   0.145E-01 -.145E-01 -.924E-01
   0.549E+00 0.548E+00 0.523E+03   -.578E+00 -.544E+00 -.523E+03   0.344E-01 -.576E-02 -.117E+00
   -.147E+00 0.116E+00 0.152E+04   0.150E+00 -.115E+00 -.152E+04   -.316E-02 -.122E-02 0.315E+01
   0.116E+00 0.116E+00 0.152E+04   -.115E+00 -.115E+00 -.152E+04   -.991E-03 -.100E-02 0.315E+01
   -.692E+01 0.692E+01 -.147E+04   0.688E+01 -.688E+01 0.148E+04   0.394E-01 -.394E-01 -.437E+01
   0.142E+02 0.797E+01 -.146E+04   -.141E+02 -.793E+01 0.147E+04   -.688E-01 -.439E-01 -.432E+01
   -.309E+01 0.180E+01 -.454E+03   0.304E+01 -.179E+01 0.454E+03   0.540E-01 -.501E-02 0.322E+00
   0.185E+01 0.185E+01 -.460E+03   -.184E+01 -.184E+01 0.459E+03   -.441E-02 -.441E-02 0.287E+00
   0.526E+00 -.526E+00 0.525E+03   -.532E+00 0.532E+00 -.525E+03   0.667E-02 -.666E-02 -.660E-01
   -.548E+00 -.549E+00 0.523E+03   0.544E+00 0.578E+00 -.523E+03   0.575E-02 -.344E-01 -.117E+00
   0.116E+00 -.147E+00 0.152E+04   -.115E+00 0.150E+00 -.152E+04   -.124E-02 -.314E-02 0.315E+01
   -.146E+00 -.146E+00 0.152E+04   0.149E+00 0.149E+00 -.152E+04   -.417E-02 -.418E-02 0.315E+01
   0.218E+02 -.218E+02 -.142E+04   -.217E+02 0.217E+02 0.142E+04   -.109E+00 0.109E+00 -.417E+01
   -.797E+01 -.142E+02 -.146E+04   0.793E+01 0.141E+02 0.147E+04   0.439E-01 0.688E-01 -.432E+01
   0.180E+01 -.309E+01 -.454E+03   -.179E+01 0.304E+01 0.454E+03   -.501E-02 0.540E-01 0.322E+00
   -.316E+01 -.316E+01 -.452E+03   0.310E+01 0.310E+01 0.452E+03   0.617E-01 0.617E-01 0.821E-02
   0.548E+00 0.549E+00 0.523E+03   -.544E+00 -.578E+00 -.523E+03   -.575E-02 0.344E-01 -.117E+00
   -.526E+00 0.526E+00 0.525E+03   0.532E+00 -.532E+00 -.525E+03   -.668E-02 0.667E-02 -.660E-01
   0.146E+00 0.146E+00 0.152E+04   -.149E+00 -.149E+00 -.152E+04   0.418E-02 0.417E-02 0.315E+01
   -.116E+00 0.147E+00 0.152E+04   0.115E+00 -.150E+00 -.152E+04   0.123E-02 0.315E-02 0.315E+01
   0.797E+01 0.142E+02 -.146E+04   -.793E+01 -.141E+02 0.147E+04   -.439E-01 -.688E-01 -.432E+01
   -.218E+02 0.218E+02 -.142E+04   0.217E+02 -.217E+02 0.142E+04   0.109E+00 -.109E+00 -.417E+01
   0.316E+01 0.316E+01 -.452E+03   -.310E+01 -.310E+01 0.452E+03   -.617E-01 -.617E-01 0.821E-02
   -.180E+01 0.309E+01 -.454E+03   0.179E+01 -.304E+01 0.454E+03   0.501E-02 -.540E-01 0.322E+00
   0.687E-05 0.317E-04 0.307E+02   0.153E-12 0.167E-12 0.227E-12   0.951E-05 -.157E-04 -.255E+02

 POSITION                                       TOTAL-FORCE (eV/Angst)
      5.34132      5.34132     16.33317        -0.000007      0.000005      2.135272
      5.34132      5.34132     17.51330        -0.000008     -0.000001     -2.061971
      0.00000      6.40959      7.50000        -0.000046      0.000306      0.630768
      2.13653      0.00000      7.50000        -0.000389      0.000377      0.628935
      0.00000      0.00000      9.63653        -0.003560     -0.003575      0.024452
      2.13653      6.40959      9.63653        -0.011248     -0.001561      0.029980
      8.54276      6.40935     11.78595        -0.000684     -0.005303     -0.021338
      2.13579      0.00073     11.78465         0.004487     -0.004478     -0.017988
      8.54602      8.54602     13.91150         0.006727      0.006703     -0.299038
      2.12993      6.41224     13.90395         0.028674      0.005578     -0.297138
      0.00000      2.13653      7.50000         0.000396     -0.000376      0.628944
      2.13653      4.27306      7.50000         0.000057     -0.000311      0.630770
      0.00000      4.27306      9.63653         0.011257      0.001561      0.029970
      2.13653      2.13653      9.63653         0.003560      0.003576      0.024450
      0.00073      2.13579     11.78465        -0.004471      0.004493     -0.017987
      2.13988      4.27329     11.78595         0.000661      0.005310     -0.021341
      0.00660      4.27040     13.90395        -0.028709     -0.005580     -0.297176
      2.13662      2.13662     13.91150        -0.006724     -0.006706     -0.299014
      4.27306      6.40959      7.50000        -0.000226      0.000221      0.627094
      6.40959      0.00000      7.50000         0.000297     -0.000046      0.630668
      4.27306      0.00000      9.63653         0.001561      0.011250      0.029986
      6.40959      6.40959      9.63653         0.004279      0.004267      0.026052
      4.27366      6.40899     11.78221         0.000757     -0.000766      0.020380
      6.40935      8.54276     11.78595        -0.005308     -0.000690     -0.021355
      4.27040      0.00660     13.90395        -0.005582     -0.028714     -0.297162
      6.41009      6.41009     13.93135        -0.009254     -0.009264     -0.344132
      4.27306      2.13653      7.50000        -0.000306      0.000055      0.630725
      6.40959      4.27306      7.50000         0.000227     -0.000221      0.627152
      4.27306      4.27306      9.63653        -0.004287     -0.004262      0.026047
      6.40959      2.13653      9.63653        -0.001558     -0.011250      0.029989
      4.27329      2.13988     11.78595         0.005313      0.000661     -0.021346
      6.40899      4.27366     11.78221        -0.000759      0.000767      0.020393
      4.27255      4.27255     13.93135         0.009252      0.009266     -0.344078
      6.41224      2.12993     13.90395         0.005576      0.028680     -0.297133
      0.00000      6.40959      9.63653        -0.010326      0.002020      0.039184
      2.13653      0.00000      9.63653        -0.004824      0.004830      0.041846
      0.00000      0.00000      7.50000         0.000341      0.000347     -0.275882
      2.13653      6.40959      7.50000         0.001061      0.000409     -0.275197
      8.54527      6.40810     13.95111         0.001212      0.009063     -0.132642
      2.13492      0.00161     13.94932        -0.008102      0.008117     -0.140936
      8.54552      8.54552     11.78050         0.002162      0.002165      0.018196
      2.13441      6.41030     11.77751        -0.013063     -0.001216      0.018152
      0.00000      2.13653      9.63653         0.004823     -0.004833      0.041851
      2.13653      4.27306      9.63653         0.010336     -0.002009      0.039183
      0.00000      4.27306      7.50000        -0.001053     -0.000405     -0.275199
      2.13653      2.13653      7.50000        -0.000335     -0.000342     -0.275882
      0.00161      2.13492     13.94932         0.008127     -0.008091     -0.140929
      2.13737      4.27455     13.95111        -0.001219     -0.009047     -0.132638
      0.00212      4.27234     11.77751         0.013038      0.001224      0.018160
      2.13712      2.13712     11.78050        -0.002133     -0.002141      0.018189
      4.27306      6.40959      9.63653         0.001972     -0.001969      0.040991
      6.40959      0.00000      9.63653         0.002013     -0.010317      0.039170
      4.27306      0.00000      7.50000        -0.000405     -0.001051     -0.275210
      6.40959      6.40959      7.50000        -0.001404     -0.001393     -0.274783
      4.26124      6.42140     13.93164         0.007358     -0.007367     -0.101708
      6.40810      8.54527     13.95111         0.009060      0.001199     -0.132668
      4.27234      0.00212     11.77751         0.001215      0.013044      0.018161
      6.40885      6.40885     11.78253         0.010968      0.010957      0.006413
      4.27306      2.13653      9.63653        -0.002014      0.010313      0.039171
      6.40959      4.27306      9.63653        -0.001969      0.001977      0.040994
      4.27306      4.27306      7.50000         0.001394      0.001403     -0.274782
      6.40959      2.13653      7.50000         0.000411      0.001041     -0.275228
      4.27455      2.13737     13.95111        -0.009050     -0.001219     -0.132657
      6.42140      4.26124     13.93164        -0.007358      0.007365     -0.101711
      4.27379      4.27379     11.78253        -0.010985     -0.010975      0.006408
      6.41030      2.13441     11.77751        -0.001209     -0.013071      0.018154
    total drift:                               -0.000069     -0.000071      0.006513

  FREE ENERGIE OF THE ION-ELECTRON SYSTEM (eV)
  free  energy   TOTEN  =      -453.15752449 eV

  energy  without entropy=     -453.15752449  energy(sigma->0) =     -453.15752449