 vasp.6.3.0 20Jan22 (build Mar 11 2022 13:48:16) complex

 executed on             LinuxIFC date 2023.12.26  17:57:15

 INCAR:
   SYSTEM = MgO-rocksalt
   ISMEAR = 0
   SIGMA = 0.05
   EDIFF = 1E-6
   ALGO = ALL
   ISTART = 0
   IBRION = -1
   NSW = 0
   ISYM = 0
   DIPOL = 0.5 0.5 0.5
   IDIPOL = 3
   LDIPOL = .TRUE.
   GGA = RE
   AGGAC = 0.0
   LUSE_VDW = .TRUE.
   LASPH = .TRUE.
   ENCUT = 520
   PREC = Accurate
   LASPH = .TRUE.
   LREAL = Auto
   ISPIN = 1
   NELM = 200
   NELMIN = 8
   NCORE = 2
   KPAR = 1
   LWAVE = .FALSE.
   LCHARG = .FALSE.

 POTCAR:    PAW_PBE Mg_pv 13Apr2007
 POTCAR:    PAW_PBE O 08Apr2002
|           W    W    AA    RRRRR   N    N  II  N    N   GGGG   !!!           |
|           W    W   A  A   R    R  NN   N  II  NN   N  G    G  !!!           |
|           W    W  A    A  R    R  N N  N  II  N N  N  G       !!!           |
|           W WW W  AAAAAA  RRRRR   N  N N  II  N  N N  G  GGG   !            |
|           WW  WW  A    A  R   R   N   NN  II  N   NN  G    G                |
|           W    W  A    A  R    R  N    N  II  N    N   GGGG   !!!           |
|     For optimal performance we recommend to set                             |
|       NCORE = 2 up to number-of-cores-per-socket                            |
|     This setting can greatly improve the performance of VASP for DFT.       |
|     The default, NCORE=1 might be grossly inefficient on modern             |
|     multi-core architectures or massively parallel machines. Do your        |
|     Unfortunately you need to use the default for GW and RPA                |
|     calculations (for HF NCORE is supported but not extensively tested      |
|     yet).                                                                   |

   TITEL  = PAW_PBE Mg_pv 13Apr2007
   POMASS =   24.305; ZVAL   =    8.000    mass and valenz
   ENMAX  =  403.929; ENMIN  =  302.947 eV

   TITEL  = PAW_PBE O 08Apr2002
   POMASS =   16.000; ZVAL   =    6.000    mass and valenz
   ENMAX  =  400.000; ENMIN  =  300.000 eV

 Optimization of the real space projectors (new method)

 maximal supplied QI-value         = 18.90
 optimisation between [QCUT,QGAM] = [ 11.53, 23.24] = [ 37.21,151.29] Ry
 Optimized for a Real-space Cutoff    1.28 Angstroem

   l    n(q)    QCUT    max X(q) W(low)/X(q) W(high)/X(q)  e(spline)
   1      8    11.527     2.974    0.44E-04    0.56E-04    0.12E-06
   1      8    11.527     4.279    0.12E-03    0.12E-03    0.26E-06
   0      9    11.527    16.381    0.46E-04    0.64E-04    0.78E-07
   0      9    11.527     5.611    0.26E-04    0.43E-04    0.55E-07
   2      8    11.527     4.652    0.22E-03    0.72E-04    0.47E-07
 Optimization of the real space projectors (new method)

 maximal supplied QI-value         = 24.76
 optimisation between [QCUT,QGAM] = [ 11.64, 23.27] = [ 37.91,151.63] Ry
 Optimized for a Real-space Cutoff    1.14 Angstroem

   l    n(q)    QCUT    max X(q) W(low)/X(q) W(high)/X(q)  e(spline)
   0      8    11.635    20.381    0.10E-03    0.33E-03    0.24E-06
   0      8    11.635    15.268    0.11E-03    0.35E-03    0.26E-06
   1      7    11.635     5.964    0.24E-03    0.31E-03    0.30E-06
   1      7    11.635     5.382    0.22E-03    0.25E-03    0.26E-06
|               ----> ADVICE to this user running VASP <----                  |
|     You enforced a specific xc type in the INCAR file but a different       |
|     type was found in the POTCAR file.                                      |
|     I HOPE YOU KNOW WHAT YOU ARE DOING!                                     |

  PAW_PBE Mg_pv 13Apr2007               :
  PAW_PBE O 08Apr2002                   :

 POSCAR: Mg  O
  positions in direct lattice
 exchange correlation table for  LEXCH =       40
   RHO(1)=    0.500       N(1)  =     2000
   RHO(2)=  100.500       N(2)  =     4000

 ion  position               nearest neighbor table
   1  0.000  0.375  0.350- 129 2.14 132 2.14 139 2.14 163 2.14 212 2.14
   2  0.125  0.000  0.350- 130 2.14 131 2.14 140 2.14 147 2.14 164 2.14
   3  0.000  0.000  0.450- 131 2.14 130 2.14 137 2.14 161 2.14 210 2.14 135 2.14
   4  0.125  0.375  0.450- 132 2.14 129 2.14 138 2.14 145 2.14 162 2.14 136 2.14
   5  0.000  0.375  0.550- 167 2.14 143 2.14 216 2.14 136 2.14 129 2.14 133 2.16
   6  0.125  0.000  0.550- 151 2.14 144 2.14 168 2.14 135 2.14 130 2.14 134 2.16
   7  0.000  0.000  0.649- 135 2.12 134 2.14 214 2.14 165 2.14 141 2.14
   8  0.125  0.375  0.649- 136 2.12 142 2.14 166 2.14 149 2.14 133 2.14
   9  0.000  0.125  0.350- 137 2.14 131 2.14 139 2.14 140 2.14 220 2.14
  10  0.125  0.250  0.350- 138 2.14 132 2.14 139 2.14 140 2.14 155 2.14
  11  0.000  0.250  0.450- 139 2.14 137 2.14 138 2.14 129 2.14 218 2.14 143 2.14
  12  0.125  0.125  0.450- 140 2.14 137 2.14 138 2.14 130 2.14 153 2.14 144 2.14
  13  1.000  0.125  0.550- 143 2.14 224 2.14 144 2.14 135 2.14 137 2.14 141 2.16
  14  0.125  0.250  0.550- 159 2.14 136 2.14 144 2.14 143 2.14 138 2.14 142 2.16
  15  1.000  0.250  0.649- 143 2.12 141 2.14 133 2.14 222 2.14 142 2.14
  16  0.125  0.125  0.649- 144 2.12 157 2.14 142 2.14 141 2.14 134 2.14
  17  0.250  0.375  0.350- 145 2.14 132 2.14 148 2.14 155 2.14 179 2.14
  18  0.375  0.000  0.350- 146 2.14 147 2.14 156 2.14 180 2.14 195 2.14
  19  0.250  0.000  0.450- 147 2.14 146 2.14 130 2.14 153 2.14 177 2.14 151 2.14
  20  0.375  0.375  0.450- 152 2.13 148 2.14 145 2.14 154 2.14 178 2.14 193 2.14
  21  0.250  0.375  0.550- 152 2.13 183 2.14 159 2.14 136 2.14 145 2.14 149 2.17
  22  0.375  0.000  0.550- 160 2.14 199 2.14 151 2.14 184 2.14 146 2.14 150 2.16
  23  0.250  0.000  0.649- 151 2.12 157 2.14 150 2.14 181 2.14 134 2.14
  24  0.375  0.375  0.649- 152 2.13 197 2.13 182 2.14 158 2.14 149 2.14
  25  0.250  0.125  0.350- 153 2.14 147 2.14 140 2.14 155 2.14 156 2.14
  26  0.375  0.250  0.350- 154 2.14 148 2.14 155 2.14 156 2.14 203 2.14
  27  0.250  0.250  0.450- 155 2.14 145 2.14 153 2.14 154 2.14 138 2.14 159 2.14
  28  0.375  0.125  0.450- 156 2.14 153 2.14 154 2.14 146 2.14 201 2.14 160 2.14
  29  0.250  0.125  0.550- 159 2.14 160 2.14 144 2.14 151 2.14 153 2.14 157 2.16
  30  0.375  0.250  0.550- 152 2.13 207 2.14 159 2.14 160 2.14 154 2.14 158 2.16
  31  0.250  0.250  0.649- 159 2.12 158 2.13 149 2.14 157 2.14 142 2.14
  32  0.375  0.125  0.649- 160 2.12 158 2.13 205 2.14 157 2.14 150 2.14
  33  0.000  0.875  0.350- 161 2.14 131 2.14 164 2.14 171 2.14 244 2.14
  34  0.125  0.500  0.350- 162 2.14 132 2.14 163 2.14 172 2.14 179 2.14
  35  0.000  0.500  0.450- 163 2.14 162 2.14 129 2.14 169 2.14 242 2.14 167 2.14
  36  0.125  0.875  0.450- 164 2.14 161 2.14 130 2.14 170 2.14 177 2.14 168 2.14
  37  0.000  0.875  0.550- 248 2.14 175 2.14 135 2.14 168 2.14 161 2.14 165 2.16
  38  0.125  0.500  0.550- 183 2.13 136 2.14 167 2.14 176 2.14 162 2.14 166 2.16
  39  1.000  0.500  0.649- 167 2.12 133 2.14 173 2.14 246 2.14 166 2.14
  40  0.125  0.875  0.649- 168 2.12 174 2.14 134 2.14 165 2.14 181 2.14
  41  0.000  0.625  0.350- 169 2.14 163 2.14 171 2.14 172 2.14 252 2.14
  42  0.125  0.750  0.350- 170 2.14 164 2.14 171 2.14 172 2.14 187 2.14
  43  0.000  0.750  0.450- 171 2.14 169 2.14 170 2.14 161 2.14 250 2.14 175 2.14
  44  0.125  0.625  0.450- 172 2.14 169 2.14 170 2.14 162 2.14 185 2.14 176 2.14
  45  0.000  0.625  0.550- 256 2.14 176 2.14 167 2.14 175 2.14 169 2.14 173 2.16
  46  0.125  0.750  0.550- 176 2.14 191 2.14 175 2.14 168 2.14 170 2.14 174 2.16
  47  0.000  0.750  0.649- 175 2.12 254 2.14 165 2.14 174 2.14 173 2.14
  48  0.125  0.625  0.649- 176 2.12 189 2.14 166 2.14 174 2.14 173 2.14
  49  0.250  0.875  0.350- 177 2.14 164 2.14 147 2.14 180 2.14 187 2.14
  50  0.375  0.500  0.350- 178 2.14 148 2.14 179 2.14 188 2.14 227 2.14
  51  0.250  0.500  0.450- 179 2.14 162 2.14 178 2.14 145 2.14 185 2.14 183 2.14
  52  0.375  0.875  0.450- 180 2.14 177 2.14 146 2.14 186 2.14 225 2.14 184 2.14
  53  0.250  0.875  0.550- 184 2.14 191 2.14 151 2.14 168 2.14 177 2.14 181 2.16
  54  0.375  0.500  0.550- 231 2.13 152 2.14 192 2.14 183 2.14 178 2.14 182 2.16
  55  0.250  0.500  0.649- 183 2.12 182 2.13 149 2.14 189 2.14 166 2.14
  56  0.375  0.875  0.649- 184 2.12 181 2.14 229 2.14 190 2.14 150 2.14
  57  0.250  0.625  0.350- 185 2.14 179 2.14 172 2.14 187 2.14 188 2.14
  58  0.375  0.750  0.350- 186 2.14 180 2.14 187 2.14 188 2.14 235 2.14
  59  0.250  0.750  0.450- 187 2.14 177 2.14 185 2.14 186 2.14 170 2.14 191 2.14
  60  0.375  0.625  0.450- 188 2.14 185 2.14 186 2.14 178 2.14 233 2.14 192 2.14
[...]
 242  0.875  0.500  0.450- 114 2.14  84 2.14  35 2.14 115 2.14 124 2.14 118 2.14
 243  0.750  0.500  0.350- 115 2.14  98 2.14 114 2.14  81 2.14 121 2.14
 244  0.875  0.875  0.350- 116 2.14  82 2.14 113 2.14  33 2.14 122 2.14
 245  0.750  0.875  0.651- 104 2.14 127 2.14 120 2.14  87 2.14 117 2.16
 246  0.875  0.500  0.651- 128 2.14  88 2.14  39 2.14 119 2.14 118 2.16
 247  0.750  0.500  0.550- 119 2.12 118 2.13 125 2.14 115 2.14  85 2.14 102 2.14
 248  0.875  0.875  0.550- 120 2.12  37 2.14  86 2.14 117 2.14 126 2.14 116 2.14
 249  0.750  0.625  0.450- 121 2.14 115 2.14 108 2.14 123 2.14 124 2.14 125 2.14
 250  0.875  0.750  0.450- 122 2.14 116 2.14  43 2.14 123 2.14 124 2.14 126 2.14
 251  0.750  0.750  0.350- 123 2.14 113 2.14 121 2.14 122 2.14 106 2.14
 252  0.875  0.625  0.350- 124 2.14 114 2.14 121 2.14 122 2.14  41 2.14
 253  0.750  0.625  0.651- 127 2.14 128 2.14 119 2.14 112 2.14 125 2.16
 254  0.875  0.750  0.651- 120 2.14  47 2.14 128 2.14 127 2.14 126 2.16
 255  0.750  0.750  0.550- 127 2.12 126 2.14 117 2.14 125 2.14 110 2.14 123 2.14
 256  0.875  0.625  0.550- 128 2.12 126 2.14  45 2.14 125 2.14 118 2.14 124 2.14

IMPORTANT INFORMATION: All symmetrisations will be switched off!
NOSYMM: (Re-)initialisation of all symmetry stuff for point group C_1.

                                     Primitive cell

  volume of cell :    6254.6868

  direct lattice vectors                    reciprocal lattice vectors
    17.092227251  0.000000000  0.000000000     0.058506126  0.000000000  0.000000000
     0.000000000 17.092227251  0.000000000     0.000000000  0.058506126  0.000000000
     0.000000000  0.000000000 21.409585219     0.000000000  0.000000000  0.046708051

  length of vectors
    17.092227251 17.092227251 21.409585219     0.058506126  0.058506126  0.046708051

  position of ions in fractional coordinates (direct lattice)
     0.000000000  0.375000000  0.350310383
     0.125000000  0.000000000  0.350310383
     0.000000000  0.000000000  0.450103461
     0.125000000  0.375000000  0.450103461
     0.000001116  0.375006529  0.550244890
     0.125014202  0.000019934  0.550218876
     0.000001432  0.000011542  0.649141069
     0.125051145  0.375013201  0.649186242
     0.000000000  0.125000000  0.350310383
     0.125000000  0.250000000  0.350310383
     0.000000000  0.250000000  0.450103461
     0.125000000  0.125000000  0.450103461
     0.999998939  0.125015787  0.550216330
     0.125028987  0.250027342  0.550221735
     0.999997611  0.250015703  0.649146861
     0.125015494  0.125030615  0.649157303
     0.250000000  0.375000000  0.350310383
     0.375000000  0.000000000  0.350310383
     0.250000000  0.000000000  0.450103461
     0.375000000  0.375000000  0.450103461
[...]
   4.27322321 14.95583960 11.77986045
   6.41131038  8.54496849 11.78054515
   4.27473707  8.54605021 13.89552404
   6.40966995 14.95569435 13.89798098
   4.27305681 10.68264203  7.50000000
   6.40958522 12.81917044  7.50000000
   4.27305681 12.81917044  9.63652841
   6.40958522 10.68264203  9.63652841
[...]
  14.95569884  8.54611363  9.63652841
  12.81917044  8.54611363  7.50000000
  14.95569884 14.95569884  7.50000000
  12.81910491 14.95582605 13.94043473
  14.95559363  8.54640075 13.94119863
  12.82108962  8.54669525 11.77279630
  14.95577252 14.95591614 11.77378388
  12.81917044 10.68264203  9.63652841
  14.95569884 12.81917044  9.63652841
  12.81917044 12.81917044  7.50000000
  14.95569884 10.68264203  7.50000000
  12.81972867 10.68338684 13.94236776
  14.95583824 12.81945874 13.94015560
  12.81932694 12.81942376 11.77398300
  14.95584897 10.68291173 11.77401692

--------------------------------------- Iteration      FINAL  ---------------------------------------

--------------------OUTCAR has been truncated-------------------------

[...]

--------------------OUTCAR has been truncated-------------------------

  FORCE on cell =-STRESS in cart. coord.  units (eV):
  Direction    XX          YY          ZZ          XY          YZ          ZX
  Alpha Z  3402.85350  3402.85350  3402.85350
  Ewald  626170.77503626170.78391************    -0.00192     0.44733     0.11800
  Hartree666574.00152666574.00739************     0.00034     0.25650     0.06280
  E(xc)  -10073.82032-10073.82030-10083.36813    -0.00000     0.00121     0.00029
  Local  ************************************     0.00136    -0.70721    -0.17978
  n-local-11254.64906-11254.64915-11327.56616     0.00045     0.01450     0.00315
  augment  4312.23266  4312.23266  4278.31204     0.00002     0.00354     0.00059
  Kinetic 29219.49364 29219.49335 29372.48820     0.00021    -0.09188    -0.02471
  Fock        0.00000     0.00000     0.00000     0.00000     0.00000     0.00000
  Total    -110.36051  -110.36100     4.83016     0.00047    -0.07600    -0.01965
  in kB     -28.26954   -28.26966     1.23728     0.00012    -0.01947    -0.00503

 VOLUME and BASIS-vectors are now :
  energy-cutoff  :      520.00
  volume of cell :     6254.69
      direct lattice vectors                 reciprocal lattice vectors
    17.092227251  0.000000000  0.000000000     0.058506126  0.000000000  0.000000000
     0.000000000 17.092227251  0.000000000     0.000000000  0.058506126  0.000000000
     0.000000000  0.000000000 21.409585219     0.000000000  0.000000000  0.046708051

  length of vectors
    17.092227251 17.092227251 21.409585219     0.058506126  0.058506126  0.046708051

 FORCES acting on ions:
    Electron-Ion                     Ewald-Force                    Non-Local-Force
   -.223E-01 0.374E-01 0.201E+04   0.224E-01 -.371E-01 -.200E+04   -.893E-04 -.201E-03 -.641E+01
   0.593E-03 -.136E-01 0.201E+04   -.260E-02 0.117E-01 -.200E+04   0.154E-02 0.146E-02 -.641E+01
   -.243E-01 -.525E-01 0.666E+03   0.246E-01 0.500E-01 -.666E+03   -.209E-03 0.203E-02 0.383E+00
   0.148E+00 0.829E-01 0.666E+03   -.146E+00 -.820E-01 -.666E+03   -.969E-03 -.647E-03 0.397E+00
   -.566E-01 0.905E-01 -.670E+03   0.573E-01 -.907E-01 0.670E+03   -.167E-03 -.344E-03 -.290E+00
   0.244E-01 -.174E-01 -.670E+03   -.243E-01 0.168E-01 0.670E+03   -.246E-02 -.157E-02 -.288E+00
   -.259E-01 -.496E-01 -.200E+04   0.261E-01 0.515E-01 0.199E+04   -.170E-03 -.991E-03 0.561E+01
   0.884E-01 0.292E-01 -.200E+04   -.105E+00 -.261E-01 0.199E+04   0.871E-02 -.222E-02 0.558E+01
   -.158E-01 -.165E-02 0.201E+04   0.159E-01 -.844E-03 -.200E+04   -.856E-04 0.191E-02 -.641E+01
   0.523E-01 0.304E-01 0.201E+04   -.549E-01 -.317E-01 -.200E+04   0.195E-02 0.101E-02 -.641E+01
   -.456E-01 -.189E-01 0.666E+03   0.468E-01 0.184E-01 -.666E+03   -.779E-03 0.532E-03 0.389E+00
   0.288E-01 -.186E-01 0.666E+03   -.326E-01 0.145E-01 -.666E+03   0.296E-02 0.328E-02 0.388E+00
   -.470E-01 -.644E-01 -.670E+03   0.471E-01 0.613E-01 0.670E+03   0.330E-03 0.170E-02 -.293E+00
   0.242E+00 0.142E-01 -.670E+03   -.246E+00 -.108E-01 0.670E+03   -.289E-02 -.631E-02 -.289E+00
   -.844E-03 -.134E-01 -.200E+04   -.123E-02 0.187E-01 0.199E+04   0.169E-02 -.395E-02 0.560E+01
   0.101E+00 0.383E-01 -.200E+04   -.984E-01 -.287E-01 0.199E+04   -.464E-02 -.988E-02 0.560E+01
   0.146E+00 0.428E-01 0.201E+04   -.152E+00 -.429E-01 -.200E+04   0.448E-02 0.987E-04 -.641E+01
   0.174E-01 0.352E-01 0.201E+04   -.188E-01 -.378E-01 -.200E+04   0.105E-02 0.197E-02 -.641E+01
   -.185E-01 -.101E-02 0.666E+03   0.140E-01 -.225E-02 -.666E+03   0.351E-02 0.264E-02 0.388E+00
   0.181E+00 0.698E-01 0.667E+03   -.212E+00 -.704E-01 -.667E+03   0.229E-01 0.538E-03 0.382E+00
   0.140E+01 0.174E+00 -.671E+03   -.136E+01 -.180E+00 0.671E+03   -.611E-01 0.408E-02 -.204E+00
   -.255E-01 0.202E+00 -.670E+03   0.286E-01 -.207E+00 0.670E+03   -.549E-02 -.162E-02 -.291E+00
   0.204E-01 0.970E-01 -.200E+04   -.108E-01 -.941E-01 0.199E+04   -.923E-02 -.496E-02 0.560E+01
   0.256E+01 0.120E+00 -.200E+04   -.282E+01 -.157E+00 0.199E+04   0.117E+00 0.223E-01 0.574E+01
   0.525E-01 0.516E-01 0.201E+04   -.555E-01 -.547E-01 -.200E+04   0.231E-02 0.228E-02 -.640E+01
   0.110E+00 0.127E+00 0.201E+04   -.114E+00 -.130E+00 -.200E+04   0.274E-02 0.277E-02 -.640E+01
   0.219E+00 0.171E+00 0.666E+03   -.225E+00 -.171E+00 -.666E+03   0.480E-02 0.104E-03 0.408E+00
   0.144E+00 0.213E+00 0.666E+03   -.145E+00 -.218E+00 -.666E+03   0.724E-03 0.448E-02 0.406E+00
   0.133E+00 0.138E+00 -.670E+03   -.145E+00 -.150E+00 0.670E+03   0.547E-02 0.485E-02 -.263E+00
   0.909E+00 0.994E+00 -.670E+03   -.926E+00 -.100E+01 0.670E+03   -.241E-02 -.124E-01 -.197E+00
   0.581E+00 0.633E-01 -.200E+04   -.630E+00 -.473E-01 0.199E+04   0.214E-01 -.193E-01 0.558E+01
   0.519E-01 0.607E+00 -.200E+04   -.328E-01 -.656E+00 0.199E+04   -.211E-01 0.212E-01 0.558E+01
   -.150E-01 -.327E-01 0.201E+04   0.150E-01 0.329E-01 -.200E+04   -.621E-04 -.168E-03 -.641E+01
   0.616E-01 0.198E-01 0.201E+04   -.647E-01 -.186E-01 -.200E+04   0.237E-02 -.954E-03 -.641E+01
   -.652E-01 0.102E+00 0.666E+03   0.665E-01 -.100E+00 -.666E+03   -.731E-03 -.117E-02 0.391E+00
   -.239E-01 -.581E-01 0.666E+03   0.207E-01 0.596E-01 -.666E+03   0.245E-02 -.105E-02 0.382E+00
   -.439E-01 -.746E-01 -.670E+03   0.433E-01 0.742E-01 0.670E+03   0.879E-03 0.462E-03 -.282E+00
   0.422E+00 0.130E+00 -.670E+03   -.422E+00 -.132E+00 0.670E+03   -.793E-02 0.453E-02 -.280E+00
   0.597E-02 0.284E-01 -.200E+04   -.729E-02 -.343E-01 0.199E+04   0.977E-03 0.562E-02 0.560E+01
   -.469E-01 -.494E-01 -.200E+04   0.482E-01 0.487E-01 0.199E+04   -.138E-03 0.864E-03 0.561E+01
   -.253E-01 -.286E-02 0.201E+04   0.256E-01 0.499E-02 -.200E+04   -.208E-03 -.164E-02 -.641E+01
   0.820E-02 -.363E-01 0.201E+04   -.103E-01 0.384E-01 -.200E+04   0.161E-02 -.162E-02 -.641E+01
   -.353E-01 -.272E-01 0.666E+03   0.360E-01 0.307E-01 -.666E+03   -.463E-03 -.275E-02 0.381E+00
   0.860E-01 -.483E-02 0.666E+03   -.931E-01 0.867E-02 -.666E+03   0.521E-02 -.300E-02 0.389E+00
   -.545E-01 0.582E-01 -.670E+03   0.545E-01 -.542E-01 0.670E+03   0.109E-03 -.232E-02 -.293E+00
   0.750E-02 -.102E+00 -.670E+03   -.112E-01 0.103E+00 0.670E+03   0.198E-02 0.153E-02 -.292E+00
   -.155E-01 0.380E-01 -.200E+04   0.121E-01 -.385E-01 0.199E+04   0.283E-02 -.112E-02 0.561E+01
   0.151E+00 -.169E-01 -.200E+04   -.147E+00 0.618E-02 0.199E+04   -.630E-02 0.977E-02 0.560E+01
   0.294E-02 -.391E-01 0.201E+04   -.535E-02 0.394E-01 -.200E+04   0.185E-02 -.258E-03 -.641E+01
   0.115E+00 -.617E-01 0.201E+04   -.118E+00 0.652E-01 -.200E+04   0.284E-02 -.262E-02 -.640E+01
   0.184E+00 -.268E-01 0.666E+03   -.193E+00 0.257E-01 -.666E+03   0.724E-02 0.644E-03 0.395E+00
   -.425E-01 -.103E+00 0.666E+03   0.419E-01 0.105E+00 -.666E+03   0.606E-03 -.993E-03 0.389E+00
   -.535E-01 -.102E+00 -.670E+03   0.494E-01 0.101E+00 0.670E+03   0.245E-02 0.759E-03 -.292E+00
   0.868E+00 -.687E+00 -.670E+03   -.852E+00 0.696E+00 0.670E+03   -.355E-01 0.907E-02 -.262E+00
   0.946E+00 0.113E+00 -.199E+04   -.100E+01 -.122E+00 0.199E+04   0.169E-01 0.104E-01 0.558E+01
   -.388E-01 -.221E-01 -.200E+04   0.449E-01 0.207E-01 0.199E+04   -.455E-02 0.151E-02 0.560E+01
   0.669E-01 -.553E-01 0.201E+04   -.701E-01 0.582E-01 -.200E+04   0.245E-02 -.224E-02 -.640E+01
   0.232E-01 -.998E-01 0.201E+04   -.245E-01 0.103E+00 -.200E+04   0.103E-02 -.233E-02 -.641E+01
   0.359E-01 -.134E+00 0.666E+03   -.407E-01 0.141E+00 -.666E+03   0.371E-02 -.509E-02 0.388E+00
   0.124E+00 -.173E+00 0.666E+03   -.122E+00 0.182E+00 -.666E+03   -.104E-02 -.686E-02 0.398E+00
[...]
   -.869E-01 -.467E-02 0.151E+04   0.900E-01 0.510E-02 -.151E+04   -.419E-02 -.592E-03 0.358E+01
   -.131E-01 -.294E-01 0.151E+04   0.145E-01 0.296E-01 -.151E+04   -.193E-02 -.310E-03 0.357E+01
   -.225E-01 -.103E-01 -.152E+04   0.243E-01 0.113E-01 0.152E+04   -.114E-02 -.895E-03 -.503E+01
   0.108E+00 0.529E-01 -.152E+04   -.118E+00 -.485E-01 0.152E+04   0.482E-02 -.710E-02 -.506E+01
   -.199E-01 0.168E+00 -.496E+03   0.153E-01 -.163E+00 0.496E+03   -.215E-01 -.123E-01 0.347E+00
   0.153E-01 -.334E-01 -.497E+03   -.156E-01 0.315E-01 0.497E+03   -.941E-03 0.135E-02 0.269E+00
   -.117E+00 -.106E+00 0.499E+03   0.120E+00 0.109E+00 -.499E+03   -.395E-02 -.352E-02 -.486E-01
   -.551E-01 -.684E-01 0.499E+03   0.582E-01 0.710E-01 -.499E+03   -.425E-02 -.362E-02 -.663E-01
   -.225E-01 -.636E-01 0.151E+04   0.243E-01 0.657E-01 -.151E+04   -.259E-02 -.301E-02 0.357E+01
   -.557E-01 -.179E-01 0.151E+04   0.579E-01 0.195E-01 -.151E+04   -.310E-02 -.228E-02 0.357E+01
   0.305E-01 -.517E-02 -.152E+04   -.204E-01 0.182E-01 0.152E+04   -.239E-01 -.274E-01 -.510E+01
   0.710E-02 -.745E-02 -.152E+04   -.111E-01 0.374E-02 0.152E+04   0.346E-02 0.297E-02 -.502E+01
   0.200E-01 -.152E+00 -.497E+03   -.233E-01 0.158E+00 0.497E+03   0.274E-03 -.100E-01 0.260E+00
   -.143E+00 0.311E-01 -.497E+03   0.150E+00 -.338E-01 0.497E+03   -.103E-01 -.721E-03 0.260E+00
   -.350E-01 -.252E-01 0.605E+02   -.330E-11 0.548E-12 0.102E-11   0.329E-01 0.209E-01 -.606E+02

 POSITION                                       TOTAL-FORCE (eV/Angst)
      0.00000      6.40959      7.50000         0.000038      0.000085      0.321789
      2.13653      0.00000      7.50000        -0.000452     -0.000427      0.322307
      0.00000      0.00000      9.63653         0.000071     -0.000465      0.014351
      2.13653      6.40959      9.63653         0.000572      0.000297      0.014302
      0.00002      6.40970     11.78051         0.000519     -0.000545      0.011983
      2.13677      0.00034     11.77996        -0.002277     -0.002118      0.011109
      0.00002      0.00020     13.89784         0.000026      0.000921      0.040861
      2.13740      6.40981     13.89881        -0.007668      0.000943      0.047627
      0.00000      2.13653      7.50000         0.000031     -0.000563      0.322054
      2.13653      4.27306      7.50000        -0.000563     -0.000272      0.321689
      0.00000      4.27306      9.63653         0.000452      0.000096      0.014403
      2.13653      2.13653      9.63653        -0.000843     -0.000789      0.014062
     17.09221      2.13680     11.77990         0.000434     -0.001424      0.012359
      2.13702      4.27352     11.78002        -0.007210     -0.002884      0.013775
     17.09219      4.27333     13.89797        -0.000369      0.001347      0.044782
      2.13679      2.13705     13.89819        -0.001727     -0.000322      0.043086
      4.27306      6.40959      7.50000        -0.001298      0.000006      0.321987
      6.40959      0.00000      7.50000        -0.000283     -0.000560      0.321715
      4.27306      0.00000      9.63653        -0.000924     -0.000602      0.013944
      6.40959      6.40959      9.63653        -0.006949     -0.000017     -0.000499
      4.27498      6.40971     11.78019        -0.024259     -0.001503      0.010442
      6.40992      0.00052     11.78006        -0.002339     -0.006752      0.013604
      4.27335      0.00042     13.89817         0.000409     -0.002073      0.043389
      6.41717      6.41094     13.90010        -0.137726     -0.014145     -0.023882
      4.27306      2.13653      7.50000        -0.000708     -0.000697      0.321463
      6.40959      4.27306      7.50000        -0.000884     -0.000884      0.320821
      4.27306      4.27306      9.63653        -0.001005      0.000119      0.011064
      6.40959      2.13653      9.63653        -0.000103     -0.000810      0.011315
      4.27339      2.13697     11.78003        -0.006637     -0.006849      0.012050
      6.41088      4.27466     11.78036        -0.019349     -0.020269     -0.011496
      4.27475      4.27410     13.89753        -0.027189     -0.003321      0.055155
      6.41041      2.13833     13.89734        -0.002014     -0.027653      0.056187
      0.00000     14.95570      7.50000         0.000026      0.000065      0.322464
      2.13653      8.54611      7.50000        -0.000674      0.000269      0.321890
      0.00000      8.54611      9.63653         0.000496      0.000273      0.013557
      2.13653     14.95570      9.63653        -0.000680      0.000447      0.014255
      0.00001     14.95585     11.77979         0.000204      0.000080      0.010522
      2.13675      8.54588     11.77991        -0.008138      0.002286      0.013480
     17.09220      8.54617     13.89823        -0.000329     -0.000290      0.044007
      2.13654     14.95585     13.89782         0.001123      0.000212      0.040617
      0.00000     10.68264      7.50000         0.000065      0.000494      0.322129
      2.13653     12.81917      7.50000        -0.000482      0.000508      0.322209
      0.00000     12.81917      9.63653         0.000183      0.000852      0.014055
      2.13653     10.68264      9.63653        -0.001807      0.000839      0.013303
      0.00002     10.68259     11.77992         0.000120      0.001671      0.012521
      2.13663     12.81912     11.77986        -0.001667      0.002404      0.011398
      0.00003     12.81941     13.89774        -0.000527     -0.001661      0.040778
      2.13675     10.68265     13.89807        -0.002690     -0.000938      0.044102
      4.27306     14.95570      7.50000        -0.000551      0.000086      0.322060
      6.40959      8.54611      7.50000        -0.000896      0.000859      0.320835
      4.27306      8.54611      9.63653        -0.001664     -0.000491      0.009876
      6.40959     14.95570      9.63653         0.000037      0.000714      0.014039
      4.27322     14.95584     11.77986        -0.001597      0.000196      0.012584
      6.41131      8.54497     11.78055        -0.019152      0.017441     -0.024670
      4.27474      8.54605     13.89552        -0.039543      0.001766      0.061003
      6.40967     14.95569     13.89798         0.001523      0.000131      0.044861
      4.27306     10.68264      7.50000        -0.000739      0.000696      0.321257
      6.40959     12.81917      7.50000        -0.000262      0.000690      0.321718
      4.27306     12.81917      9.63653        -0.001103      0.001817      0.013290
      6.40959     10.68264      9.63653         0.000474      0.001670      0.008765
[...]
     14.95570      8.54611      9.63653         0.000765     -0.000480      0.032102
     12.81917      8.54611      7.50000        -0.001154     -0.000138     -0.401499
     14.95570     14.95570      7.50000        -0.000528     -0.000070     -0.402420
     12.81910     14.95583     13.94043         0.000663      0.000095     -0.011759
     14.95559      8.54640     13.94120        -0.005224     -0.002660     -0.023195
     12.82109      8.54670     11.77280        -0.026142     -0.007249      0.003483
     14.95577     14.95592     11.77378        -0.001248     -0.000573     -0.006532
     12.81917     10.68264      9.63653        -0.000984     -0.000815      0.032545
     14.95570     12.81917      9.63653        -0.001135     -0.000933      0.031956
     12.81917     12.81917      7.50000        -0.000712     -0.000823     -0.401835
     14.95570     10.68264      7.50000        -0.000858     -0.000613     -0.401883
     12.81973     10.68339     13.94237        -0.013749     -0.014269     -0.032476
     14.95584     12.81946     13.94016        -0.000496     -0.000725     -0.010634
     12.81933     12.81942     11.77398        -0.003011     -0.003985     -0.009705
     14.95585     10.68291     11.77402        -0.003635     -0.003430     -0.009628
    total drift:                               -0.002082     -0.004385     -0.180913

  FREE ENERGIE OF THE ION-ELECTRON SYSTEM (eV)
  free  energy   TOTEN  =      -908.49082075 eV

  energy  without entropy=     -908.49082075  energy(sigma->0) =     -908.49082075