 vasp.6.3.0 20Jan22 (build Apr  1 2022 16:44:48) complex
 executed on        HPECrayEX_GCC date 2022.12.17  01:30:45

 INCAR:
   SYSTEM = MgO-rocksalt
   ISMEAR = 0
   SIGMA = 0.05
   EDIFF = 1E-7
   ALGO = ALL
   ISTART = 0
   IBRION = 2
   NSW = 1000
   ISYM = 0
   ISIF = 2
   EDIFFG = -0.01
   DIPOL = 0.5 0.5 0.5
   IDIPOL = 3
   LDIPOL = .TRUE.
   GGA = RE
   IVDW = 13
   VDW_S8 = 1.7468
   VDW_A1 = 0.5363
   VDW_A2 = 3.0726
   ENCUT = 600
   PREC = Accurate
   LASPH = .TRUE.
   LREAL = .FALSE.
   ISPIN = 1
   NELM = 200
   NELMIN = 8
   NCORE = 8
   KPAR = 1
   LWAVE = .FALSE.
   LCHARG = .FALSE.

 POTCAR:    PAW_PBE N 08Apr2002
 POTCAR:    PAW_PBE O 08Apr2002
 POTCAR:    PAW_PBE Mg_pv 13Apr2007
 POTCAR:    PAW_PBE O 08Apr2002
 POTCAR:    PAW_PBE N 08Apr2002
   VRHFIN =N: s2p3

   TITEL  = PAW_PBE N 08Apr2002
   POMASS =   14.001; ZVAL   =    5.000    mass and valenz
   ENMAX  =  400.000; ENMIN  =  300.000 eV

[...]

   TITEL  = PAW_PBE Mg_pv 13Apr2007
   POMASS =   24.305; ZVAL   =    8.000    mass and valenz
   ENMAX  =  403.929; ENMIN  =  302.947 eV

   TITEL  = PAW_PBE O 08Apr2002
   POMASS =   16.000; ZVAL   =    6.000    mass and valenz
   ENMAX  =  400.000; ENMIN  =  300.000 eV

  PAW_PBE N 08Apr2002                   :
  PAW_PBE O 08Apr2002                   :
  PAW_PBE Mg_pv 13Apr2007               :
  PAW_PBE O 08Apr2002                   :

 POSCAR:  N  O Mg  O
  positions in direct lattice
|           W    W    AA    RRRRR   N    N  II  N    N   GGGG   !!!           |
|           W    W   A  A   R    R  NN   N  II  NN   N  G    G  !!!           |
|           W    W  A    A  R    R  N N  N  II  N N  N  G       !!!           |
|           W WW W  AAAAAA  RRRRR   N  N N  II  N  N N  G  GGG   !            |
|           WW  WW  A    A  R   R   N   NN  II  N   NN  G    G                |
|           W    W  A    A  R    R  N    N  II  N    N   GGGG   !!!           |
|     Specifying the vdW parameters                                           |
|     VDW_S8 = 1.747                                                          |
|     VDW_A1 = 0.536                                                          |
|     VDW_A2 = 3.073                                                          |
|     in the INCAR file will overwrite the defaults for revpbe. Please        |
|     make sure that is what you intended.                                    |

 ion  position               nearest neighbor table
   1  0.512  0.512  0.746-   3 1.17  35 2.07
   2  0.749  0.749  0.746-   4 1.17  28 2.07
   3  0.483  0.483  0.798-   1 1.17
   4  0.777  0.777  0.798-   2 1.17
   5  0.000  0.750  0.352-  37 2.11  39 2.11  40 2.11  47 2.11  56 2.11
   6  0.250  0.000  0.352-  38 2.11  39 2.11  40 2.11  48 2.11  55 2.11
   7  0.000  0.000  0.451-  39 2.11  38 2.11  37 2.11  45 2.11  54 2.11  43 2.12
   8  0.250  0.750  0.451-  40 2.11  38 2.11  37 2.11  46 2.11  53 2.11  44 2.12
   9  0.000  0.750  0.550-  43 2.11  44 2.11  51 2.11  60 2.11  37 2.13  41 2.15
  10  0.250  0.000  0.550-  43 2.11  44 2.11  52 2.11  59 2.11  38 2.13  42 2.15
  11  0.000  0.000  0.649-  41 2.11  42 2.11  49 2.11  58 2.11  43 2.11
  12  0.250  0.750  0.649-  41 2.11  42 2.11  50 2.11  57 2.11  44 2.11
  13  0.000  0.250  0.352-  45 2.11  39 2.11  47 2.11  48 2.11  64 2.11
  14  0.250  0.500  0.352-  46 2.11  40 2.11  47 2.11  48 2.11  63 2.11
  15  0.000  0.500  0.451-  47 2.11  45 2.11  46 2.11  37 2.11  62 2.11  51 2.12
  16  0.250  0.250  0.451-  48 2.11  45 2.11  46 2.11  38 2.11  61 2.11  52 2.12
  17  0.000  0.250  0.550-  43 2.11  51 2.11  52 2.11  68 2.11  45 2.13  49 2.15
  18  0.250  0.500  0.550-  44 2.11  51 2.11  52 2.11  67 2.11  46 2.13  50 2.15
  19  0.000  0.500  0.649-  41 2.11  49 2.11  50 2.11  66 2.11  51 2.11
  20  0.250  0.250  0.649-  42 2.11  49 2.11  50 2.11  65 2.11  52 2.11
  21  0.500  0.750  0.352-  53 2.11  40 2.11  55 2.11  56 2.11  63 2.11
  22  0.750  0.000  0.352-  54 2.11  39 2.11  55 2.11  56 2.11  64 2.11
  23  0.500  0.000  0.451-  55 2.11  53 2.11  54 2.11  38 2.11  61 2.11  59 2.12
  24  0.750  0.750  0.451-  56 2.11  53 2.11  54 2.11  37 2.11  62 2.11  60 2.12
  25  0.500  0.750  0.550-  44 2.11  59 2.11  60 2.11  67 2.11  53 2.13  57 2.15
  26  0.750  0.000  0.550-  43 2.11  59 2.11  60 2.11  68 2.11  54 2.13  58 2.15
  27  0.500  0.000  0.649-  42 2.11  57 2.11  58 2.11  65 2.11  59 2.11
  28  0.750  0.750  0.649-   2 2.07  41 2.11  57 2.11  58 2.11  66 2.11  60 2.11
  29  0.500  0.250  0.352-  61 2.11  55 2.11  48 2.11  63 2.11  64 2.11
  30  0.750  0.500  0.352-  62 2.11  56 2.11  47 2.11  63 2.11  64 2.11
  31  0.500  0.500  0.451-  63 2.11  53 2.11  61 2.11  62 2.11  46 2.11  67 2.12
  32  0.750  0.250  0.451-  64 2.11  54 2.11  61 2.11  62 2.11  45 2.11  68 2.12
  33  0.500  0.250  0.550-  52 2.11  59 2.11  67 2.11  68 2.11  61 2.13  65 2.15
  34  0.750  0.500  0.550-  51 2.11  60 2.11  67 2.11  68 2.11  62 2.13  66 2.15
  35  0.500  0.500  0.649-   1 2.07  50 2.11  57 2.11  65 2.11  66 2.11  67 2.11
  36  0.750  0.250  0.649-  49 2.11  58 2.11  65 2.11  66 2.11  68 2.11
  37  0.000  0.750  0.451-   5 2.11   7 2.11   8 2.11  15 2.11  24 2.11   9 2.13
  38  0.250  0.000  0.451-   6 2.11   7 2.11   8 2.11  16 2.11  23 2.11  10 2.13
  39  0.000  0.000  0.352-   7 2.11   6 2.11   5 2.11  13 2.11  22 2.11
  40  0.250  0.750  0.352-   8 2.11   6 2.11   5 2.11  14 2.11  21 2.11
  41  0.000  0.750  0.651-  11 2.11  12 2.11  19 2.11  28 2.11   9 2.15
  42  0.250  0.000  0.651-  11 2.11  12 2.11  20 2.11  27 2.11  10 2.15
  43  0.000  0.000  0.550-   9 2.11  10 2.11  17 2.11  26 2.11  11 2.11   7 2.12
  44  0.250  0.750  0.550-   9 2.11  10 2.11  18 2.11  25 2.11  12 2.11   8 2.12
  45  0.000  0.250  0.451-  13 2.11   7 2.11  15 2.11  16 2.11  32 2.11  17 2.13
  46  0.250  0.500  0.451-  14 2.11   8 2.11  15 2.11  16 2.11  31 2.11  18 2.13
  47  0.000  0.500  0.352-  15 2.11  13 2.11  14 2.11   5 2.11  30 2.11
  48  0.250  0.250  0.352-  16 2.11  13 2.11  14 2.11   6 2.11  29 2.11
  49  0.000  0.250  0.651-  11 2.11  19 2.11  20 2.11  36 2.11  17 2.15
  50  0.250  0.500  0.651-  12 2.11  19 2.11  20 2.11  35 2.11  18 2.15
  51  0.000  0.500  0.550-   9 2.11  17 2.11  18 2.11  34 2.11  19 2.11  15 2.12
  52  0.250  0.250  0.550-  10 2.11  17 2.11  18 2.11  33 2.11  20 2.11  16 2.12
  53  0.500  0.750  0.451-  21 2.11   8 2.11  23 2.11  24 2.11  31 2.11  25 2.13
  54  0.750  0.000  0.451-  22 2.11   7 2.11  23 2.11  24 2.11  32 2.11  26 2.13
  55  0.500  0.000  0.352-  23 2.11  21 2.11  22 2.11   6 2.11  29 2.11
  56  0.750  0.750  0.352-  24 2.11  21 2.11  22 2.11   5 2.11  30 2.11
  57  0.500  0.750  0.651-  12 2.11  27 2.11  28 2.11  35 2.11  25 2.15
  58  0.750  0.000  0.651-  11 2.11  27 2.11  28 2.11  36 2.11  26 2.15
  59  0.500  0.000  0.550-  10 2.11  25 2.11  26 2.11  33 2.11  27 2.11  23 2.12
  60  0.750  0.750  0.550-   9 2.11  25 2.11  26 2.11  34 2.11  28 2.11  24 2.12
  61  0.500  0.250  0.451-  29 2.11  23 2.11  16 2.11  31 2.11  32 2.11  33 2.13
  62  0.750  0.500  0.451-  30 2.11  24 2.11  15 2.11  31 2.11  32 2.11  34 2.13
  63  0.500  0.500  0.352-  31 2.11  21 2.11  29 2.11  30 2.11  14 2.11
  64  0.750  0.250  0.352-  32 2.11  22 2.11  29 2.11  30 2.11  13 2.11
  65  0.500  0.250  0.651-  20 2.11  27 2.11  35 2.11  36 2.11  33 2.15
  66  0.750  0.500  0.651-  19 2.11  28 2.11  35 2.11  36 2.11  34 2.15
  67  0.500  0.500  0.550-  18 2.11  25 2.11  33 2.11  34 2.11  35 2.11  31 2.12
  68  0.750  0.250  0.550-  17 2.11  26 2.11  33 2.11  34 2.11  36 2.11  32 2.12

IMPORTANT INFORMATION: All symmetrisations will be switched off!
NOSYMM: (Re-)initialisation of all symmetry stuff for point group C_1.

                                     Primitive cell

  volume of cell :    1519.8199

  direct lattice vectors                    reciprocal lattice vectors
     8.440984654  0.000000000  0.000000000     0.118469591  0.000000000  0.000000000
     0.000000000  8.440984654  0.000000000     0.000000000  0.118469591  0.000000000
     0.000000000  0.000000000 21.330738491     0.000000000  0.000000000  0.046880702

  length of vectors
     8.440984654  8.440984654 21.330738491     0.118469591  0.118469591  0.046880702

  position of ions in fractional coordinates (direct lattice)
     0.511846959  0.511846959  0.745904417
     0.748786141  0.748786141  0.745904417
     0.483219929  0.483219920  0.798305401
     0.777413167  0.777413158  0.798305403
     0.000000000  0.750000000  0.351605267
     0.250000000  0.000000000  0.351605267
     0.000000000  0.000000000  0.450535089
     0.250000000  0.750000000  0.450535089
     0.000000000  0.750000000  0.550171424
     0.250000000  0.000000000  0.550171424
     0.000000000  0.000000000  0.648861363
     0.250000000  0.750000000  0.648861363
     0.000000000  0.250000000  0.351605267
     0.250000000  0.500000000  0.351605267
     0.000000000  0.500000000  0.450535089
     0.250000000  0.250000000  0.450535089
     0.000000000  0.250000000  0.550171424
     0.250000000  0.500000000  0.550171424
     0.000000000  0.500000000  0.648861363
     0.250000000  0.250000000  0.648861363
     0.500000000  0.750000000  0.351605267
     0.750000000  0.000000000  0.351605267
     0.500000000  0.000000000  0.450535089
     0.750000000  0.750000000  0.450535089
     0.500000000  0.750000000  0.550171424
     0.750000000  0.000000000  0.550171424
     0.500000000  0.000000000  0.648861363
     0.750000000  0.750000000  0.648861363
     0.500000000  0.250000000  0.351605267
     0.750000000  0.500000000  0.351605267
     0.500000000  0.500000000  0.450535089
     0.750000000  0.250000000  0.450535089
     0.500000000  0.250000000  0.550171424
     0.750000000  0.500000000  0.550171424
     0.500000000  0.500000000  0.648861363
     0.750000000  0.250000000  0.648861363
     0.000000000  0.750000000  0.450535089
     0.250000000  0.000000000  0.450535089
     0.000000000  0.000000000  0.351605267
     0.250000000  0.750000000  0.351605267
     0.000000000  0.750000000  0.651006323
     0.250000000  0.000000000  0.651006323
     0.000000000  0.000000000  0.549890244
     0.250000000  0.750000000  0.549890244
     0.000000000  0.250000000  0.450535089
     0.250000000  0.500000000  0.450535089
     0.000000000  0.500000000  0.351605267
     0.250000000  0.250000000  0.351605267
     0.000000000  0.250000000  0.651006323
     0.250000000  0.500000000  0.651006323
     0.000000000  0.500000000  0.549890244
     0.250000000  0.250000000  0.549890244
     0.500000000  0.750000000  0.450535089
     0.750000000  0.000000000  0.450535089
     0.500000000  0.000000000  0.351605267
     0.750000000  0.750000000  0.351605267
     0.500000000  0.750000000  0.651006323
     0.750000000  0.000000000  0.651006323
     0.500000000  0.000000000  0.549890244
     0.750000000  0.750000000  0.549890244
     0.500000000  0.250000000  0.450535089
     0.750000000  0.500000000  0.450535089
     0.500000000  0.500000000  0.351605267
     0.750000000  0.250000000  0.351605267
     0.500000000  0.250000000  0.651006323
     0.750000000  0.500000000  0.651006323
     0.500000000  0.500000000  0.549890244
     0.750000000  0.250000000  0.549890244

[...]
   6.33073849  4.22049233 11.73556278
   4.22049233  4.22049233 13.84069205
   6.33073849  2.11024616 13.84069205
   0.00000000  6.33073849  9.61024616
   2.11024616  0.00000000  9.61024616
   0.00000000  0.00000000  7.50000000
   2.11024616  6.33073849  7.50000000
   0.00000000  6.33073849 13.88644563
   2.11024616  0.00000000 13.88644563
   0.00000000  0.00000000 11.72956500
   2.11024616  6.33073849 11.72956500
   0.00000000  2.11024616  9.61024616
   2.11024616  4.22049233  9.61024616
   0.00000000  4.22049233  7.50000000
   2.11024616  2.11024616  7.50000000
   0.00000000  2.11024616 13.88644563
   2.11024616  4.22049233 13.88644563
   0.00000000  4.22049233 11.72956500
   2.11024616  2.11024616 11.72956500
   4.22049233  6.33073849  9.61024616
   6.33073849  0.00000000  9.61024616
   4.22049233  0.00000000  7.50000000
   6.33073849  6.33073849  7.50000000
   4.22049233  6.33073849 13.88644563
   6.33073849  0.00000000 13.88644563
   4.22049233  0.00000000 11.72956500
   6.33073849  6.33073849 11.72956500
   4.22049233  2.11024616  9.61024616
   6.33073849  4.22049233  9.61024616
   4.22049233  4.22049233  7.50000000
   6.33073849  2.11024616  7.50000000
   4.22049233  2.11024616 13.88644563
   6.33073849  4.22049233 13.88644563
   4.22049233  4.22049233 11.72956500
   6.33073849  2.11024616 11.72956500

--------------------------------------- Iteration      FINAL  ---------------------------------------

--------------------OUTCAR has been truncated-------------------------

[...]

--------------------OUTCAR has been truncated-------------------------

  FORCE on cell =-STRESS in cart. coord.  units (eV):
  Direction    XX          YY          ZZ          XY          YZ          ZX
  Alpha Z   945.89258   945.89258   945.89258
  Ewald  155521.62470155521.62419************   320.82127     0.62229     0.62151
  Hartree166276.83624166276.83585************   241.15022     0.12748     0.12711
  E(xc)   -2567.68871 -2567.68871 -2572.83464     0.86744     0.00282     0.00282
  Local  ************************330380.17970  -577.65728    -0.65996    -0.65884
  n-local -2854.67096 -2854.67095 -2889.16174    -7.81035     0.00286     0.00286
  augment  1060.67830  1060.67830  1049.80080     2.07851    -0.00235    -0.00233
  Kinetic  7775.73044  7775.73043  7766.85629    20.57689    -0.14407    -0.14405
  Fock        0.00000     0.00000     0.00000     0.00000     0.00000     0.00000
  vdW       -21.86729   -21.86732   -17.23098     0.05037    -0.00003    -0.00003
  Total     -25.31192   -25.31194    -1.99257     0.07707    -0.05097    -0.05097
  in kB     -26.68355   -26.68357    -2.10055     0.08124    -0.05373    -0.05373

 VOLUME and BASIS-vectors are now :
  energy-cutoff  :      600.00
  volume of cell :     1519.82
      direct lattice vectors                 reciprocal lattice vectors
     8.440984654  0.000000000  0.000000000     0.118469591  0.000000000  0.000000000
     0.000000000  8.440984654  0.000000000     0.000000000  0.118469591  0.000000000
     0.000000000  0.000000000 21.330738491     0.000000000  0.000000000  0.046880702

  length of vectors
     8.440984654  8.440984654 21.330738491     0.118469591  0.118469591  0.046880702

 FORCES acting on ions:
    Electron-Ion                     Ewald-Force                    Non-Local-Force
   0.466E+02 0.466E+02 -.111E+04   -.440E+02 -.440E+02 0.107E+04   -.248E+01 -.248E+01 0.400E+02
   -.461E+02 -.461E+02 -.111E+04   0.434E+02 0.434E+02 0.107E+04   0.256E+01 0.256E+01 0.399E+02
   0.135E+03 0.135E+03 -.160E+04   -.147E+03 -.147E+03 0.166E+04   0.123E+02 0.123E+02 -.571E+02
   -.135E+03 -.135E+03 -.160E+04   0.148E+03 0.148E+03 0.166E+04   -.124E+02 -.124E+02 -.571E+02
   -.258E+00 -.223E+00 0.210E+04   0.261E+00 0.226E+00 -.209E+04   -.205E-02 -.222E-02 -.716E+01
   0.224E+00 -.238E+00 0.210E+04   -.226E+00 0.241E+00 -.209E+04   0.185E-02 -.210E-02 -.717E+01
   -.847E+00 -.847E+00 0.756E+03   0.865E+00 0.865E+00 -.756E+03   -.141E-01 -.141E-01 0.450E+00
   0.142E+01 -.781E+00 0.757E+03   -.142E+01 0.795E+00 -.758E+03   -.578E-02 -.110E-01 0.499E+00
   -.692E+01 -.407E+01 -.569E+03   0.683E+01 0.409E+01 0.570E+03   0.843E-01 -.231E-01 -.519E+00
   0.405E+01 -.417E+01 -.582E+03   -.406E+01 0.419E+01 0.582E+03   0.194E-01 -.221E-01 -.230E+00
   -.227E+02 -.227E+02 -.193E+04   0.229E+02 0.229E+02 0.193E+04   -.128E+00 -.128E+00 0.614E+01
   0.273E+02 -.243E+02 -.191E+04   -.279E+02 0.244E+02 0.190E+04   0.572E+00 -.113E+00 0.618E+01
   -.238E+00 0.224E+00 0.210E+04   0.241E+00 -.226E+00 -.209E+04   -.210E-02 0.185E-02 -.717E+01
   0.243E+00 0.238E+00 0.210E+04   -.246E+00 -.241E+00 -.209E+04   0.171E-02 0.221E-02 -.716E+01
   -.148E+01 0.849E+00 0.757E+03   0.148E+01 -.863E+00 -.758E+03   0.248E-02 0.107E-01 0.497E+00
   0.785E+00 0.785E+00 0.756E+03   -.799E+00 -.799E+00 -.756E+03   0.109E-01 0.109E-01 0.457E+00
   -.417E+01 0.405E+01 -.582E+03   0.419E+01 -.406E+01 0.582E+03   -.221E-01 0.194E-01 -.230E+00
   0.675E+01 0.424E+01 -.570E+03   -.666E+01 -.426E+01 0.570E+03   -.897E-01 0.244E-01 -.511E+00
   -.278E+02 0.247E+02 -.191E+04   0.283E+02 -.248E+02 0.190E+04   -.559E+00 0.111E+00 0.618E+01
   0.224E+02 0.224E+02 -.193E+04   -.225E+02 -.225E+02 0.193E+04   0.130E+00 0.130E+00 0.614E+01
   0.261E+00 -.246E+00 0.210E+04   -.263E+00 0.248E+00 -.209E+04   0.115E-02 -.108E-02 -.715E+01
   -.223E+00 -.258E+00 0.210E+04   0.226E+00 0.261E+00 -.209E+04   -.222E-02 -.205E-02 -.716E+01
   0.849E+00 -.148E+01 0.757E+03   -.863E+00 0.148E+01 -.758E+03   0.107E-01 0.248E-02 0.497E+00
   -.143E+01 -.143E+01 0.759E+03   0.144E+01 0.144E+01 -.759E+03   -.546E-02 -.546E-02 0.656E+00
   0.699E+01 -.685E+01 -.559E+03   -.691E+01 0.676E+01 0.559E+03   -.853E-01 0.934E-01 0.314E+00
   -.407E+01 -.692E+01 -.569E+03   0.409E+01 0.683E+01 0.570E+03   -.231E-01 0.843E-01 -.519E+00
   0.247E+02 -.278E+02 -.191E+04   -.248E+02 0.283E+02 0.190E+04   0.111E+00 -.559E+00 0.618E+01
   -.419E+02 -.419E+02 -.179E+04   0.427E+02 0.427E+02 0.178E+04   -.789E+00 -.789E+00 0.336E+01
   0.238E+00 0.243E+00 0.210E+04   -.241E+00 -.246E+00 -.209E+04   0.221E-02 0.171E-02 -.716E+01
   -.246E+00 0.261E+00 0.210E+04   0.248E+00 -.263E+00 -.209E+04   -.108E-02 0.115E-02 -.715E+01
   0.151E+01 0.151E+01 0.758E+03   -.152E+01 -.152E+01 -.759E+03   0.498E-02 0.498E-02 0.663E+00
   -.781E+00 0.142E+01 0.757E+03   0.795E+00 -.142E+01 -.758E+03   -.110E-01 -.578E-02 0.499E+00
   0.424E+01 0.675E+01 -.570E+03   -.426E+01 -.666E+01 0.570E+03   0.244E-01 -.897E-01 -.511E+00
   -.685E+01 0.699E+01 -.559E+03   0.676E+01 -.691E+01 0.559E+03   0.934E-01 -.853E-01 0.314E+00
   0.425E+02 0.425E+02 -.179E+04   -.433E+02 -.433E+02 0.179E+04   0.778E+00 0.778E+00 0.339E+01
   -.243E+02 0.273E+02 -.191E+04   0.244E+02 -.279E+02 0.190E+04   -.113E+00 0.572E+00 0.618E+01
   -.845E+00 -.627E+00 0.567E+03   0.867E+00 0.629E+00 -.567E+03   -.306E-01 -.471E-02 -.116E+00
   0.645E+00 -.685E+00 0.566E+03   -.657E+00 0.693E+00 -.566E+03   0.163E-01 -.115E-01 -.139E+00
   -.163E+00 -.163E+00 0.157E+04   0.166E+00 0.166E+00 -.158E+04   -.453E-02 -.453E-02 0.340E+01
   0.204E+00 -.151E+00 0.157E+04   -.207E+00 0.155E+00 -.158E+04   0.348E-02 -.457E-02 0.341E+01
   -.326E+02 -.128E+02 -.144E+04   0.323E+02 0.127E+02 0.145E+04   0.289E+00 0.783E-01 -.503E+01
   0.112E+02 -.113E+02 -.148E+04   -.111E+02 0.113E+02 0.148E+04   -.892E-01 0.881E-01 -.497E+01
   -.404E+01 -.404E+01 -.429E+03   0.404E+01 0.404E+01 0.429E+03   0.592E-03 0.593E-03 0.176E+00
   0.431E+01 -.394E+01 -.423E+03   -.433E+01 0.394E+01 0.423E+03   0.265E-01 0.737E-02 0.252E+00
   -.685E+00 0.645E+00 0.566E+03   0.693E+00 -.657E+00 -.566E+03   -.115E-01 0.163E-01 -.139E+00
   0.803E+00 0.683E+00 0.567E+03   -.830E+00 -.689E+00 -.567E+03   0.373E-01 0.908E-02 -.121E+00
   -.216E+00 0.162E+00 0.157E+04   0.218E+00 -.166E+00 -.158E+04   -.366E-02 0.507E-02 0.341E+01
   0.151E+00 0.151E+00 0.157E+04   -.155E+00 -.155E+00 -.158E+04   0.434E-02 0.434E-02 0.340E+01
   -.113E+02 0.112E+02 -.148E+04   0.113E+02 -.111E+02 0.148E+04   0.881E-01 -.892E-01 -.497E+01
   0.322E+02 0.130E+02 -.144E+04   -.319E+02 -.129E+02 0.145E+04   -.287E+00 -.762E-01 -.503E+01
   -.443E+01 0.404E+01 -.423E+03   0.445E+01 -.402E+01 0.423E+03   -.258E-01 -.136E-01 0.253E+00
   0.391E+01 0.391E+01 -.429E+03   -.390E+01 -.390E+01 0.429E+03   -.170E-02 -.170E-02 0.178E+00
   0.889E+00 -.837E+00 0.570E+03   -.934E+00 0.880E+00 -.570E+03   0.604E-01 -.573E-01 -.805E-01
   -.627E+00 -.845E+00 0.567E+03   0.629E+00 0.867E+00 -.567E+03   -.471E-02 -.306E-01 -.116E+00
   0.162E+00 -.216E+00 0.157E+04   -.166E+00 0.218E+00 -.158E+04   0.507E-02 -.366E-02 0.341E+01
   -.207E+00 -.207E+00 0.158E+04   0.208E+00 0.208E+00 -.158E+04   -.180E-02 -.180E-02 0.341E+01
   0.414E+02 -.410E+02 -.138E+04   -.410E+02 0.406E+02 0.138E+04   -.375E+00 0.377E+00 -.457E+01
   -.128E+02 -.326E+02 -.144E+04   0.127E+02 0.323E+02 0.145E+04   0.783E-01 0.289E+00 -.503E+01
   0.404E+01 -.443E+01 -.423E+03   -.402E+01 0.445E+01 0.423E+03   -.136E-01 -.258E-01 0.253E+00
   -.455E+01 -.455E+01 -.419E+03   0.460E+01 0.460E+01 0.419E+03   -.460E-01 -.460E-01 -.224E+00
   0.683E+00 0.803E+00 0.567E+03   -.689E+00 -.830E+00 -.567E+03   0.908E-02 0.373E-01 -.121E+00
   -.837E+00 0.889E+00 0.570E+03   0.880E+00 -.934E+00 -.570E+03   -.573E-01 0.604E-01 -.805E-01
   0.218E+00 0.218E+00 0.158E+04   -.220E+00 -.220E+00 -.158E+04   0.231E-02 0.231E-02 0.341E+01
   -.151E+00 0.204E+00 0.157E+04   0.155E+00 -.207E+00 -.158E+04   -.457E-02 0.348E-02 0.341E+01
   0.130E+02 0.322E+02 -.144E+04   -.129E+02 -.319E+02 0.145E+04   -.762E-01 -.287E+00 -.503E+01
   -.410E+02 0.414E+02 -.138E+04   0.406E+02 -.410E+02 0.138E+04   0.377E+00 -.375E+00 -.457E+01
   0.468E+01 0.468E+01 -.420E+03   -.473E+01 -.473E+01 0.420E+03   0.430E-01 0.430E-01 -.246E+00
   -.394E+01 0.431E+01 -.423E+03   0.394E+01 -.433E+01 0.423E+03   0.737E-02 0.265E-01 0.252E+00
   0.479E-01 0.479E-01 0.575E+02   -.369E-12 -.369E-12 -.182E-11   -.436E-01 -.436E-01 -.575E+02

 POSITION                                       TOTAL-FORCE (eV/Angst)
      4.60914      4.60915     16.08300        -0.001231     -0.001230     -0.007158
      5.95527      5.95527     16.08054        -0.001280     -0.001279     -0.002771
      4.38548      4.38548     17.22178         0.000679      0.000679      0.005123
      6.18157      6.18157     17.21829        -0.005300     -0.005300     -0.003203
      0.00000      6.33074      7.50000         0.000877      0.000777      0.337457
      2.11025      0.00000      7.50000        -0.000800      0.000749      0.341515
      0.00000      0.00000      9.61025         0.004812      0.004812      0.083665
      2.11025      6.33074      9.61025         0.000485      0.003263      0.084347
     -0.00170      6.33196     11.73715        -0.002695     -0.004825     -0.001377
      2.11047      0.00045     11.73466         0.001074     -0.001533     -0.002147
      0.00314      0.00314     13.84115        -0.001751     -0.001751     -0.006293
      2.09924      6.33264     13.83764         0.002293      0.001802     -0.000856
      0.00000      2.11025      7.50000         0.000749     -0.000800      0.341515
      2.11025      4.22049      7.50000        -0.000906     -0.000915      0.337599
      0.00000      4.22049      9.61025         0.000880     -0.003044      0.084676
      2.11025      2.11025      9.61025        -0.003456     -0.003456      0.084570
      0.00045      2.11048     11.73466        -0.001533      0.001073     -0.002147
      2.11277      4.21987     11.73763         0.002688      0.003652     -0.001539
      0.01173      4.21949     13.83771        -0.001211     -0.001719     -0.001531
      2.10782      2.10782     13.84167         0.002426      0.002426     -0.006814
      4.22049      6.33074      7.50000        -0.000658      0.000504      0.336244
      6.33074      0.00000      7.50000         0.000777      0.000877      0.337457
      4.22049      0.00000      9.61025        -0.003044      0.000880      0.084676
      6.33074      6.33074      9.61025         0.006065      0.006064      0.088388
      4.22487      6.32676     11.73267        -0.000486      0.000999      0.001009
      6.33196     -0.00170     11.73715        -0.004826     -0.002697     -0.001377
      4.21949      0.01173     13.83771        -0.001719     -0.001212     -0.001531
      6.34984      6.34984     13.88068        -0.001575     -0.001575      0.008098
      4.22049      2.11025      7.50000        -0.000915     -0.000906      0.337599
      6.33074      4.22049      7.50000         0.000504     -0.000658      0.336245
      4.22049      4.22049      9.61025        -0.005781     -0.005782      0.089276
      6.33074      2.11025      9.61025         0.003263      0.000486      0.084346
      4.21987      2.11277     11.73763         0.003653      0.002688     -0.001539
      6.32676      4.22487     11.73267         0.000999     -0.000486      0.001008
      4.20264      4.20264     13.88304         0.002853      0.002854      0.007747
      6.33264      2.09924     13.83764         0.001802      0.002293     -0.000855
      0.00000      6.33074      9.61025        -0.008103     -0.002641      0.088783
      2.11025      0.00000      9.61025         0.004838     -0.003771      0.066697
      0.00000      0.00000      7.50000        -0.001363     -0.001363     -0.502847
      2.11025      6.33074      7.50000         0.000948     -0.001371     -0.500646
      0.01107      6.33283     13.87375        -0.001463     -0.002463     -0.000531
      2.10928      0.00162     13.88410         0.002503     -0.001581     -0.004529
      0.00073      0.00073     11.72673        -0.000664     -0.000664      0.001634
      2.11453      6.33086     11.72833         0.000878     -0.000191      0.000179
      0.00000      2.11025      9.61025        -0.003771      0.004838      0.066697
      2.11025      4.22049      9.61025         0.009626      0.003524      0.089787
      0.00000      4.22049      7.50000        -0.001119      0.001394     -0.500648
      2.11025      2.11025      7.50000         0.001186      0.001186     -0.502938
      0.00162      2.10928     13.88410        -0.001581      0.002502     -0.004529
      2.10016      4.21933     13.87506         0.001554      0.001667     -0.002839
     -0.00360      4.22085     11.72827        -0.001179     -0.000232      0.001202
      2.11015      2.11015     11.72712         0.000504      0.000503      0.001129
      4.22049      6.33074      9.61025         0.015746     -0.015096      0.075011
      6.33074      0.00000      9.61025        -0.002641     -0.008103      0.088783
      4.22049      0.00000      7.50000         0.001394     -0.001119     -0.500648
      6.33074      6.33074      7.50000        -0.000534     -0.000534     -0.498782
      4.20586      6.34652     13.88981        -0.001350      0.001334      0.002727
      6.33283      0.01107     13.87375        -0.002462     -0.001463     -0.000531
      4.22085     -0.00360     11.72827        -0.000232     -0.001178      0.001202
      6.32863      6.32863     11.73990         0.000343      0.000343     -0.000216
      4.22049      2.11025      9.61025         0.003524      0.009626      0.089788
      6.33074      4.22049      9.61025        -0.015096      0.015746      0.075011
      4.22049      4.22049      7.50000         0.000560      0.000560     -0.498925
      6.33074      2.11025      7.50000        -0.001371      0.000948     -0.500646
      4.21933      2.10016     13.87506         0.001666      0.001554     -0.002839
      6.34652      4.20586     13.88981         0.001334     -0.001350      0.002727
      4.22318      4.22318     11.74047        -0.001196     -0.001196     -0.000861
      6.33086      2.11453     11.72833        -0.000191      0.000878      0.000178
    total drift:                                0.004265      0.004265     -0.003410

  FREE ENERGIE OF THE ION-ELECTRON SYSTEM (eV)
  free  energy   TOTEN  =      -396.52574921 eV

  energy  without entropy=     -396.52574921  energy(sigma->0) =     -396.52574921

 d Force = 0.9265464E-05[ 0.528E-05, 0.133E-04]  d Energy = 0.9822110E-05-0.557E-06
 d Force =-0.1977025E+01[-0.198E+01,-0.198E+01]  d Ewald  =-0.1977025E+01 0.371E-08

 Conjugate gradient step on ions:
 trial-energy change:   -0.000010  1 .order   -0.000009   -0.000013   -0.000005
  (g-gl).g = 0.895E-04      g.g   = 0.860E-04  gl.gl    = 0.154E-03
 g(Force)  = 0.860E-04   g(Stress)= 0.000E+00 ortho     = 0.460E-05
 gamma     =   0.58146
 trial     =   0.14953
 opt step  =   0.21165  (harmonic =   0.24846) maximal distance =0.00007435
 next E    =  -396.525750   (d E  =  -0.00001)

 reached required accuracy - stopping structural energy minimisation