 vasp.6.3.0 20Jan22 (build Mar 11 2022 13:48:16) complex

 executed on             LinuxIFC date 2024.01.22  18:33:44

 INCAR:
   SYSTEM = TiO2
   ISMEAR = 0
   SIGMA = 0.05
   EDIFF = 1E-5
   ALGO = ALL
   ISTART = 0
   IBRION = -1
   NSW = 0
   ISYM = 0
   ISIF = 2
   EDIFFG = -0.01
   DIPOL = 0.5 0.5 0.5
   IDIPOL = 3
   LDIPOL = .TRUE.
   GGA = MK
   LUSE_VDW = .TRUE.
   PARAM1 = 0.1234
   PARAM2 = 0.711357
   ZAB_VDW = -1.8867
   AGGAC = 0.0
   ENCUT = 600
   PREC = Accurate
   LASPH = .TRUE.
   LREAL = .FALSE.
   ISPIN = 1
   NELM = 200
   NELMIN = 8
   NCORE = 2
   KPAR = 1
   LWAVE = .FALSE.
   LCHARG = .FALSE.

 POTCAR:    PAW_PBE Ti_pv 07Sep2000
 POTCAR:    PAW_PBE O 08Apr2002
|           W    W    AA    RRRRR   N    N  II  N    N   GGGG   !!!           |
|           W    W   A  A   R    R  NN   N  II  NN   N  G    G  !!!           |
|           W    W  A    A  R    R  N N  N  II  N N  N  G       !!!           |
|           W WW W  AAAAAA  RRRRR   N  N N  II  N  N N  G  GGG   !            |
|           WW  WW  A    A  R   R   N   NN  II  N   NN  G    G                |
|           W    W  A    A  R    R  N    N  II  N    N   GGGG   !!!           |
|     For optimal performance we recommend to set                             |
|       NCORE = 2 up to number-of-cores-per-socket                            |
|     This setting can greatly improve the performance of VASP for DFT.       |
|     The default, NCORE=1 might be grossly inefficient on modern             |
|     multi-core architectures or massively parallel machines. Do your        |
|     Unfortunately you need to use the default for GW and RPA                |
|     calculations (for HF NCORE is supported but not extensively tested      |
|     yet).                                                                   |

   TITEL  = PAW_PBE Ti_pv 07Sep2000
   POMASS =   47.880; ZVAL   =   10.000    mass and valenz
   ENMAX  =  222.335; ENMIN  =  166.751 eV

   TITEL  = PAW_PBE O 08Apr2002
   POMASS =   16.000; ZVAL   =    6.000    mass and valenz
   ENMAX  =  400.000; ENMIN  =  300.000 eV

  PAW_PBE Ti_pv 07Sep2000               :
  PAW_PBE O 08Apr2002                   :

 POSCAR: Ti  O
  positions in direct lattice
 exchange correlation table for  LEXCH =       43
   RHO(1)=    0.500       N(1)  =     2000
   RHO(2)=  100.500       N(2)  =     4000

 ion  position               nearest neighbor table
   1  0.750  0.625  0.286-  81 1.98  82 1.98 141 1.98 142 1.98 163 2.00  84 2.00  11 3.03  31 3.03

   2  0.000  0.750  0.286-  83 1.98  84 1.98 103 1.98 104 1.98  85 2.00  32 3.03  12 3.03
   3  0.000  0.625  0.393-  86 1.98 146 1.98 145 1.98  85 1.98  87 2.00  88 2.00  13 3.03  33 3.03

[...]

  80  0.500  0.500  0.711- 234 1.90 240 1.97 239 1.97 179 1.98 180 1.98  70 3.02  50 3.04
  81  0.750  0.750  0.244-   1 1.98  11 1.98
  82  0.750  0.750  0.328-   1 1.98  11 1.98   4 2.00
  83  0.098  0.625  0.286-   2 1.98  32 1.98  41 2.00
  84  0.902  0.625  0.286-   2 1.98  32 1.98   1 2.00
  85  0.000  0.750  0.351-   3 1.98  13 1.98   2 2.00
  86  0.000  0.750  0.435-   3 1.98  13 1.98   6 2.00
  87  0.848  0.625  0.393-   4 1.98  34 1.98   3 2.00
  88  0.152  0.625  0.393-  44 1.98  74 1.98   3 2.00
  89  0.750  0.750  0.458-   5 1.98  15 1.98   4 2.00
  90  0.750  0.750  0.542-   5 1.98  15 1.98   8 2.09
  91  0.098  0.625  0.500-   6 1.98  36 1.98  45 2.00
  92  0.902  0.625  0.500-   6 1.98  36 1.98   5 2.00
  93  1.000  0.750  0.565-   7 1.94  17 1.94   6 2.01
  94  1.000  0.750  0.649-  10 1.86  17 2.03   7 2.03
  95  0.850  0.625  0.607-   7 1.98   8 2.00  38 2.00
  96  0.150  0.625  0.607-   7 1.98  48 2.00  78 2.00
  97  0.750  0.751  0.672-   8 1.92   9 2.10  19 2.11
  98  0.750  0.750  0.756-   9 1.88  19 1.88
  99  0.093  0.625  0.720-  40 1.97  10 1.97  49 2.06
 100  0.907  0.625  0.720-  40 1.97  10 1.97   9 2.06
 101  0.750  0.000  0.244-  11 1.98  21 1.98
 102  0.750  0.000  0.328-  11 1.98  21 1.98  14 2.00
 103  0.098  0.875  0.286-   2 1.98  12 1.98  51 2.00
 104  0.902  0.875  0.286-   2 1.98  12 1.98  11 2.00
 105  0.000  0.000  0.351-  13 1.98  23 1.98  12 2.00
 106  0.000  0.000  0.435-  13 1.98  23 1.98  16 2.00
 107  0.848  0.875  0.393-   4 1.98  14 1.98  13 2.00
 108  0.152  0.875  0.393-  44 1.98  54 1.98  13 2.00
 109  0.750  0.000  0.458-  15 1.98  25 1.98  14 2.00
 110  0.750  0.000  0.542-  15 1.98  25 1.98  18 2.09
 111  0.098  0.875  0.500-   6 1.98  16 1.98  55 2.00
 112  0.902  0.875  0.500-   6 1.98  16 1.98  15 2.00
 113  1.000  0.000  0.565-  17 1.94  27 1.94  16 2.01
 114  1.000  0.000  0.649-  20 1.86  27 2.03  17 2.03
 115  0.850  0.875  0.607-  17 1.98  18 2.00   8 2.00
 116  0.150  0.875  0.607-  17 1.98  58 2.00  48 2.00
 117  0.750  0.000  0.672-  18 1.92  19 2.11  29 2.11
 118  0.750  0.000  0.756-  19 1.87  29 1.87
 119  0.093  0.875  0.719-  10 1.97  20 1.97  59 2.06
 120  0.907  0.875  0.719-  10 1.97  20 1.97  19 2.06
 121  0.750  0.250  0.244-  21 1.98  31 1.98
 122  0.750  0.250  0.328-  21 1.98  31 1.98  24 2.00
 123  0.098  0.125  0.286-  12 1.98  22 1.98  61 2.00
 124  0.902  0.125  0.286-  12 1.98  22 1.98  21 2.00
 125  0.000  0.250  0.351-  23 1.98  33 1.98  22 2.00
 126  0.000  0.250  0.435-  23 1.98  33 1.98  26 2.00
 127  0.848  0.125  0.393-  14 1.98  24 1.98  23 2.00
 128  0.152  0.125  0.393-  54 1.98  64 1.98  23 2.00
 129  0.750  0.250  0.458-  25 1.98  35 1.98  24 2.00
 130  0.750  0.250  0.542-  25 1.98  35 1.98  28 2.09
 131  0.098  0.125  0.500-  16 1.98  26 1.98  65 2.00
 132  0.902  0.125  0.500-  16 1.98  26 1.98  25 2.00
 133  1.000  0.250  0.565-  27 1.94  37 1.94  26 2.01
 134  0.000  0.250  0.649-  30 1.86  37 2.03  27 2.03
 135  0.850  0.125  0.607-  27 1.98  18 2.00  28 2.00
 136  0.150  0.125  0.607-  27 1.98  58 2.00  68 2.00
 137  0.751  0.250  0.672-  28 1.92  29 2.11  39 2.11
 138  0.750  0.251  0.756-  39 1.87  29 1.88
 139  0.093  0.125  0.719-  30 1.97  20 1.97  69 2.06
[...]
 226  0.500  0.500  0.435-  43 1.98  73 1.98  76 2.00
 227  0.348  0.375  0.393-  64 1.98  74 1.98  73 2.00
 228  0.652  0.375  0.393-  24 1.98  34 1.98  73 2.00
 229  0.250  0.500  0.458-  45 1.98  75 1.98  74 2.00
 230  0.250  0.500  0.542-  45 1.98  75 1.98  78 2.09
 231  0.598  0.375  0.500-  66 1.98  76 1.98  35 2.00
 232  0.402  0.375  0.500-  66 1.98  76 1.98  75 2.00
 233  0.500  0.500  0.566-  47 1.94  77 1.94  76 2.01
 234  0.500  0.501  0.650-  80 1.90  47 2.02  77 2.03
 235  0.349  0.375  0.608-  77 1.98  78 2.00  68 2.00
 236  0.651  0.375  0.608-  77 1.98  38 2.00  28 2.00
 237  0.249  0.501  0.672-  78 1.92  49 2.10  79 2.11
 238  0.252  0.501  0.756-  79 1.88  49 1.88
 239  0.594  0.374  0.718-  70 1.96  80 1.97  39 2.05
 240  0.406  0.374  0.718-  70 1.96  80 1.97  79 2.05

IMPORTANT INFORMATION: All symmetrisations will be switched off!
NOSYMM: (Re-)initialisation of all symmetry stuff for point group C_1.

                                     Primitive cell

  volume of cell :    4886.2662

  direct lattice vectors                    reciprocal lattice vectors
    13.143747607  0.000000000  0.000000000     0.076081802  0.000000000  0.000000000
     0.000000000 12.104894358  0.000000000     0.000000000  0.082611212  0.000000000
     0.000000000  0.000000000 30.711208800     0.000000000  0.000000000  0.032561401

  length of vectors
    13.143747607 12.104894358 30.711208800     0.076081802  0.082611212  0.032561401

  position of ions in fractional coordinates (direct lattice)
     0.750000000  0.625000000  0.286010579
     0.000000000  0.750000000  0.286010579
     0.000000000  0.625000000  0.393005289
     0.750000000  0.750000000  0.393005289
     0.750000000  0.625000000  0.500000000
     0.000000000  0.750000000  0.500000000
     0.999999977  0.625286753  0.605106751
     0.750013728  0.750290596  0.609792688
     0.750059350  0.625675967  0.719828417
     0.000000025  0.750493197  0.709756308
     0.750000000  0.875000000  0.286010579
     0.000000000  0.000000000  0.286010579
     0.000000000  0.875000000  0.393005289
     0.750000000  0.000000000  0.393005289
     0.750000000  0.875000000  0.500000000
     0.000000000  0.000000000  0.500000000
     0.000000018  0.875283325  0.605137431
     0.750004245  0.000271927  0.609859719
     0.749929445  0.875569098  0.720098434
     0.999999976  0.000459402  0.709767759
     0.750000000  0.125000000  0.286010579
     0.000000000  0.250000000  0.286010579
     0.000000000  0.125000000  0.393005289
     0.750000000  0.250000000  0.393005289
     0.750000000  0.125000000  0.500000000
     0.000000000  0.250000000  0.500000000
     0.000000006  0.125255614  0.605117745
     0.750047393  0.250240328  0.609836467
     0.749958877  0.125495279  0.720075127
     0.000000002  0.250445920  0.709755961
     0.750000000  0.375000000  0.286010579
     0.000000000  0.500000000  0.286010579
     0.000000000  0.375000000  0.393005289
     0.750000000  0.500000000  0.393005289
     0.750000000  0.375000000  0.500000000
     0.000000000  0.500000000  0.500000000
     0.000000062  0.375266964  0.605119006
     0.750060467  0.500270032  0.609826432
     0.750027834  0.375452719  0.719910714
     0.000000029  0.500472524  0.709738278
     0.250000000  0.625000000  0.286010579
     0.500000000  0.750000000  0.286010579
     0.500000000  0.625000000  0.393005289
     0.250000000  0.750000000  0.393005289
     0.250000000  0.625000000  0.500000000
     0.500000000  0.750000000  0.500000000
     0.500000036  0.624461891  0.605520947
     0.249986269  0.750290498  0.609792706
     0.249940649  0.625676513  0.719828439
     0.500000018  0.751000541  0.709064113
     0.250000000  0.875000000  0.286010579
     0.500000000  0.000000000  0.286010579
     0.500000000  0.875000000  0.393005289
     0.250000000  0.000000000  0.393005289
     0.250000000  0.875000000  0.500000000
     0.500000000  0.000000000  0.500000000
     0.499999990  0.875080143  0.604712695
     0.249995766  0.000271946  0.609859589
     0.250070944  0.875569694  0.720098442
     0.500000093  0.000512226  0.709356140
[...]
     0.500000000  0.500000000  0.434805357
     0.347668537  0.375000000  0.393005289
     0.652331463  0.375000000  0.393005289
     0.250000000  0.500000000  0.458199933
     0.250000000  0.500000000  0.541800067
     0.597668537  0.375000000  0.500000000
     0.402331463  0.375000000  0.500000000
     0.499999970  0.500075946  0.565557151
     0.499999981  0.500604909  0.649725503
     0.349426208  0.375282078  0.607513965
     0.650573804  0.375282132  0.607513929
     0.249100350  0.500549486  0.672258575
     0.251567555  0.500635035  0.756014849
     0.593867562  0.374057889  0.717993093
     0.406132398  0.374057881  0.717993068

  ion indices of the primitive-cell ions
   primitive index   ion index
                 1           1
                 2           2
                 3           3
                 4           4
                 5           5
                 6           6
                 7           7
                 8           8
                 9           9
                10          10
                11          11
                12          12
                13          13
                14          14
[...]
   6.57187380 10.59178256 12.06966750
   3.28593690  0.00000000 12.06966750
   3.28593690 10.59178256 15.35560440
   6.57187380  0.00000000 15.35560440
   6.57187367 10.59275269 18.57145783
   3.28588125  0.00329188 18.72952518
   3.28686937 10.59867865 22.11509360
   6.57187502  0.00620044 21.78518452
[...]
   6.57187380  6.05244718 13.35339810
   4.56966750  4.53933538 12.06966750
   8.57408011  4.53933538 12.06966750
   3.28593690  6.05244718 14.07187380
   3.28593690  6.05244718 16.63933500
   7.85560440  4.53933538 15.35560440
   5.28814321  4.53933538 15.35560440
   6.57187341  6.05336650 17.36894375
   6.57187356  6.05976953 19.95385559
   4.59276989  4.54274990 18.65748824
   8.55097788  4.54275056 18.65748711
   3.27411213  6.05909865 20.64587346
   3.30654046  6.06013421 23.21812988
   7.80564534  4.52793123 22.05043581
   5.33810174  4.52793114 22.05043503

--------------------------------------- Iteration      FINAL  ---------------------------------------

--------------------OUTCAR has been truncated-------------------------

[...]

--------------------OUTCAR has been truncated-------------------------

  FORCE on cell =-STRESS in cart. coord.  units (eV):
  Direction    XX          YY          ZZ          XY          YZ          ZX
  Alpha Z  4477.06529  4477.06529  4477.06529
  Ewald  944961.63990962393.28406************    -0.00003    -1.09068    -0.00014
  Hartree985502.96009995105.31757************     0.00000    -1.20448    -0.00035
  E(xc)   -8575.34793 -8569.25086 -8572.09447     0.00000     0.00085     0.00000
  Local  ************************************    -0.00001     2.40924     0.00047
  n-local -5493.60537 -5422.06057 -5536.36646     0.00000    -0.01266     0.00001
  augment  5255.65487  5236.29457  5260.95707    -0.00001    -0.02297     0.00002
  Kinetic 28479.66146 27953.31392 28524.57325     0.00008    -0.62292    -0.00005
  Fock        0.00000     0.00000     0.00000     0.00000     0.00000     0.00000
  Total     -89.34805  -238.86130  -131.11805     0.00004    -0.54361    -0.00004
  in kB     -29.29669   -78.32118   -42.99282     0.00001    -0.17825    -0.00001

 VOLUME and BASIS-vectors are now :
  energy-cutoff  :      600.00
  volume of cell :     4886.27
      direct lattice vectors                 reciprocal lattice vectors
    13.143747607  0.000000000  0.000000000     0.076081802  0.000000000  0.000000000
     0.000000000 12.104894358  0.000000000     0.000000000  0.082611212  0.000000000
     0.000000000  0.000000000 30.711208800     0.000000000  0.000000000  0.032561401

  length of vectors
    13.143747607 12.104894358 30.711208800     0.076081802  0.082611212  0.032561401

 FORCES acting on ions:
    Electron-Ion                     Ewald-Force                    Non-Local-Force
   0.119E-01 0.172E-01 0.365E+04   -.122E-01 -.170E-01 -.366E+04   0.513E-04 -.182E-04 0.361E+00
   -.600E-05 0.147E-01 0.383E+04   -.111E-06 -.146E-01 -.382E+04   0.645E-06 -.887E-05 -.371E+01
   0.233E-05 0.460E-01 0.186E+04   0.521E-05 -.459E-01 -.186E+04   -.871E-06 0.131E-03 -.529E-01
   0.306E-01 0.109E+00 0.185E+04   -.315E-01 -.108E+00 -.185E+04   0.211E-03 -.812E-04 0.204E+00
   0.522E+00 0.402E+00 -.150E+02   -.524E+00 -.402E+00 0.155E+02   0.403E-03 0.294E-03 -.859E-01
   -.635E-04 0.247E+00 -.383E+01   0.736E-04 -.240E+00 0.306E+01   -.774E-06 -.448E-02 0.207E+00
   -.632E-04 0.115E+00 -.184E+04   0.552E-04 -.111E+00 0.184E+04   0.471E-06 -.172E-02 0.841E-01
   0.293E+00 0.288E+00 -.188E+04   -.270E+00 -.274E+00 0.189E+04   -.758E-02 -.309E-02 -.174E+00
   -.119E+01 0.222E+01 -.364E+04   0.121E+01 -.219E+01 0.364E+04   0.104E-01 -.603E-02 -.200E+00
   -.124E-03 0.650E+00 -.368E+04   0.128E-03 -.650E+00 0.368E+04   -.602E-06 0.102E-02 0.122E+01
   0.360E-02 0.124E-01 0.365E+04   -.401E-02 -.121E-01 -.366E+04   0.134E-03 -.270E-04 0.361E+00
   -.117E-04 -.272E-02 0.383E+04   -.896E-06 0.272E-02 -.382E+04   -.358E-05 0.586E-05 -.371E+01
   0.112E-04 0.298E-01 0.186E+04   -.400E-05 -.298E-01 -.186E+04   -.146E-05 0.134E-03 -.529E-01
   -.213E-01 -.181E-01 0.185E+04   0.199E-01 0.180E-01 -.185E+04   0.313E-03 -.203E-04 0.204E+00
   -.199E+00 0.246E+00 -.145E+02   0.197E+00 -.236E+00 0.150E+02   0.313E-03 -.552E-03 -.875E-01
   0.497E-04 0.836E-01 -.384E+01   -.526E-04 -.811E-01 0.307E+01   0.109E-06 -.285E-02 0.207E+00
   -.144E-03 0.143E+00 -.184E+04   0.150E-03 -.146E+00 0.184E+04   -.731E-06 -.100E-03 0.875E-01
   -.132E+00 0.126E+00 -.189E+04   0.142E+00 -.135E+00 0.189E+04   -.192E-02 0.296E-02 -.170E+00
   -.203E+00 0.869E+00 -.365E+04   0.198E+00 -.901E+00 0.365E+04   0.981E-02 0.130E-02 -.194E+00
   -.309E-03 0.816E-02 -.368E+04   0.332E-03 -.266E-01 0.368E+04   -.368E-05 0.291E-02 0.123E+01
   0.462E-02 -.172E-01 0.365E+04   -.500E-02 0.170E-01 -.366E+04   0.114E-03 0.968E-05 0.361E+00
   0.187E-04 -.147E-01 0.383E+04   -.360E-06 0.146E-01 -.382E+04   0.651E-05 0.469E-05 -.371E+01
   0.102E-04 -.461E-01 0.186E+04   -.580E-05 0.457E-01 -.186E+04   0.565E-05 0.135E-03 -.530E-01
   0.447E-01 -.109E+00 0.185E+04   -.454E-01 0.109E+00 -.185E+04   0.151E-03 -.688E-06 0.204E+00
   -.110E+00 -.389E+00 -.146E+02   0.109E+00 0.382E+00 0.151E+02   0.274E-03 0.763E-03 -.879E-01
   -.373E-04 -.153E-02 -.387E+01   0.423E-04 0.295E-02 0.309E+01   0.810E-06 -.285E-02 0.208E+00
   -.111E-04 -.161E+00 -.184E+04   0.161E-04 0.152E+00 0.184E+04   -.122E-05 0.444E-02 0.865E-01
   0.371E+00 -.415E+00 -.188E+04   -.337E+00 0.396E+00 0.188E+04   -.120E-01 0.792E-02 -.172E+00
   0.434E-02 0.148E+00 -.365E+04   0.241E-01 -.170E+00 0.365E+04   -.109E-02 -.102E-02 -.188E+00
   0.127E-03 -.122E+01 -.368E+04   -.139E-03 0.120E+01 0.368E+04   0.438E-06 0.394E-02 0.122E+01
   0.130E-01 -.123E-01 0.365E+04   -.131E-01 0.121E-01 -.366E+04   0.466E-04 0.915E-05 0.361E+00
   -.251E-05 0.275E-02 0.383E+04   0.409E-06 -.273E-02 -.382E+04   -.116E-05 0.280E-05 -.371E+01
   0.100E-05 -.305E-01 0.186E+04   0.339E-05 0.303E-01 -.186E+04   -.146E-05 0.112E-03 -.529E-01
   0.962E-01 0.184E-01 0.185E+04   -.962E-01 -.183E-01 -.185E+04   -.859E-04 -.688E-04 0.205E+00
   0.617E+00 -.281E+00 -.151E+02   -.620E+00 0.276E+00 0.156E+02   0.622E-04 0.746E-03 -.861E-01
   -.639E-04 0.158E+00 -.384E+01   0.694E-04 -.156E+00 0.307E+01   0.868E-06 -.328E-02 0.208E+00
   0.204E-03 -.159E+00 -.184E+04   -.211E-03 0.158E+00 0.184E+04   0.540E-06 0.180E-02 0.877E-01
   0.105E+01 -.137E-01 -.188E+04   -.101E+01 0.233E-01 0.188E+04   -.135E-01 -.127E-02 -.181E+00
   -.189E+01 -.223E+01 -.365E+04   0.205E+01 0.227E+01 0.365E+04   -.222E-01 0.211E-02 -.175E+00
   -.942E-04 -.242E+00 -.368E+04   0.706E-04 0.253E+00 0.368E+04   0.435E-05 0.122E-02 0.121E+01
   -.119E-01 0.172E-01 0.365E+04   0.122E-01 -.170E-01 -.366E+04   -.523E-04 -.279E-04 0.361E+00
   -.756E-05 0.275E-01 0.383E+04   0.189E-06 -.272E-01 -.382E+04   0.329E-06 -.396E-04 -.371E+01
   -.185E-06 0.156E+00 0.186E+04   -.331E-05 -.148E+00 -.186E+04   0.214E-05 -.153E-02 -.527E-01
   -.306E-01 0.109E+00 0.185E+04   0.315E-01 -.108E+00 -.185E+04   -.208E-03 -.869E-04 0.204E+00
   -.522E+00 0.402E+00 -.150E+02   0.524E+00 -.402E+00 0.155E+02   -.399E-03 0.294E-03 -.859E-01
   -.444E-04 0.122E+01 -.375E+01   0.394E-04 -.123E+01 0.302E+01   0.482E-05 0.125E-01 0.189E+00
   -.800E-04 0.114E+01 -.184E+04   0.825E-04 -.104E+01 0.184E+04   0.587E-06 -.653E-01 0.881E-01
   -.292E+00 0.288E+00 -.188E+04   0.270E+00 -.274E+00 0.189E+04   0.758E-02 -.309E-02 -.174E+00
   0.119E+01 0.222E+01 -.364E+04   -.121E+01 -.219E+01 0.364E+04   -.104E-01 -.603E-02 -.200E+00
   -.272E-03 -.670E-01 -.367E+04   0.264E-03 0.854E-01 0.367E+04   0.148E-05 0.536E-02 0.117E+01
   -.361E-02 0.124E-01 0.365E+04   0.401E-02 -.121E-01 -.366E+04   -.129E-03 -.324E-04 0.361E+00
   -.248E-05 -.428E-02 0.383E+04   0.968E-06 0.424E-02 -.382E+04   -.359E-05 0.735E-05 -.371E+01
   -.128E-04 0.113E+00 0.186E+04   0.567E-05 -.111E+00 -.186E+04   -.201E-05 -.623E-03 -.532E-01
   0.213E-01 -.181E-01 0.185E+04   -.199E-01 0.180E-01 -.185E+04   -.312E-03 -.144E-04 0.204E+00
   0.199E+00 0.247E+00 -.145E+02   -.197E+00 -.237E+00 0.150E+02   -.313E-03 -.548E-03 -.875E-01
   -.953E-04 -.558E-01 -.157E+01   0.863E-04 0.593E-01 0.764E+00   -.874E-06 -.407E-02 0.198E+00
   0.579E-04 -.111E+01 -.183E+04   -.630E-04 0.110E+01 0.183E+04   0.102E-05 0.528E-02 0.352E-01
   0.133E+00 0.127E+00 -.189E+04   -.142E+00 -.135E+00 0.189E+04   0.192E-02 0.296E-02 -.170E+00
   0.205E+00 0.871E+00 -.365E+04   -.199E+00 -.903E+00 0.365E+04   -.983E-02 0.132E-02 -.194E+00
   -.138E-03 0.261E+00 -.367E+04   0.118E-03 -.326E+00 0.367E+04   0.199E-05 0.103E-01 0.121E+01
[...]
   -.499E+02 -.541E-01 0.111E+04   0.534E+02 0.532E-01 -.111E+04   -.318E+01 0.142E-02 0.158E+00
   0.499E+02 -.541E-01 0.111E+04   -.534E+02 0.532E-01 -.111E+04   0.318E+01 0.142E-02 0.158E+00
   -.196E+00 0.299E-01 0.478E+03   0.197E+00 -.309E-01 -.481E+03   -.264E-02 0.231E-02 0.388E+01
   -.818E+00 0.152E+00 -.507E+03   0.817E+00 -.174E+00 0.513E+03   0.435E-02 0.277E-01 -.585E+01
   -.510E+02 -.489E+00 -.460E+01   0.550E+02 0.484E+00 0.444E+01   -.450E+01 0.230E-01 0.215E+00
   0.510E+02 -.489E+00 -.460E+01   -.550E+02 0.484E+00 0.444E+01   0.450E+01 0.230E-01 0.215E+00
   0.114E-03 0.432E+00 -.626E+03   -.129E-03 -.479E+00 0.621E+03   0.157E-04 0.427E-01 0.568E+01
   -.137E-03 -.142E+01 -.158E+04   0.150E-03 0.149E+01 0.158E+04   -.369E-05 -.936E-01 0.152E+01
   -.294E+02 -.393E+00 -.112E+04   0.321E+02 0.337E+00 0.111E+04   -.273E+01 0.586E-01 0.527E+00
   0.294E+02 -.393E+00 -.112E+04   -.321E+02 0.337E+00 0.111E+04   0.273E+01 0.587E-01 0.527E+00
   0.127E+01 -.235E+00 -.176E+04   -.143E+01 0.255E+00 0.176E+04   0.185E+00 -.338E-01 -.160E+01
   -.405E+01 0.237E+00 -.263E+04   0.425E+01 -.187E+00 0.265E+04   -.204E+00 -.108E+00 -.202E+02
   -.252E+02 -.149E+01 -.226E+04   0.310E+02 0.142E+01 0.226E+04   -.610E+01 0.233E+00 -.201E+01
   0.252E+02 -.149E+01 -.226E+04   -.310E+02 0.142E+01 0.226E+04   0.610E+01 0.233E+00 -.201E+01
   0.315E-03 0.719E-02 0.882E+02   -.113E-11 -.180E-11 0.141E-10   -.323E-03 -.496E-02 -.882E+02

 POSITION                                       TOTAL-FORCE (eV/Angst)
      9.85781      7.56556      8.78373        -0.000161      0.000139     -3.329623
      0.00000      9.07867      8.78373        -0.000005      0.000043      2.995521
      0.00000      7.56556     12.06967         0.000007      0.000222      0.530533
      9.85781      9.07867     12.06967        -0.000619      0.000825     -0.733873
      9.85781      7.56556     15.35560        -0.002111      0.000342      0.438366
      0.00000      9.07867     15.35560         0.000009      0.003050     -0.562728
     13.14375      7.56903     18.58356        -0.000008      0.002642     -0.350903
      9.85799      9.08219     18.72747         0.014902      0.010437      0.462062
      9.85859      7.57374     22.10680         0.029538      0.027700      0.813167
      0.00000      9.08464     21.79747         0.000004      0.002893     -0.706688
      9.85781     10.59178      8.78373        -0.000271      0.000187     -3.329429
      0.00000      0.00000      8.78373        -0.000016     -0.000001      2.995569
      0.00000     10.59178     12.06967         0.000006      0.000140      0.530821
      9.85781      0.00000     12.06967        -0.001007     -0.000091     -0.732908
      9.85781     10.59178     15.35560        -0.001624      0.009358      0.444751
      0.00000      0.00000     15.35560        -0.000003     -0.000221     -0.562979
      0.00000     10.59521     18.58450         0.000005     -0.002678     -0.350505
      9.85787      0.00329     18.72953         0.007671     -0.005004      0.464503
      9.85688     10.59867     22.11509         0.003090     -0.028925      0.767522
     13.14375      0.00556     21.79783         0.000019     -0.015585     -0.717372
      9.85781      1.51311      8.78373        -0.000265     -0.000192     -3.329392
      0.00000      3.02622      8.78373         0.000025     -0.000050      2.995538
      0.00000      1.51311     12.06967         0.000010     -0.000270      0.530669
      9.85781      3.02622     12.06967        -0.000485     -0.000883     -0.733342
      9.85781      1.51311     15.35560        -0.001024     -0.006145      0.447233
      0.00000      3.02622     15.35560         0.000006     -0.001341     -0.564615
      0.00000      1.51621     18.58390         0.000004     -0.004993     -0.351526
      9.85843      3.02913     18.72882         0.021386     -0.010536      0.451326
      9.85727      1.51911     22.11438         0.026157     -0.022677      0.747593
      0.00000      3.03162     21.79746        -0.000012     -0.009066     -0.714373
      9.85781      4.53934      8.78373        -0.000120     -0.000184     -3.329581
      0.00000      6.05245      8.78373        -0.000003      0.000016      2.995528
      0.00000      4.53934     12.06967         0.000003     -0.000125      0.530486
      9.85781      6.05245     12.06967        -0.000109      0.000003     -0.733948
      9.85781      4.53934     15.35560        -0.002876     -0.004319      0.441026
      0.00000      6.05245     15.35560         0.000006     -0.000381     -0.564215
      0.00000      4.54257     18.58394        -0.000005      0.000594     -0.354540
      9.85861      6.05572     18.72851         0.027683      0.008386      0.459517
      9.85818      4.54482     22.10933         0.131869      0.036669      0.779830
      0.00000      6.05817     21.79692        -0.000019      0.010842     -0.704782
      3.28594      7.56556      8.78373         0.000159      0.000098     -3.329556
      6.57187      9.07867      8.78373        -0.000007      0.000294      2.996036
      6.57187      7.56556     12.06967        -0.000001      0.007118      0.530713
      3.28594      9.07867     12.06967         0.000619      0.000822     -0.733861
      3.28594      7.56556     15.35560         0.002116      0.000337      0.438370
      6.57187      9.07867     15.35560        -0.000000     -0.006585     -0.537802
      6.57187      7.55905     18.59628         0.000003      0.036989     -0.375922
      3.28576      9.08219     18.72747        -0.014906      0.010463      0.462056
      3.28516      7.57375     22.10680        -0.029549      0.027762      0.813076
      6.57187      9.09078     21.77622        -0.000006      0.019648     -0.594534
      3.28594     10.59178      8.78373         0.000262      0.000179     -3.329426
      6.57187      0.00000      8.78373        -0.000005     -0.000035      2.996463
      6.57187     10.59178     12.06967        -0.000009      0.001612      0.534857
      3.28594      0.00000     12.06967         0.001011     -0.000092     -0.732912
      3.28594     10.59178     15.35560         0.001623      0.009344      0.444725
      6.57187      0.00000     15.35560        -0.000010     -0.000464     -0.606928
      6.57187     10.59275     18.57146        -0.000004     -0.009450     -0.363439
      3.28588      0.00329     18.72953        -0.007670     -0.005015      0.464543
      3.28687     10.59868     22.11509        -0.003120     -0.028916      0.767534
      6.57188      0.00620     21.78518        -0.000017     -0.053714     -0.726554
[...]
      6.57187      6.05245     13.35340        -0.000002      0.000065     -0.268107
      4.56967      4.53934     12.06967         0.306365      0.000530      0.048890
      8.57408      4.53934     12.06967        -0.306362      0.000532      0.048881
      3.28594      6.05245     14.07187        -0.000887      0.001263      0.073856
      3.28594      6.05245     16.63933         0.003394      0.006314     -0.137947
      7.85560      4.53934     15.35560        -0.439378      0.017285      0.052692
      5.28814      4.53934     15.35560         0.439369      0.017282      0.052691
      6.57187      6.05337     17.36894         0.000001     -0.004271      0.380597
      6.57187      6.05977     19.95386         0.000010     -0.022512      0.702515
      4.59277      4.54275     18.65749         0.005067      0.002661     -0.004718
      8.55098      4.54275     18.65749        -0.005069      0.002665     -0.004711
      3.27411      6.05910     20.64587         0.016743     -0.013994     -0.455504
      3.30654      6.06013     23.21813        -0.007096     -0.058232     -0.961810
      7.80565      4.52793     22.05044        -0.235538      0.165995      0.158785
      5.33810      4.52793     22.05044         0.235525      0.165997      0.158793
    total drift:                               -0.000008      0.002233     -0.000078

  FREE ENERGIE OF THE ION-ELECTRON SYSTEM (eV)
  free  energy   TOTEN  =     -1736.31193723 eV

  energy  without entropy=    -1736.31193723  energy(sigma->0) =    -1736.31193723