 vasp.6.3.0 20Jan22 (build Aug 21 2024 11:13:42) complex
 executed on        HPECrayEX_GCC date 2024.11.26  23:54:19

 INCAR:
   SYSTEM = TiO2
   ISMEAR = 0
   SIGMA = 0.05
   EDIFF = 1E-4
   ALGO = ALL
   ISTART = 0
   IBRION = -1
   NSW = 0
   ISYM = 0
   ISIF = 2
   EDIFFG = -0.01
   DIPOL = 0.5 0.5 0.5
   IDIPOL = 3
   LDIPOL = .TRUE.
   GGA = MK
   LUSE_VDW = .TRUE.
   PARAM1 = 0.1234
   PARAM2 = 0.711357
   ZAB_VDW = -1.8867
   AGGAC = 0.0
   ENCUT = 600
   PREC = Accurate
   LASPH = .TRUE.
   LREAL = .FALSE.
   ISPIN = 1
   NELM = 200
   NELMIN = 8
   NCORE = 16
   KPAR = 1
   LWAVE = .FALSE.
   LCHARG = .FALSE.

 POTCAR:    PAW_PBE Ti_pv 07Sep2000
 POTCAR:    PAW_PBE O 08Apr2002
|               ----> ADVICE to this user running VASP <----                  |
|     You have switched on vdW-DFT.                                           |
|     This routine was written and supplied by Jiri Klimes. We recommend      |
|     that you carefully read and cite the following publications:            |
|       J. Klimes, D.R. Bowler, A. Michelides                                 |
|          J. Phys.: Cond Matt. 22 022201 (2010)                              |
|       J. Klimes, D.R. Bowler, A. Michelides                                 |
|          Phys. Rev. B. 83, 195131 (2011)                                    |
|     and references therein.                                                 |

   TITEL  = PAW_PBE Ti_pv 07Sep2000
   POMASS =   47.880; ZVAL   =   10.000    mass and valenz
   ENMAX  =  222.335; ENMIN  =  166.751 eV

   TITEL  = PAW_PBE O 08Apr2002
   POMASS =   16.000; ZVAL   =    6.000    mass and valenz
   ENMAX  =  400.000; ENMIN  =  300.000 eV

  PAW_PBE Ti_pv 07Sep2000               :
  PAW_PBE O 08Apr2002                   :

 POSCAR: Ti  O
  positions in direct lattice
 exchange correlation table for  LEXCH =       43
   RHO(1)=    0.500       N(1)  =     2000
   RHO(2)=  100.500       N(2)  =     4000

 ion  position               nearest neighbor table
   1  0.808  0.833  0.295-  85 1.94  53 1.94  51 1.94  50 1.99  52 1.99  18 3.05   4 3.05   2 3.05

   2  0.592  0.667  0.327-  49 1.94 116 1.94  52 1.94  54 1.94  53 1.99  55 1.99  33 3.05   3 3.05
                             1 3.05   7 3.08
   3  0.308  0.667  0.295- 121 1.94  57 1.94  55 1.94  49 1.99  56 1.99  36 3.05   2 3.05   4 3.05

   4  0.092  0.833  0.327-  50 1.94  88 1.94  56 1.94  58 1.94  57 1.99  51 1.99  19 3.05   1 3.05
                             3 3.05   5 3.08
   5  0.945  0.833  0.423-  59 1.92  93 1.93  61 1.93  51 1.98  60 1.98  58 2.00   8 3.00   6 3.05
                            22 3.05   4 3.08
   6  0.726  0.666  0.451-  54 1.89 124 1.93  60 1.94  62 1.96  63 1.99  61 2.00   7 3.01   5 3.05
                            37 3.05  11 3.11
   7  0.444  0.666  0.423-  63 1.93 129 1.93  65 1.93  55 1.97  64 1.98  54 2.01   6 3.01   8 3.05
                            40 3.05   2 3.08
   8  0.225  0.833  0.451-  58 1.89  96 1.94  64 1.94  66 1.97  59 1.98  65 2.00   5 3.00  23 3.05
                             7 3.05   9 3.11
   9  0.085  0.833  0.550-  67 1.92 101 1.93  69 1.93  68 1.97  59 2.00  66 2.01  12 2.95  10 3.04
                            26 3.05   8 3.11
  10  0.865  0.666  0.575-  62 1.86 132 1.93  68 1.94  71 1.95  69 2.01  70 2.01  11 2.97   9 3.04
                            41 3.05  15 3.17
  11  0.584  0.666  0.549- 137 1.93  71 1.93  73 1.93  72 1.98  63 1.98  62 2.01  10 2.97  12 3.05
                            44 3.06   6 3.11
  12  0.364  0.833  0.576-  66 1.86 104 1.94  72 1.94  67 1.95  74 2.00  73 2.02   9 2.95  27 3.05
                            11 3.05
  13  0.231  0.833  0.680-  75 1.86  77 1.93 109 1.94  76 2.00  67 2.09  74 2.10  16 2.85  30 3.07
                            14 3.08
  14  0.001  0.666  0.700-  70 1.78  78 1.84 140 1.97  76 1.99  77 2.07  15 2.86  13 3.08  45 3.10

[...]

  17  0.808  0.167  0.295-  85 1.94 117 1.94  83 1.94  82 1.99  84 1.99  18 3.05  20 3.05  34 3.05

[...]

  36  0.092  0.500  0.327- 114 1.94  56 1.94 120 1.94 122 1.94 121 1.99 115 1.99   3 3.05  35 3.05
                            33 3.05  37 3.07
  37  0.946  0.500  0.422- 123 1.92 125 1.93  61 1.93 115 1.97 122 1.99 124 2.00  40 2.99   6 3.05
                            38 3.05  36 3.07
  38  0.726  0.334  0.451- 118 1.89 124 1.93  92 1.94 126 1.96 127 1.99 125 2.00  39 3.01  21 3.05
                            37 3.05  43 3.11
  39  0.444  0.334  0.423- 127 1.93 129 1.93  97 1.93 119 1.97 128 1.98 118 2.01  38 3.01  24 3.05
                            40 3.05  34 3.08
  40  0.226  0.500  0.453- 122 1.92 128 1.94  64 1.94 123 1.96 130 1.97 129 2.01  37 2.99   7 3.05
                            39 3.05  41 3.07
  41  0.089  0.500  0.550- 131 1.91 133 1.93  69 1.93 130 1.98 132 2.00 123 2.01  44 2.96  10 3.05
                            42 3.05  40 3.07
  42  0.865  0.334  0.575- 126 1.86 132 1.93 100 1.94 135 1.95 133 2.01 134 2.01  43 2.97  25 3.04
                            41 3.05  47 3.17
  43  0.584  0.334  0.549- 137 1.93 135 1.93 105 1.93 136 1.98 127 1.98 126 2.01  42 2.97  28 3.05
                            44 3.06  38 3.11
  44  0.366  0.500  0.579- 130 1.92 136 1.94  72 1.94 131 1.94 138 1.98 137 2.03  41 2.96  11 3.06
                            43 3.06  45 3.13
  45  0.235  0.500  0.681- 139 1.86 141 1.93  77 1.93 138 2.03 140 2.03 131 2.10  48 2.87  14 3.10
                            46 3.10  44 3.13
  46  0.001  0.334  0.700- 134 1.78 142 1.84 140 1.97 108 1.99 141 2.07  47 2.86  29 3.08  45 3.10

  47  0.730  0.333  0.678- 142 1.89 144 1.93 112 1.94 143 1.99 135 2.04 134 2.09  46 2.86  32 3.07
                            48 3.08  42 3.17
  48  0.506  0.500  0.706- 139 1.84 138 1.87  79 1.98 143 1.98 144 2.07  45 2.87  47 3.08  15 3.08

  49  0.488  0.667  0.269-   2 1.94   3 1.99
  50  0.988  0.833  0.269-   4 1.94   1 1.99
  51  0.911  0.833  0.353-   1 1.94   5 1.98   4 1.99
  52  0.627  0.833  0.321-  18 1.94   2 1.94   1 1.99
  53  0.772  0.667  0.300-  33 1.94   1 1.94   2 1.99
  54  0.624  0.667  0.395-   6 1.89   2 1.94   7 2.01
  55  0.411  0.667  0.353-   3 1.94   7 1.97   2 1.99
  56  0.127  0.667  0.321-  36 1.94   4 1.94   3 1.99
  57  0.272  0.833  0.300-  19 1.94   3 1.94   4 1.99
  58  0.124  0.833  0.395-   8 1.89   4 1.94   5 2.00
  59  0.049  0.834  0.480-   5 1.92   8 1.98   9 2.00
  60  0.764  0.833  0.447-  22 1.94   6 1.94   5 1.98
  61  0.909  0.667  0.427-   5 1.93  37 1.93   6 2.00
  62  0.764  0.666  0.520-  10 1.86   6 1.96  11 2.01
  63  0.549  0.666  0.480-   7 1.93  11 1.98   6 1.99
  64  0.264  0.667  0.448-  40 1.94   8 1.94   7 1.98
  65  0.409  0.833  0.427-  23 1.93   7 1.93   8 2.00
  66  0.264  0.833  0.521-  12 1.86   8 1.97   9 2.01
  67  0.193  0.833  0.607-   9 1.92  12 1.95  13 2.09
  68  0.904  0.833  0.573-  26 1.94  10 1.94   9 1.97
  69  0.051  0.667  0.553-   9 1.93  41 1.93  10 2.01
  70  0.914  0.667  0.645-  14 1.78  10 2.01  15 2.09
  71  0.694  0.668  0.606-  11 1.93  10 1.95  15 2.04
  72  0.404  0.667  0.575-  44 1.94  12 1.94  11 1.98
  73  0.550  0.833  0.553-  27 1.93  11 1.93  12 2.02
  74  0.412  0.836  0.646-  16 1.78  12 2.00  13 2.10
  75  0.347  0.833  0.732-  16 1.84  13 1.86
  76  0.053  0.833  0.708-  30 1.98  14 1.99  13 2.00
  77  0.195  0.666  0.681-  13 1.93  45 1.93  14 2.07
  78  0.843  0.664  0.731-  14 1.84  15 1.89
  79  0.553  0.669  0.707-  16 1.96  48 1.98  15 1.99
  80  0.696  0.834  0.679-  31 1.93  15 1.94  16 2.06
  81  0.488  0.000  0.269-  18 1.94  19 1.99
  82  0.988  0.167  0.269-  20 1.94  17 1.99
  83  0.911  0.167  0.353-  17 1.94  21 1.98  20 1.99
  84  0.627  0.167  0.321-  18 1.94  34 1.94  17 1.99
  85  0.772  0.000  0.300-   1 1.94  17 1.94  18 1.99
  86  0.624  0.000  0.395-  22 1.89  18 1.94  23 2.00
  87  0.411  0.000  0.353-  19 1.94  23 1.98  18 1.99
  88  0.127  0.000  0.321-   4 1.94  20 1.94  19 1.99
  89  0.272  0.167  0.300-  19 1.94  35 1.94  20 1.99
  90  0.124  0.167  0.395-  24 1.89  20 1.94  21 2.00
  91  0.049  0.166  0.480-  21 1.92  24 1.98  25 2.00
  92  0.764  0.167  0.447-  22 1.94  38 1.94  21 1.98
  93  0.909  1.000  0.427-   5 1.93  21 1.93  22 2.00
  94  0.764  1.000  0.520-  26 1.86  22 1.97  27 2.01
  95  0.549  1.000  0.480-  23 1.92  22 1.98  27 2.00
  96  0.264  1.000  0.448-   8 1.94  24 1.94  23 1.99
  97  0.409  0.167  0.427-  23 1.93  39 1.93  24 2.00
  98  0.264  0.167  0.521-  28 1.86  24 1.97  25 2.01
  99  0.193  0.167  0.607-  25 1.92  28 1.95  29 2.09
 100  0.904  0.167  0.573-  26 1.94  42 1.94  25 1.97
 101  0.051  1.000  0.553-  25 1.93   9 1.93  26 2.02
 102  0.914  1.000  0.646-  30 1.78  26 2.01  31 2.08
 103  0.693  1.000  0.606-  27 1.92  26 1.94  31 2.10
 104  0.403  1.000  0.573-  12 1.94  28 1.94  27 1.98
 105  0.550  0.167  0.553-  27 1.93  43 1.93  28 2.02
 106  0.412  0.164  0.646-  32 1.78  28 2.00  29 2.10
 107  0.347  0.167  0.732-  32 1.84  29 1.86
 108  0.053  0.167  0.708-  30 1.98  46 1.99  29 2.00
[...]
 130  0.265  0.500  0.522-  44 1.92  40 1.97  41 1.98
 131  0.192  0.500  0.607-  41 1.91  44 1.94  45 2.10
 132  0.904  0.500  0.573-  42 1.93  10 1.93  41 2.00
 133  0.051  0.333  0.553-  25 1.93  41 1.93  42 2.01
 134  0.914  0.333  0.645-  46 1.78  42 2.01  47 2.09
 135  0.694  0.332  0.606-  43 1.93  42 1.95  47 2.04
 136  0.404  0.333  0.575-  44 1.94  28 1.94  43 1.98
 137  0.550  0.500  0.554-  11 1.93  43 1.93  44 2.03
 138  0.412  0.500  0.648-  48 1.87  44 1.98  45 2.03
 139  0.345  0.500  0.734-  48 1.84  45 1.86
 140  0.052  0.500  0.709-  46 1.97  14 1.97  45 2.03
 141  0.195  0.334  0.681-  29 1.93  45 1.93  46 2.07
 142  0.843  0.336  0.731-  46 1.84  47 1.89
 143  0.553  0.331  0.707-  32 1.96  48 1.98  47 1.99
 144  0.693  0.500  0.678-  47 1.93  15 1.93  48 2.07

IMPORTANT INFORMATION: All symmetrisations will be switched off!
NOSYMM: (Re-)initialisation of all symmetry stuff for point group C_1.

                                     Primitive cell

  volume of cell :    3260.5577

  direct lattice vectors                    reciprocal lattice vectors
    10.272661001  0.000000000  0.000000000     0.097345761 -0.000000000  0.000000000
     0.000000000 11.368814841  0.000000000     0.000000000  0.087959916  0.000000000
     0.000000000  0.000000000 27.918606646     0.000000000  0.000000000  0.035818406

  length of vectors
    10.272661001 11.368814841 27.918606646     0.097345761  0.087959916  0.035818406

  position of ions in fractional coordinates (direct lattice)
     0.807711828  0.833333333  0.294983814
     0.591733995  0.666666667  0.326524766
     0.307711828  0.666666667  0.294983814
     0.091733995  0.833333333  0.326524766
     0.944541792  0.833371203  0.422618393
     0.726303681  0.666234545  0.451185261
     0.444073371  0.666439609  0.422501803
     0.225465796  0.833290811  0.451499342
     0.085482731  0.833445070  0.550179034
     0.864897628  0.666043317  0.575389403
     0.584415351  0.666448677  0.549432212
     0.363737636  0.833383649  0.576254837
     0.231364202  0.832643152  0.680212824
     0.001206150  0.665560345  0.700064831
     0.729838025  0.666530114  0.677633616
     0.503357866  0.834707826  0.699829404
     0.807711828  0.166666667  0.294983814
[...]
   7.93190783  7.57920989  8.38057942
   6.41223715  7.57920989 11.02231769
   4.22545764  7.57920989  9.85165358
   1.30779420  7.57920989  8.97107415
   2.79557733  9.47401237  8.38057942
   1.27590665  9.47401237 11.02231769
   0.50387022  9.47677965 13.39202663
   7.84567572  9.47342347 12.49254987
[...]
   2.72045276  5.68440730 14.56371684
   1.97384274  5.68440724 16.95538362
   9.28364298  5.68440727 16.00355643
   0.52164382  3.79144696 15.43692720
   9.38585118  3.78683063 18.01178182
   7.12590136  3.77849985 16.91209712
   4.15243349  3.79037212 16.03960269
   5.65228792  5.68440728 15.45840591
   4.23458545  5.68440733 18.09750728
   3.54373199  5.68440728 20.48892219
   0.53544917  5.68440727 19.78477037
   2.00650000  3.79385096 19.00144719
   8.65956223  3.82097050 20.40315499
   5.68357884  3.76100455 19.73814073
   7.12190334  5.68440725 18.92330708

--------------------------------------- Iteration      FINAL  ---------------------------------------

--------------------OUTCAR has been truncated-------------------------

[...]

--------------------OUTCAR has been truncated-------------------------

  FORCE on cell =-STRESS in cart. coord.  units (eV):
  Direction    XX          YY          ZZ          XY          YZ          ZX
  Alpha Z  2415.35607  2415.35607  2415.35607
  Ewald  489269.06810482796.85878************     0.00009    -0.00029 -1886.50282
  Hartree510157.62123506230.13130************     0.00012    -0.00018 -1271.03223
  E(xc)   -5159.98897 -5160.57019 -5159.08409     0.00000     0.00000    -0.29884
  Local  ************************************    -0.00047     0.00051  3167.18891
  n-local -3298.98226 -3265.28095 -3309.31261    -0.00007    -0.00000     2.06617
  augment  3147.48575  3144.96798  3137.13272     0.00013    -0.00009    -1.07806
  Kinetic 17008.54361 17067.78924 17113.15281     0.00024    -0.00003   -17.07169
  Fock        0.00000     0.00000     0.00000     0.00000     0.00000     0.00000
  Total     -35.77038    -3.83358    -5.78461     0.00006    -0.00008    -6.72855
  in kB     -17.57690    -1.88375    -2.84245     0.00003    -0.00004    -3.30629

 VOLUME and BASIS-vectors are now :
  energy-cutoff  :      600.00
  volume of cell :     3260.56
      direct lattice vectors                 reciprocal lattice vectors
    10.272661001  0.000000000  0.000000000     0.097345761 -0.000000000  0.000000000
     0.000000000 11.368814841  0.000000000     0.000000000  0.087959916  0.000000000
     0.000000000  0.000000000 27.918606646     0.000000000  0.000000000  0.035818406

  length of vectors
    10.272661001 11.368814841 27.918606646     0.097345761  0.087959916  0.035818406

 FORCES acting on ions:
    Electron-Ion                     Ewald-Force                    Non-Local-Force
   0.651E+01 0.102E+00 0.337E+04   -.167E+01 -.101E+00 -.337E+04   -.104E+01 -.355E-03 -.311E+01
   0.482E+01 0.189E-01 0.277E+04   -.635E+01 -.164E-01 -.277E+04   -.115E+00 -.110E-02 -.107E+00
   0.638E+01 0.243E+00 0.337E+04   -.157E+01 -.247E+00 -.337E+04   -.103E+01 0.113E-02 -.311E+01
   0.357E+01 0.206E+00 0.277E+04   -.514E+01 -.212E+00 -.277E+04   -.108E+00 0.110E-02 -.112E+00
   -.339E+00 0.657E+00 0.125E+04   0.161E+00 -.652E+00 -.125E+04   0.177E+00 -.209E-02 0.202E-01
   0.811E+00 -.854E+00 0.780E+03   -.726E+00 0.853E+00 -.779E+03   -.472E-01 0.150E-01 -.158E+00
   0.732E+00 0.137E+00 0.125E+04   -.891E+00 -.133E+00 -.125E+04   0.169E+00 0.622E-02 0.516E-02
   -.525E+01 0.681E+00 0.774E+03   0.532E+01 -.674E+00 -.774E+03   -.293E-01 0.128E-02 -.166E+00
   -.489E+01 -.188E+00 -.810E+03   0.458E+01 0.199E+00 0.810E+03   0.305E+00 0.649E-02 0.117E+00
   -.678E+01 -.548E+00 -.121E+04   0.702E+01 0.585E+00 0.121E+04   -.116E+00 -.470E-02 -.264E+00
   0.471E+00 0.177E+01 -.794E+03   -.660E+00 -.172E+01 0.794E+03   0.253E+00 -.624E-02 0.971E-01
   -.464E+01 0.327E+01 -.123E+04   0.484E+01 -.320E+01 0.123E+04   -.118E+00 -.257E-01 -.306E+00
   0.208E+02 0.276E+00 -.282E+04   -.218E+02 -.196E+00 0.282E+04   0.979E+00 -.888E-02 -.106E+00
   -.679E+02 -.521E+01 -.321E+04   0.680E+02 0.511E+01 0.321E+04   -.713E-01 0.128E+00 0.564E+00
   0.117E+02 -.159E+01 -.278E+04   -.121E+02 0.179E+01 0.279E+04   0.840E+00 -.498E-01 0.215E-01
   -.718E+02 -.315E+01 -.321E+04   0.721E+02 0.340E+01 0.321E+04   -.678E-01 -.317E-01 0.560E+00
   0.651E+01 -.102E+00 0.337E+04   -.167E+01 0.101E+00 -.337E+04   -.104E+01 0.397E-03 -.311E+01
   0.485E+01 -.604E-05 0.277E+04   -.640E+01 0.407E-05 -.277E+04   -.109E+00 -.543E-05 -.113E+00
   0.628E+01 -.185E-04 0.337E+04   -.146E+01 0.221E-05 -.337E+04   -.104E+01 0.308E-05 -.311E+01
   0.357E+01 -.206E+00 0.277E+04   -.514E+01 0.212E+00 -.277E+04   -.107E+00 -.111E-02 -.112E+00
   -.338E+00 -.657E+00 0.125E+04   0.161E+00 0.652E+00 -.125E+04   0.177E+00 0.208E-02 0.202E-01
   -.166E+01 -.262E-04 0.778E+03   0.172E+01 0.659E-05 -.778E+03   -.148E-01 0.371E-05 -.169E+00
   0.110E+01 0.312E-04 0.125E+04   -.127E+01 0.112E-07 -.125E+04   0.167E+00 0.844E-05 0.702E-02
   -.525E+01 -.681E+00 0.774E+03   0.532E+01 0.674E+00 -.774E+03   -.293E-01 -.128E-02 -.166E+00
   -.489E+01 0.188E+00 -.810E+03   0.458E+01 -.199E+00 0.810E+03   0.305E+00 -.647E-02 0.117E+00
   -.864E+01 -.130E-04 -.122E+04   0.886E+01 0.484E-05 0.122E+04   -.962E-01 -.172E-04 -.273E+00
   -.345E+01 0.182E-04 -.803E+03   0.318E+01 -.589E-05 0.803E+03   0.306E+00 0.527E-05 0.157E+00
   -.464E+01 -.327E+01 -.123E+04   0.484E+01 0.320E+01 0.123E+04   -.118E+00 0.257E-01 -.306E+00
   0.208E+02 -.276E+00 -.282E+04   -.218E+02 0.196E+00 0.282E+04   0.979E+00 0.887E-02 -.106E+00
   -.696E+02 -.368E-05 -.321E+04   0.700E+02 0.763E-05 0.321E+04   -.123E+00 0.201E-05 0.587E+00
   0.164E+02 -.551E-05 -.281E+04   -.173E+02 0.112E-04 0.281E+04   0.892E+00 -.396E-05 -.614E-01
   -.718E+02 0.315E+01 -.321E+04   0.721E+02 -.340E+01 0.321E+04   -.678E-01 0.316E-01 0.560E+00
   0.652E+01 0.231E-04 0.337E+04   -.168E+01 -.402E-05 -.337E+04   -.104E+01 -.739E-05 -.310E+01
   0.482E+01 -.188E-01 0.277E+04   -.635E+01 0.164E-01 -.277E+04   -.115E+00 0.106E-02 -.107E+00
   0.638E+01 -.243E+00 0.337E+04   -.157E+01 0.247E+00 -.337E+04   -.103E+01 -.108E-02 -.311E+01
   0.269E+01 -.211E-04 0.277E+04   -.421E+01 -.148E-05 -.277E+04   -.126E+00 0.221E-04 -.106E+00
   0.231E+01 -.830E-05 0.125E+04   -.250E+01 -.601E-05 -.125E+04   0.165E+00 -.336E-05 0.481E-01
   0.811E+00 0.855E+00 0.780E+03   -.726E+00 -.853E+00 -.779E+03   -.472E-01 -.150E-01 -.158E+00
   0.732E+00 -.137E+00 0.125E+04   -.891E+00 0.133E+00 -.125E+04   0.169E+00 -.620E-02 0.517E-02
   -.905E+01 -.627E-05 0.756E+03   0.912E+01 0.465E-05 -.756E+03   -.401E-01 -.150E-04 -.568E-01
   -.448E+00 -.152E-04 -.816E+03   0.479E-01 -.284E-05 0.816E+03   0.274E+00 -.811E-05 0.151E+00
   -.678E+01 0.548E+00 -.121E+04   0.702E+01 -.585E+00 0.121E+04   -.116E+00 0.470E-02 -.264E+00
   0.471E+00 -.177E+01 -.794E+03   -.660E+00 0.172E+01 0.794E+03   0.253E+00 0.625E-02 0.971E-01
   -.792E+01 -.162E-04 -.128E+04   0.803E+01 0.533E-05 0.128E+04   -.125E+00 0.107E-04 -.943E-02
   0.280E+02 -.333E-04 -.283E+04   -.295E+02 -.241E-05 0.283E+04   0.884E+00 -.116E-04 -.239E-02
   -.679E+02 0.521E+01 -.321E+04   0.680E+02 -.511E+01 0.321E+04   -.713E-01 -.128E+00 0.564E+00
   0.117E+02 0.159E+01 -.278E+04   -.121E+02 -.179E+01 0.279E+04   0.840E+00 0.498E-01 0.215E-01
   -.742E+02 0.139E-04 -.330E+04   0.732E+02 0.490E-05 0.330E+04   0.372E+00 0.830E-05 0.203E+01
   -.323E+02 0.418E-01 0.228E+04   0.370E+02 -.416E-01 -.230E+04   -.650E+01 -.137E-03 0.171E+02
   -.325E+02 0.419E-01 0.228E+04   0.372E+02 -.433E-01 -.230E+04   -.649E+01 0.187E-02 0.171E+02
   0.815E+02 0.246E+00 0.138E+04   -.862E+02 -.243E+00 -.137E+04   0.376E+01 -.638E-02 -.446E+01
   0.750E+02 0.796E-01 0.168E+04   -.819E+02 -.778E-01 -.168E+04   0.731E+01 -.368E-02 -.262E+01
   -.862E+02 0.291E-01 0.194E+04   0.934E+02 -.301E-01 -.194E+04   -.695E+01 0.110E-02 -.546E-01
   -.691E+02 -.591E+00 0.105E+04   0.747E+02 0.645E+00 -.106E+04   -.565E+01 -.512E-01 0.428E+01
   0.820E+02 0.201E+00 0.138E+04   -.867E+02 -.182E+00 -.137E+04   0.374E+01 -.217E-01 -.433E+01
   0.741E+02 0.174E+00 0.168E+04   -.810E+02 -.181E+00 -.168E+04   0.733E+01 0.175E-01 -.263E+01
   -.865E+02 0.917E-01 0.194E+04   0.936E+02 -.908E-01 -.194E+04   -.693E+01 -.406E-02 -.579E-01
   -.724E+02 0.272E+00 0.105E+04   0.781E+02 -.269E+00 -.106E+04   -.574E+01 -.624E-02 0.436E+01
   0.781E+02 -.491E+00 0.144E+03   -.845E+02 0.551E+00 -.139E+03   0.635E+01 -.630E-01 -.498E+01
   0.806E+02 0.808E+00 0.471E+03   -.872E+02 -.892E+00 -.468E+03   0.662E+01 0.782E-01 -.305E+01
[...]
   0.848E+02 0.404E-04 -.110E+04   -.918E+02 -.147E-04 0.111E+04   0.707E+01 -.171E-04 -.740E+01
   0.733E+02 0.394E-05 -.739E+03   -.792E+02 0.163E-05 0.742E+03   0.597E+01 -.803E-05 -.305E+01
   -.807E+02 -.774E+00 -.477E+03   0.870E+02 0.739E+00 0.475E+03   -.629E+01 0.658E-01 0.276E+01
   -.582E+02 0.274E+01 -.131E+04   0.605E+02 -.306E+01 0.130E+04   -.243E+01 0.332E+00 0.959E+01
   0.828E+02 0.288E+01 -.108E+04   -.891E+02 -.321E+01 0.108E+04   0.619E+01 0.353E+00 -.591E+01
   0.775E+02 -.186E+01 -.754E+03   -.839E+02 0.176E+01 0.758E+03   0.638E+01 0.168E+00 -.318E+01
   -.738E+02 -.100E-04 -.487E+03   0.798E+02 -.662E-05 0.484E+03   -.609E+01 0.347E-05 0.249E+01
   -.754E+02 -.422E-04 -.135E+04   0.802E+02 0.185E-04 0.134E+04   -.429E+01 0.109E-04 0.804E+01
   0.540E+02 -.301E-04 -.230E+04   -.601E+02 0.128E-04 0.232E+04   0.665E+01 0.297E-05 -.202E+02
   0.550E+02 -.108E-04 -.203E+04   -.588E+02 0.383E-04 0.204E+04   0.394E+01 -.147E-04 -.784E+01
   -.549E+02 -.443E+00 -.167E+04   0.596E+02 0.530E+00 0.167E+04   -.465E+01 0.280E-01 0.296E+01
   0.510E+02 -.160E+01 -.229E+04   -.568E+02 0.203E+01 0.231E+04   0.594E+01 -.488E+00 -.208E+02
   0.608E+02 -.185E+01 -.201E+04   -.659E+02 0.181E+01 0.202E+04   0.498E+01 0.661E+00 -.597E+01
   -.523E+02 -.284E-04 -.164E+04   0.570E+02 0.229E-04 0.164E+04   -.503E+01 0.635E-05 0.481E+01
   -.140E+02 -.184E-03 0.662E+02   0.227E-12 0.135E-12 0.127E-10   0.140E+02 0.176E-03 -.662E+02

 POSITION                                       TOTAL-FORCE (eV/Angst)
      8.29735      9.47401      8.23554         3.823436      0.001064      1.633683
      6.07868      7.57921      9.11612        -1.645964      0.001382     -1.981942
      3.16102      7.57921      8.23554         3.796674     -0.002676      1.618048
      0.94235      9.47401      9.11612        -1.675774     -0.004721     -1.986550
      9.70296      9.47444     11.79892         0.000328      0.004315     -0.038991
      7.46107      7.57430     12.59646         0.019344      0.009186      0.030161
      4.56182      7.57663     11.79566         0.008121      0.007001     -0.045835
      2.31613      9.47353     12.60523         0.016141      0.008061      0.027574
      0.87814      9.47528     15.36023        -0.004328      0.018870     -0.000171
      8.88480      7.57212     16.06407         0.067086      0.026187      0.150483
      6.00350      7.57673     15.33938         0.056814      0.044718     -0.021496
      3.73655      9.47458     16.08823         0.026724      0.046478      0.093335
      2.37673      9.46617     18.99059        -0.043682      0.065794      0.146217
      0.01239      7.56663     19.54483        -0.103004      0.016718      0.353547
      7.49738      7.57766     18.91859         0.415644      0.146171      0.363492
      5.17082      9.48964     19.53826         0.036198      0.217877      0.261074
      8.29735      1.89480      8.23554         3.823465     -0.000978      1.633561
      6.07868      0.00000      9.11612        -1.663523     -0.000007     -1.983064
      3.16102      0.00000      8.23554         3.816885     -0.000013      1.628789
      0.94235      1.89480      9.11612        -1.675659      0.004790     -1.986583
      9.70296      1.89437     11.79892         0.000374     -0.004305     -0.038958
      7.45680     11.36881     12.59828         0.020137     -0.000016      0.040750
      4.56387     11.36881     11.79879         0.004406      0.000040     -0.038507
      2.31613      1.89529     12.60523         0.016180     -0.008061      0.027572
      0.87814      1.89353     15.36023        -0.004317     -0.018820     -0.000115
      8.87219     11.36881     16.07703         0.060636     -0.000025      0.137184
      6.00954     11.36881     15.34943         0.030848      0.000018      0.003461
      3.73655      1.89423     16.08823         0.026730     -0.046470      0.093370
      2.37673      1.90265     18.99059        -0.043682     -0.065861      0.146351
      0.03709     11.36881     19.54521         0.056613      0.000006      0.251710
      7.53093     11.36881     18.97526         0.063262      0.000002      0.163912
      5.17082      1.87918     19.53826         0.036433     -0.218007      0.261325
      8.29735      5.68441      8.23554         3.833950      0.000012      1.628257
      6.07868      3.78960      9.11612        -1.646022     -0.001357     -1.981943
      3.16102      3.78960      8.23554         3.796689      0.002769      1.618082
      0.94235      5.68441      9.11612        -1.646223     -0.000001     -1.921662
      9.71904      5.68441     11.79391        -0.015186     -0.000018     -0.049462
      7.46107      3.79452     12.59646         0.019360     -0.009120      0.030161
      4.56182      3.79219     11.79566         0.008104     -0.006984     -0.045855
      2.31971      5.68441     12.63544         0.007552     -0.000016     -0.043101
      0.91004      5.68441     15.36701        -0.102368     -0.000026     -0.068092
      8.88480      3.79669     16.06407         0.067102     -0.026186      0.150545
      6.00350      3.79208     15.33938         0.056804     -0.044712     -0.021504
      3.75503      5.68441     16.17598        -0.057036     -0.000000     -0.316800
      2.41699      5.68441     19.01030        -0.493613     -0.000048      0.041311
      0.01239      3.80218     19.54484        -0.103044     -0.016816      0.353486
      7.49738      3.79116     18.91859         0.415724     -0.146068      0.363486
      5.20291      5.68441     19.70272        -0.830388      0.000027     -1.590222
      5.01424      7.57921      7.50000        -1.792001      0.000057      1.043347
     10.15057      9.47401      7.50000        -1.787837      0.000497      1.039081
      9.36179      9.47401      9.85165        -0.958640     -0.003534     -0.197793
      6.44412      9.47401      8.97107         0.394279     -0.001869     -0.067108
      7.93191      7.57921      8.38058         0.222120      0.000133     -1.042080
      6.41224      7.57921     11.02232        -0.114503      0.002820      0.412128
      4.22546      7.57921      9.85165        -0.964440     -0.002353     -0.181909
      1.30779      7.57921      8.97107         0.403808      0.010596     -0.074432
      2.79558      9.47401      8.38058         0.230984     -0.003160     -1.043931
      1.27591      9.47401     11.02232        -0.053400     -0.003219      0.443594
      0.50387      9.47678     13.39203         0.028483     -0.003084      0.017620
      7.84568      9.47342     12.49255         0.025250     -0.005922     -0.004558
[...]
      2.72045      5.68441     14.56372         0.049486     -0.000012      0.074970
      1.97384      5.68441     16.95538         0.164201      0.000009      0.145775
      9.28364      5.68441     16.00356         0.055079     -0.000002     -0.018706
      0.52164      3.79145     15.43693        -0.017694      0.030443     -0.003228
      9.38585      3.78683     18.01178        -0.156172      0.010662     -0.193814
      7.12590      3.77850     16.91210        -0.019432      0.019529      0.003227
      4.15243      3.79037     16.03960         0.006765      0.075789      0.022161
      5.65229      5.68441     15.45841        -0.083564     -0.000013      0.034755
      4.23459      5.68441     18.09751         0.463690     -0.000013      0.844728
      3.54373      5.68441     20.48892         0.581658     -0.000014      0.080721
      0.53545      5.68441     19.78477         0.181060      0.000013     -0.108586
      2.00650      3.79385     19.00145         0.046184      0.115068     -0.009016
      8.65956      3.82097     20.40315         0.087908     -0.053961     -0.380688
      5.68358      3.76100     19.73814        -0.058083      0.618497      0.303042
      7.12190      5.68441     18.92331        -0.318972      0.000001      0.289142
    total drift:                                0.002400     -0.000008     -0.052870

  FREE ENERGIE OF THE ION-ELECTRON SYSTEM (eV)
  free  energy   TOTEN  =     -1043.96116923 eV

  energy  without entropy=    -1043.96116923  energy(sigma->0) =    -1043.96116923