 vasp.6.3.0 20Jan22 (build Apr  1 2022 16:44:48) complex
 executed on        HPECrayEX_GCC date 2022.11.09  20:31:26

 INCAR:
   SYSTEM = MgO-rocksalt
   ISMEAR = 0
   SIGMA = 0.05
   EDIFF = 1E-7
   ALGO = ALL
   ISTART = 0
   IBRION = 2
   NSW = 1000
   ISYM = 0
   ISIF = 2
   EDIFFG = -0.015
   DIPOL = 0.5 0.5 0.5
   IDIPOL = 3
   LDIPOL = .TRUE.
   LHFCALC = .TRUE.
   GGA = B5
   AEXX = 0.2
   AGGAX = 0.72
   AGGAC = 0.81
   ALDAC = 0.19
   IVDW = 1
   VDW_S6 = 1.05
   VDW_C6 = 1.23 0.70 0.63 0.70
   VDW_R0 = 1.397 1.342 1.243 1.342
   ENCUT = 600
   PREC = Accurate
   LASPH = .TRUE.
   LREAL = .FALSE.
   ISPIN = 2
   MAGMOM = 1.0 0.0 0.0 0.0 0.0 0.0 0.0 0.0 0.0 0.0 0.0 0.0 0.0 0.0 0.0 0.0 0.0 0.0 0.0 0.0 0.0 0.0 0.0 0.0 0.0 0.0 0.0 0.0 0.0 0.0 0.0 0.0 0.0 0.0 0.0 0.0 0.0 0.0 0.0 0.0 0.0 0.0 0.0 0.0 0.0 0.0 0.0 0.0 0.0 0.0 0.0 0.0 0.0 0.0 0.0 0.0 0.0 0.0 0.0 0.0 0.0 0.0 0.0 0.0 0.0 0.0
   NELM = 200
   NELMIN = 8
   NCORE = 8
   KPAR = 1
   LWAVE = .FALSE.
   LCHARG = .FALSE.

 POTCAR:    PAW_PBE N 08Apr2002
 POTCAR:    PAW_PBE O 08Apr2002
 POTCAR:    PAW_PBE Mg_pv 13Apr2007
 POTCAR:    PAW_PBE O 08Apr2002
 POTCAR:    PAW_PBE N 08Apr2002
   VRHFIN =N: s2p3

   TITEL  = PAW_PBE N 08Apr2002
   POMASS =   14.001; ZVAL   =    5.000    mass and valenz
   ENMAX  =  400.000; ENMIN  =  300.000 eV

[...]

   TITEL  = PAW_PBE Mg_pv 13Apr2007
   POMASS =   24.305; ZVAL   =    8.000    mass and valenz
   ENMAX  =  403.929; ENMIN  =  302.947 eV

   TITEL  = PAW_PBE O 08Apr2002
   POMASS =   16.000; ZVAL   =    6.000    mass and valenz
   ENMAX  =  400.000; ENMIN  =  300.000 eV

  PAW_PBE N 08Apr2002                   :
  PAW_PBE O 08Apr2002                   :
  PAW_PBE Mg_pv 13Apr2007               :
  PAW_PBE O 08Apr2002                   :

 POSCAR:  N  O Mg  O
  positions in direct lattice
  velocities in cartesian coordinates
 exchange correlation table for  LEXCH =       12
   RHO(1)=    0.500       N(1)  =     2000
   RHO(2)=  100.500       N(2)  =     4000

 ion  position               nearest neighbor table
   1  0.503  0.505  0.769-   2 1.16
   2  0.427  0.431  0.803-   1 1.16
   3  0.250  0.000  0.352-  37 2.10  38 2.10  45 2.10  54 2.10  35 2.10
   4  0.500  0.250  0.352-  37 2.10  38 2.10  46 2.10  53 2.10  36 2.10
   5  0.250  0.250  0.451-  35 2.10  36 2.10  43 2.10  52 2.10  37 2.10  41 2.11
   6  0.500  0.000  0.451-  35 2.10  36 2.10  44 2.10  51 2.10  38 2.10  42 2.10
   7  0.250  0.000  0.550-  41 2.10  42 2.10  49 2.10  58 2.10  35 2.11  39 2.13
   8  0.500  0.250  0.550-  50 2.10  41 2.10  57 2.10  42 2.10  36 2.11  40 2.13
   9  0.250  0.250  0.648-  41 2.09  56 2.10  39 2.10  40 2.10  47 2.10
  10  0.500  0.000  0.647-  42 2.09  48 2.10  40 2.10  39 2.10  55 2.10
  11  0.250  0.500  0.352-  37 2.10  45 2.10  46 2.10  62 2.10  43 2.10
  12  0.500  0.750  0.352-  38 2.10  45 2.10  46 2.10  61 2.10  44 2.10
  13  0.250  0.750  0.451-  35 2.10  43 2.10  44 2.10  60 2.10  45 2.10  49 2.10
  14  0.500  0.500  0.451-  36 2.10  43 2.10  44 2.10  59 2.10  46 2.10  50 2.11
  15  0.250  0.500  0.550-  50 2.10  41 2.10  49 2.10  66 2.10  43 2.11  47 2.13
  16  0.500  0.750  0.550-  50 2.10  65 2.10  49 2.10  42 2.10  44 2.11  48 2.13
  17  0.250  0.750  0.647-  49 2.08  39 2.10  64 2.10  48 2.10  47 2.10
  18  0.501  0.500  0.649-  63 2.10  48 2.11  40 2.11  47 2.11  50 2.11
  19  0.750  0.000  0.352-  38 2.10  53 2.10  54 2.10  61 2.10  51 2.10
  20  0.000  0.250  0.352-  37 2.10  53 2.10  54 2.10  62 2.10  52 2.10
  21  0.750  0.250  0.451-  36 2.10  51 2.10  52 2.10  59 2.10  53 2.10  57 2.10
  22  0.000  0.000  0.451-  35 2.10  51 2.10  52 2.10  60 2.10  54 2.10  58 2.11
  23  0.750  0.000  0.550-  65 2.10  57 2.10  42 2.10  58 2.10  51 2.11  55 2.13
  24  0.000  0.250  0.550-  41 2.10  57 2.10  58 2.10  66 2.10  52 2.11  56 2.13
  25  0.750  0.250  0.647-  57 2.08  56 2.10  55 2.10  63 2.10  40 2.10
  26  0.000  0.000  0.648-  58 2.09  56 2.10  64 2.10  55 2.10  39 2.10
  27  0.750  0.500  0.352-  46 2.10  53 2.10  61 2.10  62 2.10  59 2.10
  28  0.000  0.750  0.352-  45 2.10  54 2.10  61 2.10  62 2.10  60 2.10
  29  0.750  0.750  0.451-  44 2.10  51 2.10  59 2.10  60 2.10  61 2.10  65 2.10
  30  0.000  0.500  0.451-  43 2.10  52 2.10  59 2.10  60 2.10  62 2.10  66 2.10
  31  0.750  0.500  0.550-  50 2.10  65 2.10  57 2.10  66 2.10  59 2.11  63 2.12
  32  0.000  0.750  0.550-  65 2.10  58 2.10  49 2.10  66 2.10  60 2.11  64 2.13
  33  0.750  0.750  0.648-  65 2.09  64 2.10  55 2.10  63 2.10  48 2.10
  34  0.000  0.500  0.648-  66 2.09  63 2.10  47 2.10  64 2.10  56 2.10
  35  0.250  0.000  0.451-   5 2.10   6 2.10  13 2.10  22 2.10   3 2.10   7 2.11
  36  0.500  0.250  0.451-   5 2.10   6 2.10  14 2.10  21 2.10   4 2.10   8 2.11
  37  0.250  0.250  0.352-   3 2.10   4 2.10  11 2.10  20 2.10   5 2.10
  38  0.500  0.000  0.352-   3 2.10   4 2.10  12 2.10  19 2.10   6 2.10
  39  0.250  0.000  0.650-  17 2.10  26 2.10   9 2.10  10 2.10   7 2.13
  40  0.500  0.250  0.650-  10 2.10  25 2.10   9 2.10  18 2.11   8 2.13
  41  0.250  0.250  0.550-   9 2.09   7 2.10  24 2.10   8 2.10  15 2.10   5 2.11
  42  0.500  0.000  0.549-  10 2.09   7 2.10  23 2.10   8 2.10  16 2.10   6 2.10
  43  0.250  0.500  0.451-   5 2.10  13 2.10  14 2.10  30 2.10  11 2.10  15 2.11
  44  0.500  0.750  0.451-   6 2.10  13 2.10  14 2.10  29 2.10  12 2.10  16 2.11
  45  0.250  0.750  0.352-   3 2.10  11 2.10  12 2.10  28 2.10  13 2.10
  46  0.500  0.500  0.352-   4 2.10  11 2.10  12 2.10  27 2.10  14 2.10
  47  0.250  0.500  0.650-  34 2.10  17 2.10   9 2.10  18 2.11  15 2.13
  48  0.500  0.751  0.650-  10 2.10  17 2.10  33 2.10  18 2.11  16 2.13
  49  0.250  0.750  0.549-  17 2.08   7 2.10  32 2.10  15 2.10  16 2.10  13 2.10
  50  0.500  0.500  0.550-  15 2.10   8 2.10  16 2.10  31 2.10  14 2.11  18 2.11
  51  0.750  0.000  0.451-   6 2.10  21 2.10  22 2.10  29 2.10  19 2.10  23 2.11
  52  0.000  0.250  0.451-   5 2.10  21 2.10  22 2.10  30 2.10  20 2.10  24 2.11
  53  0.750  0.250  0.352-   4 2.10  19 2.10  20 2.10  27 2.10  21 2.10
  54  0.000  0.000  0.352-   3 2.10  19 2.10  20 2.10  28 2.10  22 2.10
  55  0.750  0.000  0.650-  25 2.10  26 2.10  33 2.10  10 2.10  23 2.13
  56  0.000  0.250  0.650-  25 2.10  26 2.10   9 2.10  34 2.10  24 2.13
  57  0.750  0.250  0.549-  25 2.08  24 2.10  23 2.10   8 2.10  31 2.10  21 2.10
  58  0.000  0.000  0.550-  26 2.09  24 2.10  32 2.10  23 2.10   7 2.10  22 2.11
  59  0.750  0.500  0.451-  14 2.10  21 2.10  29 2.10  30 2.10  27 2.10  31 2.11
  60  0.000  0.750  0.451-  13 2.10  22 2.10  29 2.10  30 2.10  28 2.10  32 2.11
  61  0.750  0.750  0.352-  12 2.10  19 2.10  27 2.10  28 2.10  29 2.10
  62  0.000  0.500  0.352-  11 2.10  20 2.10  27 2.10  28 2.10  30 2.10
  63  0.751  0.500  0.650-  34 2.10  25 2.10  33 2.10  18 2.10  31 2.12
  64  0.000  0.750  0.650-  17 2.10  26 2.10  33 2.10  34 2.10  32 2.13
  65  0.750  0.750  0.549-  33 2.09  32 2.10  23 2.10  16 2.10  31 2.10  29 2.10
  66  0.000  0.500  0.549-  34 2.09  24 2.10  32 2.10  31 2.10  15 2.10  30 2.10

IMPORTANT INFORMATION: All symmetrisations will be switched off!
NOSYMM: (Re-)initialisation of all symmetry stuff for point group C_1.

                                     Primitive cell

  volume of cell :    1504.9259

  direct lattice vectors                    reciprocal lattice vectors
     8.404861995  0.000000000  0.000000000     0.118978753  0.000000000  0.000000000
     0.000000000  8.404861995  0.000000000     0.000000000  0.118978753  0.000000000
     0.000000000  0.000000000 21.303646496     0.000000000  0.000000000  0.046940321

  length of vectors
     8.404861995  8.404861995 21.303646496     0.118978753  0.118978753  0.046940321

  position of ions in fractional coordinates (direct lattice)
     0.503255204  0.504589906  0.768789885
     0.426513131  0.430813067  0.803317494
     0.250000000  0.000000000  0.352052406
     0.500000000  0.250000000  0.352052406
     0.250000000  0.250000000  0.450684135
     0.500000000  0.000000000  0.450684135
     0.250120832  0.000183271  0.549730264
     0.500159971  0.250415189  0.549847883
     0.250195691  0.250112222  0.647519964
     0.500218043  0.000164216  0.647496448
     0.250000000  0.500000000  0.352052406
     0.500000000  0.750000000  0.352052406
     0.250000000  0.750000000  0.450684135
     0.500000000  0.500000000  0.450684135
     0.250464892  0.500104984  0.549838106
     0.500147861  0.749864501  0.549806201
     0.250033536  0.750416848  0.647285204
     0.500621524  0.500432268  0.648940425
     0.750000000  0.000000000  0.352052406
     0.000000000  0.250000000  0.352052406
     0.750000000  0.250000000  0.450684135
     0.000000000  0.000000000  0.450684135
     0.750106240  0.000027278  0.549731108
     0.000209566  0.250063444  0.549737440
     0.750490948  0.249965388  0.647308730
     0.000219220  0.000147291  0.647742311
     0.750000000  0.500000000  0.352052406
     0.000000000  0.750000000  0.352052406
     0.750000000  0.750000000  0.450684135
     0.000000000  0.500000000  0.450684135
     0.749949908  0.500082421  0.549808076
     0.000054740  0.750124352  0.549742742
     0.750299592  0.750189309  0.647593124
     0.000266836  0.500154357  0.647506076
     0.250000000  0.000000000  0.450684135
     0.500000000  0.250000000  0.450684135
     0.250000000  0.250000000  0.352052406
     0.500000000  0.000000000  0.352052406
     0.250142232  0.000185859  0.649649199
     0.500404096  0.249651106  0.649764154
     0.250131702  0.250074066  0.549521011
     0.500104507  0.000143257  0.549475602
     0.250000000  0.500000000  0.450684135
     0.500000000  0.750000000  0.450684135
     0.250000000  0.750000000  0.352052406
     0.500000000  0.500000000  0.352052406
     0.249701544  0.500327728  0.649711880
     0.500039603  0.750902303  0.649561080
     0.250045432  0.750195742  0.549456962
     0.500170006  0.500125181  0.549693078
     0.750000000  0.000000000  0.450684135
     0.000000000  0.250000000  0.450684135
     0.750000000  0.250000000  0.352052406
     0.000000000  0.000000000  0.352052406
     0.750340612  0.000144572  0.649686264
     0.000282781  0.250003291  0.649709546
     0.750263623  0.249975466  0.549453722
     0.000113212  0.000097514  0.549503305
     0.750000000  0.500000000  0.450684135
     0.000000000  0.750000000  0.450684135
     0.750000000  0.750000000  0.352052406
     0.000000000  0.500000000  0.352052406
     0.750995046  0.499960932  0.649515497
     0.000240626  0.750290890  0.649711673
     0.750200167  0.750137898  0.549490613
     0.000195089  0.500078287  0.549453199

  ion indices of the primitive-cell ions
   primitive index   ion index
                 1           1
                 2           2
                 3           3
                 4           4
                 5           5
                 6           6
                 7           7
                 8           8
                 9           9
                10          10
                11          11
                12          12
                13          13
                14          14
                15          15
                16          16
                17          17
                18          18
[...]
   6.30777285  2.10092459 13.79003635
   0.00184251  0.00123796 13.79927322
   6.30364650  4.20243100  7.50000000
   0.00000000  6.30364650  7.50000000
   6.30364650  6.30364650  9.60121550
   0.00000000  4.20243100  9.60121550
   6.30322548  4.20312373 11.71291688
   0.00046009  6.30469166 11.71152504
   6.30616452  6.30523761 13.79609499
   0.00224272  4.20372835 13.79424055
   2.10121550  0.00000000  9.60121550
   4.20243100  2.10121550  9.60121550
   2.10121550  2.10121550  7.50000000
   4.20243100  0.00000000  7.50000000
   2.10241094  0.00156212 13.83989687
   4.20582737  2.09828309 13.84234585
   2.10232244  2.10183801 11.70680136
   4.20330936  0.00120406 11.70583399
   2.10121550  4.20243100  9.60121550
   4.20243100  6.30364650  9.60121550
   2.10121550  6.30364650  7.50000000
   4.20243100  4.20243100  7.50000000
   2.09870702  4.20518551 13.84123221
   4.20276386  6.31123023 13.83801963
   2.10159735  6.30529168 11.70543689
   4.20385988  4.20348313 11.71046702
   6.30364650  0.00000000  9.60121550
   0.00000000  2.10121550  9.60121550
   6.30364650  2.10121550  7.50000000
   0.00000000  0.00000000  7.50000000
   6.30650930  0.00121511 13.84068651
   0.00237673  2.10124316 13.84118249
   6.30586221  2.10100929 11.70536787
   0.00095153  0.00081959 11.70642417
   6.30364650  4.20243100  9.60121550
   0.00000000  6.30364650  9.60121550
   6.30364650  6.30364650  7.50000000
   0.00000000  4.20243100  7.50000000
   6.31200972  4.20210264 13.83704854
   0.00202243  6.30609139 13.84122780
   6.30532887  6.30480551 11.70615377
   0.00163970  4.20308899 11.70535672

--------------------------------------- Iteration      FINAL  ---------------------------------------

--------------------OUTCAR has been truncated-------------------------

[...]

--------------------OUTCAR has been truncated-------------------------

  Number of pair interactions contributing to vdW energy:  776608
  Edisp (eV):   -5.26911

  FORCE on cell =-STRESS in cart. coord.  units (eV):
  Direction    XX          YY          ZZ          XY          YZ          ZX
  Alpha Z   919.26093   919.26093   919.26093
  Ewald  160102.67768160093.24495************   106.92748  -126.63368  -132.36366
  Hartree170523.62574170519.54556************    46.08399   -47.66582   -49.90965
  E(xc)   -2043.09963 -2043.14180 -2045.99824     0.52653    -0.42798    -0.44998
  Local  ************************340273.85241  -150.80690   157.60862   165.05449
  n-local -1196.34602 -1196.00072 -1222.55049    -4.84709     1.55256     1.68839
  augment   903.25619   903.23171   893.88111     0.54981     0.68990     0.69890
  Kinetic  7562.34451  7562.42572  7607.32376     2.49208    14.30763    14.67081
  Fock    -2011.58627 -2011.51126 -2009.11258    -1.01237     0.48084     0.51374
  vdW        -7.66866    -7.66861    -6.35021     0.00008     0.00191     0.00130
  Total     -30.68207   -30.68730    -2.39964    -0.08640    -0.08603    -0.09565
  in kB     -32.66481   -32.67038    -2.55471    -0.09199    -0.09159    -0.10183

 VOLUME and BASIS-vectors are now :
  energy-cutoff  :      600.00
  volume of cell :     1504.93
      direct lattice vectors                 reciprocal lattice vectors
     8.404861995  0.000000000  0.000000000     0.118978753  0.000000000  0.000000000
     0.000000000  8.404861995  0.000000000     0.000000000  0.118978753  0.000000000
     0.000000000  0.000000000 21.303646496     0.000000000  0.000000000  0.046940321

  length of vectors
     8.404861995  8.404861995 21.303646496     0.118978753  0.118978753  0.046940321

 FORCES acting on ions:
    Electron-Ion                     Ewald-Force                    Non-Local-Force
   -.151E+03 -.144E+03 -.115E+04   0.176E+03 0.168E+03 0.112E+04   -.231E+02 -.221E+02 0.261E+02
   0.141E+03 0.135E+03 -.152E+04   -.176E+03 -.169E+03 0.156E+04   0.307E+02 0.293E+02 -.361E+02
   0.147E+00 0.349E-01 0.211E+04   -.146E+00 -.345E-01 -.210E+04   -.912E-03 -.287E-03 -.641E+01
   -.369E-01 0.172E+00 0.211E+04   0.370E-01 -.170E+00 -.210E+04   -.278E-04 -.158E-02 -.642E+01
   0.663E+00 0.677E+00 0.729E+03   -.643E+00 -.658E+00 -.729E+03   -.125E-01 -.112E-01 0.430E+00
   -.147E+00 0.163E+00 0.729E+03   0.153E+00 -.153E+00 -.729E+03   -.337E-02 -.582E-02 0.388E+00
   0.327E+01 0.728E+00 -.642E+03   -.325E+01 -.721E+00 0.642E+03   -.165E-01 -.602E-02 -.183E+00
   -.894E+00 0.548E+01 -.634E+03   0.885E+00 -.541E+01 0.634E+03   0.831E-02 -.673E-01 -.235E+00
   0.236E+02 0.239E+02 -.199E+04   -.237E+02 -.240E+02 0.198E+04   0.764E-01 0.698E-01 0.555E+01
   -.273E+01 0.441E+01 -.201E+04   0.273E+01 -.445E+01 0.200E+04   0.135E-02 0.358E-01 0.551E+01
   0.165E+00 -.344E-01 0.211E+04   -.163E+00 0.344E-01 -.210E+04   -.156E-02 -.713E-06 -.642E+01
   -.427E-01 -.171E+00 0.211E+04   0.429E-01 0.169E+00 -.210E+04   -.174E-03 0.126E-02 -.641E+01
   0.642E+00 -.660E+00 0.729E+03   -.632E+00 0.650E+00 -.729E+03   -.567E-02 0.644E-02 0.407E+00
   -.168E+00 -.152E+00 0.730E+03   0.168E+00 0.151E+00 -.730E+03   0.542E-03 0.692E-03 0.455E+00
   0.548E+01 -.779E+00 -.634E+03   -.540E+01 0.775E+00 0.634E+03   -.716E-01 0.384E-02 -.238E+00
   -.948E+00 -.541E+01 -.635E+03   0.954E+00 0.533E+01 0.635E+03   -.602E-02 0.670E-01 -.290E+00
   0.200E+02 -.223E+02 -.200E+04   -.200E+02 0.224E+02 0.199E+04   0.434E-01 -.599E-01 0.556E+01
   -.748E+01 -.686E+01 -.192E+04   0.750E+01 0.688E+01 0.192E+04   -.236E-01 -.728E-02 0.470E+01
   -.146E+00 0.400E-01 0.211E+04   0.145E+00 -.401E-01 -.210E+04   0.649E-03 0.618E-04 -.641E+01
   0.372E-01 0.154E+00 0.211E+04   -.368E-01 -.153E+00 -.210E+04   -.336E-03 -.930E-03 -.641E+01
   -.632E+00 0.658E+00 0.729E+03   0.622E+00 -.650E+00 -.729E+03   0.644E-02 -.502E-02 0.404E+00
   0.159E+00 0.142E+00 0.728E+03   -.157E+00 -.142E+00 -.728E+03   -.101E-02 0.130E-03 0.388E+00
   -.323E+01 0.782E+00 -.643E+03   0.322E+01 -.795E+00 0.643E+03   0.181E-01 0.119E-01 -.180E+00
   0.775E+00 0.332E+01 -.642E+03   -.772E+00 -.330E+01 0.642E+03   -.213E-02 -.183E-01 -.188E+00
   -.220E+02 0.200E+02 -.200E+04   0.221E+02 -.200E+02 0.199E+04   -.605E-01 0.345E-01 0.556E+01
   0.239E+01 0.223E+01 -.202E+04   -.240E+01 -.223E+01 0.202E+04   0.814E-02 0.246E-02 0.550E+01
   -.164E+00 -.402E-01 0.211E+04   0.162E+00 0.404E-01 -.210E+04   0.122E-02 -.152E-03 -.641E+01
   0.424E-01 -.154E+00 0.211E+04   -.424E-01 0.153E+00 -.210E+04   0.146E-04 0.728E-03 -.641E+01
   -.615E+00 -.645E+00 0.729E+03   0.610E+00 0.639E+00 -.729E+03   0.298E-02 0.353E-02 0.416E+00
   0.172E+00 -.135E+00 0.729E+03   -.162E+00 0.141E+00 -.729E+03   -.614E-02 -.344E-02 0.378E+00
   -.538E+01 -.829E+00 -.635E+03   0.531E+01 0.841E+00 0.636E+03   0.673E-01 -.106E-01 -.301E+00
   0.836E+00 -.328E+01 -.643E+03   -.852E+00 0.326E+01 0.643E+03   0.148E-01 0.175E-01 -.182E+00
   -.194E+02 -.195E+02 -.201E+04   0.195E+02 0.195E+02 0.200E+04   -.595E-01 -.529E-01 0.555E+01
   0.501E+01 -.249E+01 -.201E+04   -.504E+01 0.249E+01 0.200E+04   0.254E-01 -.320E-02 0.550E+01
   0.462E+00 0.963E-01 0.546E+03   -.465E+00 -.105E+00 -.546E+03   0.341E-02 0.102E-01 -.748E-01
   -.908E-01 0.616E+00 0.547E+03   0.890E-01 -.635E+00 -.546E+03   0.195E-02 0.223E-01 -.108E+00
   0.117E+00 0.122E+00 0.158E+04   -.115E+00 -.120E+00 -.158E+04   -.228E-02 -.234E-02 0.312E+01
   -.296E-01 0.285E-01 0.158E+04   0.298E-01 -.282E-01 -.158E+04   -.171E-03 -.365E-03 0.312E+01
   0.869E+01 0.302E+01 -.153E+04   -.864E+01 -.301E+01 0.154E+04   -.426E-01 -.971E-02 -.455E+01
   -.460E+01 0.291E+02 -.150E+04   0.458E+01 -.289E+02 0.150E+04   0.121E-01 -.156E+00 -.452E+01
   0.327E+01 0.326E+01 -.472E+03   -.326E+01 -.325E+01 0.471E+03   -.550E-02 -.428E-02 0.342E+00
   -.567E+00 0.617E+00 -.474E+03   0.570E+00 -.619E+00 0.473E+03   -.272E-02 0.188E-02 0.321E+00
   0.599E+00 -.821E-01 0.547E+03   -.620E+00 0.812E-01 -.546E+03   0.251E-01 0.858E-03 -.109E+00
   -.129E+00 -.598E+00 0.546E+03   0.124E+00 0.606E+00 -.546E+03   0.618E-02 -.101E-01 -.100E+00
   0.115E+00 -.122E+00 0.158E+04   -.114E+00 0.120E+00 -.158E+04   -.144E-02 0.266E-02 0.312E+01
   -.311E-01 -.291E-01 0.158E+04   0.306E-01 0.285E-01 -.159E+04   0.733E-03 0.741E-03 0.311E+01
   0.290E+02 -.433E+01 -.150E+04   -.289E+02 0.432E+01 0.150E+04   -.163E+00 0.964E-02 -.453E+01
   -.285E+01 -.273E+02 -.151E+04   0.286E+01 0.272E+02 0.151E+04   -.143E-01 0.141E+00 -.456E+01
   0.308E+01 -.322E+01 -.472E+03   -.307E+01 0.322E+01 0.472E+03   -.842E-02 0.370E-02 0.381E+00
   -.769E+00 -.691E+00 -.469E+03   0.777E+00 0.697E+00 0.469E+03   -.665E-02 -.615E-02 0.176E-01
   -.445E+00 0.124E+00 0.546E+03   0.439E+00 -.122E+00 -.545E+03   0.687E-02 -.179E-02 -.794E-01
   0.101E+00 0.487E+00 0.546E+03   -.111E+00 -.488E+00 -.546E+03   0.121E-01 0.565E-03 -.726E-01
   -.117E+00 0.121E+00 0.158E+04   0.115E+00 -.119E+00 -.158E+04   0.269E-02 -.161E-02 0.312E+01
   0.291E-01 0.272E-01 0.158E+04   -.295E-01 -.276E-01 -.158E+04   0.469E-03 0.527E-03 0.312E+01
   -.844E+01 0.218E+01 -.154E+04   0.840E+01 -.219E+01 0.154E+04   0.334E-01 0.895E-02 -.455E+01
   0.331E+01 0.875E+01 -.153E+04   -.330E+01 -.871E+01 0.154E+04   -.776E-02 -.392E-01 -.455E+01
   -.319E+01 0.308E+01 -.472E+03   0.319E+01 -.307E+01 0.472E+03   0.152E-03 -.881E-02 0.381E+00
   0.533E+00 0.461E+00 -.478E+03   -.534E+00 -.460E+00 0.478E+03   -.388E-03 -.524E-03 0.318E+00
   -.570E+00 -.120E+00 0.546E+03   0.580E+00 0.115E+00 -.546E+03   -.117E-01 0.528E-02 -.101E+00
   0.129E+00 -.472E+00 0.546E+03   -.129E+00 0.466E+00 -.546E+03   0.454E-04 0.743E-02 -.786E-01
   -.115E+00 -.120E+00 0.158E+04   0.114E+00 0.119E+00 -.158E+04   0.160E-02 0.168E-02 0.312E+01
   0.303E-01 -.276E-01 0.158E+04   -.300E-01 0.278E-01 -.158E+04   -.338E-03 -.294E-03 0.312E+01
   -.273E+02 -.256E+01 -.151E+04   0.271E+02 0.258E+01 0.151E+04   0.139E+00 -.163E-01 -.457E+01
   0.245E+01 -.856E+01 -.154E+04   -.247E+01 0.852E+01 0.154E+04   0.113E-01 0.354E-01 -.455E+01
   -.301E+01 -.304E+01 -.474E+03   0.300E+01 0.303E+01 0.474E+03   0.545E-02 0.103E-01 0.308E+00
   0.676E+00 -.504E+00 -.473E+03   -.679E+00 0.508E+00 0.473E+03   0.333E-02 -.418E-02 0.323E+00
   -.957E+01 -.916E+01 0.308E+02   -.334E-12 -.961E-13 -.870E-11   0.759E+01 0.726E+01 -.261E+02

 POSITION                                       TOTAL-FORCE (eV/Angst)
      4.21782      4.22747     16.38605        -0.003452     -0.003697      0.007954
      3.58299      3.61959     17.13630        -0.003585     -0.003562      0.011039
      2.10122      0.00000      7.50000         0.000274      0.000017      0.404805
      4.20243      2.10122      7.50000        -0.000109      0.000517      0.406467
      2.10122      2.10122      9.60122         0.005852      0.005360      0.033464
      4.20243      0.00000      9.60122         0.001545      0.002632      0.038528
      2.10252      0.00094     11.71267        -0.000711      0.000148     -0.012230
      4.20313      2.10424     11.71614         0.000045      0.001227     -0.007829
      2.10104      2.10104     13.79770         0.001170      0.000793     -0.005948
      4.20358      0.00061     13.79735         0.000058      0.000407     -0.003921
      2.10122      4.20243      7.50000         0.000476     -0.000098      0.406525
      4.20243      6.30365      7.50000        -0.000050     -0.000590      0.405839
      2.10122      6.30365      9.60122         0.002822     -0.003001      0.033638
      4.20243      4.20243      9.60122         0.000174      0.000080      0.044096
      2.10450      4.20299     11.71619         0.000123      0.000201     -0.007912
      4.20326      6.30218     11.71558        -0.000204     -0.001800     -0.008264
      2.10048      6.30677     13.79335         0.000343     -0.001855     -0.005032
      4.20565      4.20520     13.82768        -0.000690      0.001258     -0.006722
      6.30365      0.00000      7.50000        -0.000393     -0.000087      0.405249
      0.00000      2.10122      7.50000         0.000015      0.000310      0.404749
      6.30365      2.10122      9.60122        -0.002916      0.002552      0.033367
      0.00000      0.00000      9.60122         0.000545      0.000113      0.030037
      6.30374     -0.00004     11.71273         0.000399     -0.000445     -0.011630
      0.00108      2.10241     11.71242         0.000145     -0.001184     -0.011234
      6.30689      2.10057     13.79336        -0.000440     -0.000224     -0.004499
      0.00101      0.00083     13.79671        -0.001186     -0.000932      0.004644
      6.30365      4.20243      7.50000        -0.000595     -0.000038      0.405939
      0.00000      6.30365      7.50000        -0.000092     -0.000400      0.405282
      6.30365      6.30365      9.60122        -0.001867     -0.002118      0.032900
      0.00000      4.20243      9.60122         0.002780      0.001518      0.038030
      6.30219      4.20315     11.71559        -0.000870     -0.000147     -0.008494
      0.00011      6.30359     11.71256        -0.000565      0.000001     -0.011256
      6.30525      6.30500     13.79930        -0.000495     -0.001526     -0.004609
      0.00086      4.20335     13.79699        -0.001980      0.000175     -0.003903
      2.10122      0.00000      9.60122         0.000842      0.003182      0.050348
      4.20243      2.10122      9.60122         0.000280      0.006546      0.056795
      2.10122      2.10122      7.50000        -0.000852     -0.000849     -0.494346
      4.20243      0.00000      7.50000        -0.000144     -0.000190     -0.494367
      2.10095      0.00105     13.84250        -0.000562      0.001053      0.005373
      4.20453      2.09727     13.84599        -0.000578      0.000946      0.003301
      2.10214      2.10170     11.70819        -0.000498      0.002262      0.004511
      4.20305      0.00101     11.70672        -0.000060     -0.000230      0.005125
      2.10122      4.20243      9.60122         0.007423     -0.000035      0.056723
      4.20243      6.30365      9.60122         0.001716     -0.003066      0.057015
      2.10122      6.30365      7.50000        -0.000570      0.000824     -0.494312
      4.20243      4.20243      7.50000         0.000162      0.000184     -0.495344
      2.09710      4.20438     13.84598         0.003409     -0.000424      0.000516
      4.20195      6.31067     13.84184        -0.000449     -0.003282      0.003048
      2.10146      6.30458     11.70682        -0.000651     -0.001503      0.004704
      4.20293      4.20293     11.71245         0.000198     -0.000559      0.011315
      6.30365      0.00000      9.60122         0.001997     -0.000615      0.048980
      0.00000      2.10122      9.60122         0.003818     -0.000168      0.049869
      6.30365      2.10122      7.50000         0.000818     -0.000607     -0.494321
      0.00000      0.00000      7.50000         0.000071      0.000111     -0.493717
      6.30624      0.00084     13.84275        -0.003687     -0.000545      0.004529
      0.00125      2.10071     13.84182         0.000181      0.000699      0.007334
      6.30465      2.10111     11.70664        -0.001963      0.000837      0.006286
      0.00081      0.00052     11.70585        -0.000799      0.000396      0.011570
      6.30365      4.20243      9.60122        -0.003726      0.001455      0.056632
      0.00000      6.30365      9.60122        -0.000009      0.002329      0.048381
      6.30365      6.30365      7.50000         0.000442      0.000490     -0.494411
      0.00000      4.20243      7.50000        -0.000197     -0.000168     -0.494451
      6.31057      4.20188     13.84139         0.000719     -0.000820      0.000766
      0.00103      6.30581     13.84230        -0.001070     -0.001296      0.006400
      6.30453      6.30441     11.70756        -0.003125     -0.001642      0.007920
      0.00114      4.20295     11.70615         0.000299     -0.000920      0.008763
    total drift:                                0.006148      0.004767     -0.004314

  FREE ENERGIE OF THE ION-ELECTRON SYSTEM (eV)
  free  energy   TOTEN  =      -454.80567232 eV

  energy  without entropy=     -454.80567232  energy(sigma->0) =     -454.80567232

 d Force = 0.9141796E-05[ 0.823E-05, 0.101E-04]  d Energy = 0.8786354E-05 0.355E-06
 d Force = 0.4186756E+00[ 0.419E+00, 0.419E+00]  d Ewald  = 0.4186752E+00 0.411E-06

 Conjugate gradient step on ions:
 trial-energy change:   -0.000009  1 .order   -0.000009   -0.000010   -0.000008
  (g-gl).g = 0.779E-04      g.g   = 0.126E-03  gl.gl    = 0.854E-03
 g(Force)  = 0.126E-03   g(Stress)= 0.000E+00 ortho     = 0.246E-04
 gamma     =   0.09121
 trial     =   0.07851
 opt step  =   0.31406  (harmonic =   0.43288) maximal distance =0.00048212
 next E    =  -454.805691   (d E  =  -0.00003)

 reached required accuracy - stopping structural energy minimisation