 vasp.6.3.0 20Jan22 (build Apr  1 2022 16:44:48) complex
 executed on        HPECrayEX_GCC date 2022.11.11  14:07:47

 INCAR:
   SYSTEM = MgO-rocksalt
   ISMEAR = 0
   SIGMA = 0.05
   EDIFF = 1E-7
   ALGO = ALL
   ISTART = 0
   IBRION = 2
   NSW = 1000
   ISYM = 0
   ISIF = 2
   EDIFFG = -0.03
   DIPOL = 0.5 0.5 0.5
   IDIPOL = 3
   LDIPOL = .TRUE.
   LHFCALC = .TRUE.
   GGA = B5
   AEXX = 0.2
   AGGAX = 0.72
   AGGAC = 0.81
   ALDAC = 0.19
   IVDW = 1
   VDW_S6 = 1.05
   VDW_C6 = 1.23 0.70 0.63 0.70
   VDW_R0 = 1.397 1.342 1.243 1.342
   ENCUT = 600
   PREC = Accurate
   LASPH = .TRUE.
   LREAL = .FALSE.
   ISPIN = 2
   MAGMOM = 1.0 0.0 0.0 0.0 0.0 0.0 0.0 0.0 0.0 0.0 0.0 0.0 0.0 0.0 0.0 0.0 0.0 0.0 0.0 0.0 0.0 0.0 0.0 0.0 0.0 0.0 0.0 0.0 0.0 0.0 0.0 0.0 0.0 0.0 0.0 0.0 0.0 0.0 0.0 0.0 0.0 0.0 0.0 0.0 0.0 0.0 0.0 0.0 0.0 0.0 0.0 0.0 0.0 0.0 0.0 0.0 0.0 0.0 0.0 0.0 0.0 0.0 0.0 0.0 0.0 0.0
   NELM = 200
   NELMIN = 8
   NCORE = 8
   KPAR = 1
   LWAVE = .FALSE.
   LCHARG = .FALSE.

 POTCAR:    PAW_PBE N 08Apr2002
 POTCAR:    PAW_PBE O 08Apr2002
 POTCAR:    PAW_PBE Mg_pv 13Apr2007
 POTCAR:    PAW_PBE O 08Apr2002
 POTCAR:    PAW_PBE N 08Apr2002
   VRHFIN =N: s2p3

   TITEL  = PAW_PBE N 08Apr2002
   POMASS =   14.001; ZVAL   =    5.000    mass and valenz
   ENMAX  =  400.000; ENMIN  =  300.000 eV

[...]

   TITEL  = PAW_PBE Mg_pv 13Apr2007
   POMASS =   24.305; ZVAL   =    8.000    mass and valenz
   ENMAX  =  403.929; ENMIN  =  302.947 eV

   TITEL  = PAW_PBE O 08Apr2002
   POMASS =   16.000; ZVAL   =    6.000    mass and valenz
   ENMAX  =  400.000; ENMIN  =  300.000 eV

  PAW_PBE N 08Apr2002                   :
  PAW_PBE O 08Apr2002                   :
  PAW_PBE Mg_pv 13Apr2007               :
  PAW_PBE O 08Apr2002                   :

 POSCAR:  N  O Mg  O
  positions in direct lattice
  velocities in cartesian coordinates
 exchange correlation table for  LEXCH =       12
   RHO(1)=    0.500       N(1)  =     2000
   RHO(2)=  100.500       N(2)  =     4000

 ion  position               nearest neighbor table
   1  0.497  0.250  0.777-   2 1.16
   2  0.629  0.250  0.794-   1 1.16
   3  0.250  0.000  0.352-  37 2.10  38 2.10  45 2.10  54 2.10  35 2.10
   4  0.500  0.250  0.352-  37 2.10  38 2.10  46 2.10  53 2.10  36 2.10
   5  0.250  0.250  0.451-  35 2.10  36 2.10  43 2.10  52 2.10  37 2.10  41 2.10
   6  0.500  0.000  0.451-  42 2.10  36 2.10  35 2.10  44 2.10  51 2.10  38 2.10
   7  0.250  0.000  0.550-  41 2.10  42 2.10  58 2.10  49 2.10  35 2.11  39 2.12
   8  0.500  0.250  0.549-  41 2.10  42 2.10  50 2.10  57 2.10  36 2.10  40 2.13
   9  0.250  0.250  0.648-  41 2.09  56 2.10  39 2.10  47 2.10  40 2.11
  10  0.500  0.999  0.647-  42 2.09  48 2.10  39 2.10  55 2.10  40 2.11
  11  0.250  0.500  0.352-  37 2.10  45 2.10  46 2.10  62 2.10  43 2.10
  12  0.500  0.750  0.352-  38 2.10  45 2.10  46 2.10  61 2.10  44 2.10
  13  0.250  0.750  0.451-  49 2.10  43 2.10  44 2.10  35 2.10  60 2.10  45 2.10
  14  0.500  0.500  0.451-  50 2.10  43 2.10  44 2.10  36 2.10  59 2.10  46 2.10
  15  0.250  0.500  0.550-  41 2.10  50 2.10  66 2.10  49 2.10  43 2.11  47 2.12
  16  0.500  0.750  0.550-  49 2.10  65 2.10  42 2.10  50 2.10  44 2.11  48 2.12
  17  0.250  0.750  0.647-  49 2.09  64 2.10  39 2.10  47 2.10  48 2.10
  18  0.500  0.501  0.647-  50 2.09  48 2.10  47 2.10  63 2.10  40 2.11
  19  0.750  0.000  0.352-  38 2.10  53 2.10  54 2.10  61 2.10  51 2.10
  20  0.000  0.250  0.352-  37 2.10  53 2.10  54 2.10  62 2.10  52 2.10
  21  0.750  0.250  0.451-  57 2.10  51 2.10  52 2.10  36 2.10  59 2.10  53 2.10
  22  0.000  0.000  0.451-  58 2.10  51 2.10  52 2.10  35 2.10  60 2.10  54 2.10
  23  0.750  1.000  0.550-  65 2.10  42 2.10  58 2.10  57 2.10  51 2.11  55 2.12
  24  0.000  0.250  0.549-  58 2.10  66 2.10  41 2.10  57 2.10  52 2.10  56 2.12
  25  0.751  0.250  0.647-  57 2.08  56 2.09  55 2.10  63 2.10  40 2.11
  26  0.000  1.000  0.647-  58 2.09  64 2.10  39 2.10  55 2.10  56 2.10
  27  0.750  0.500  0.352-  46 2.10  53 2.10  61 2.10  62 2.10  59 2.10
  28  0.000  0.750  0.352-  45 2.10  54 2.10  61 2.10  62 2.10  60 2.10
  29  0.750  0.750  0.451-  65 2.10  51 2.10  59 2.10  60 2.10  44 2.10  61 2.10
  30  0.000  0.500  0.451-  66 2.10  52 2.10  59 2.10  60 2.10  43 2.10  62 2.10
  31  0.750  0.500  0.550-  65 2.10  50 2.10  66 2.10  57 2.10  59 2.11  63 2.12
  32  1.000  0.750  0.549-  58 2.10  66 2.10  49 2.10  65 2.10  60 2.10  64 2.12
  33  0.750  0.750  0.647-  65 2.09  64 2.10  55 2.10  63 2.10  48 2.10
  34  0.000  0.500  0.647-  66 2.09  64 2.10  47 2.10  63 2.10  56 2.10
  35  0.250  0.000  0.451-   5 2.10   6 2.10  13 2.10  22 2.10   3 2.10   7 2.11
  36  0.500  0.250  0.451-   5 2.10   6 2.10  14 2.10  21 2.10   4 2.10   8 2.10
  37  0.250  0.250  0.352-   3 2.10   4 2.10  11 2.10  20 2.10   5 2.10
  38  0.500  0.000  0.352-   3 2.10   4 2.10  12 2.10  19 2.10   6 2.10
  39  0.250  0.000  0.649-  10 2.10  26 2.10   9 2.10  17 2.10   7 2.12
  40  0.501  0.250  0.650-  10 2.11  18 2.11  25 2.11   9 2.11   8 2.13
  41  0.250  0.250  0.549-   9 2.09   8 2.10  15 2.10   7 2.10  24 2.10   5 2.10
  42  0.500  0.000  0.549-  10 2.09   8 2.10  23 2.10   6 2.10   7 2.10  16 2.10
  43  0.250  0.500  0.451-   5 2.10  13 2.10  14 2.10  30 2.10  11 2.10  15 2.11
  44  0.500  0.750  0.451-   6 2.10  13 2.10  14 2.10  29 2.10  12 2.10  16 2.11
  45  0.250  0.750  0.352-   3 2.10  11 2.10  12 2.10  28 2.10  13 2.10
  46  0.500  0.500  0.352-   4 2.10  11 2.10  12 2.10  27 2.10  14 2.10
  47  0.250  0.500  0.649-  18 2.10  34 2.10   9 2.10  17 2.10  15 2.12
  48  0.500  0.750  0.649-  10 2.10  18 2.10  33 2.10  17 2.10  16 2.12
  49  0.250  0.750  0.549-  17 2.09  13 2.10  16 2.10  32 2.10  15 2.10   7 2.10
  50  0.500  0.500  0.549-  18 2.09   8 2.10  31 2.10  14 2.10  15 2.10  16 2.10
  51  0.750  0.000  0.451-   6 2.10  21 2.10  22 2.10  29 2.10  19 2.10  23 2.11
  52  0.000  0.250  0.451-   5 2.10  21 2.10  22 2.10  30 2.10  20 2.10  24 2.10
  53  0.750  0.250  0.352-   4 2.10  19 2.10  20 2.10  27 2.10  21 2.10
  54  0.000  0.000  0.352-   3 2.10  19 2.10  20 2.10  28 2.10  22 2.10
  55  0.750  0.000  0.649-  25 2.10  33 2.10  26 2.10  10 2.10  23 2.12
  56  0.000  0.250  0.649-  25 2.09   9 2.10  34 2.10  26 2.10  24 2.12
  57  0.750  0.250  0.549-  25 2.08  21 2.10   8 2.10  31 2.10  23 2.10  24 2.10
  58  1.000  0.000  0.549-  26 2.09  22 2.10  24 2.10  23 2.10  32 2.10   7 2.10
  59  0.750  0.500  0.451-  14 2.10  21 2.10  29 2.10  30 2.10  27 2.10  31 2.11
  60  0.000  0.750  0.451-  13 2.10  22 2.10  29 2.10  30 2.10  28 2.10  32 2.10
  61  0.750  0.750  0.352-  12 2.10  19 2.10  27 2.10  28 2.10  29 2.10
  62  0.000  0.500  0.352-  11 2.10  20 2.10  27 2.10  28 2.10  30 2.10
  63  0.750  0.500  0.649-  25 2.10  33 2.10  34 2.10  18 2.10  31 2.12
  64  1.000  0.750  0.649-  17 2.10  26 2.10  34 2.10  33 2.10  32 2.12
  65  0.750  0.750  0.549-  33 2.09  29 2.10  31 2.10  23 2.10  16 2.10  32 2.10
  66  1.000  0.500  0.549-  34 2.09  30 2.10  24 2.10  31 2.10  32 2.10  15 2.10

IMPORTANT INFORMATION: All symmetrisations will be switched off!
NOSYMM: (Re-)initialisation of all symmetry stuff for point group C_1.

                                     Primitive cell

  volume of cell :    1504.9259

  direct lattice vectors                    reciprocal lattice vectors
     8.404861995  0.000000000  0.000000000     0.118978753  0.000000000  0.000000000
     0.000000000  8.404861995  0.000000000     0.000000000  0.118978753  0.000000000
     0.000000000  0.000000000 21.303646496     0.000000000  0.000000000  0.046940321

  length of vectors
     8.404861995  8.404861995 21.303646496     0.118978753  0.118978753  0.046940321

  position of ions in fractional coordinates (direct lattice)
     0.497145286  0.250001273  0.777449418
     0.628842090  0.250001121  0.794466761
     0.250000000  0.000000000  0.352052406
     0.500000000  0.250000000  0.352052406
     0.250000000  0.250000000  0.450684135
     0.500000000  0.000000000  0.450684135
     0.249996975  0.000077777  0.549574236
     0.499962684  0.249999958  0.549470120
     0.249546584  0.249999954  0.647634931
     0.499835232  0.999288418  0.647406130
     0.250000000  0.500000000  0.352052406
     0.500000000  0.750000000  0.352052406
     0.250000000  0.750000000  0.450684135
     0.500000000  0.500000000  0.450684135
     0.249997035  0.499922164  0.549574234
     0.499913221  0.750000006  0.549522432
     0.249768858  0.749999985  0.647247623
     0.499835222  0.500711538  0.647406043
     0.750000000  0.000000000  0.352052406
     0.000000000  0.250000000  0.352052406
     0.750000000  0.250000000  0.450684135
     0.000000000  0.000000000  0.450684135
     0.749956567  0.999928602  0.549551043
     0.000242895  0.249999922  0.549483515
     0.751357850  0.249999964  0.647008043
     0.000057079  0.999840783  0.647271215
     0.750000000  0.500000000  0.352052406
     0.000000000  0.750000000  0.352052406
     0.750000000  0.750000000  0.450684135
     0.000000000  0.500000000  0.450684135
     0.749956521  0.500071354  0.549551045
     0.999972286  0.750000059  0.549435455
     0.750086651  0.749999993  0.647278465
     0.000057085  0.500159161  0.647271226
     0.250000000  0.000000000  0.450684135
     0.500000000  0.250000000  0.450684135
     0.250000000  0.250000000  0.352052406
     0.500000000  0.000000000  0.352052406
     0.249967923  0.000000065  0.649103014
     0.500541319  0.249999920  0.649652479
     0.250291647  0.249999989  0.549336125
     0.499994513  0.000193076  0.549303855
     0.250000000  0.500000000  0.450684135
     0.500000000  0.750000000  0.450684135
     0.250000000  0.750000000  0.352052406
     0.500000000  0.500000000  0.352052406
     0.249967894  0.499999892  0.649103088
     0.499929251  0.749999998  0.649172494
     0.249998255  0.749999966  0.549187094
     0.499994508  0.499806895  0.549303869
     0.750000000  0.000000000  0.450684135
     0.000000000  0.250000000  0.450684135
     0.750000000  0.250000000  0.352052406
     0.000000000  0.000000000  0.352052406
     0.749966211  0.000085829  0.649182211
     0.000111596  0.249999978  0.649070465
     0.749888088  0.250000005  0.549235536
     0.999960570  0.000017380  0.549189503
     0.750000000  0.500000000  0.450684135
     0.000000000  0.750000000  0.450684135
     0.750000000  0.750000000  0.352052406
     0.000000000  0.500000000  0.352052406
     0.749966249  0.499914135  0.649182224
     0.999945906  0.749999985  0.649019767
     0.749909584  0.749999959  0.549207538
     0.999960583  0.499982591  0.549189537

  ion indices of the primitive-cell ions
   primitive index   ion index
                 1           1
                 2           2
                 3           3
                 4           4
                 5           5
                 6           6
                 7           7
                 8           8
                 9           9
                10          10
                11          11
                12          12
                13          13
                14          14
                15          15
                16          16
                17          17
                18          18
[...]
   6.31505904  2.10121520 13.78363063
   0.00047974  8.40352380 13.78923715
   6.30364650  4.20243100  7.50000000
   0.00000000  6.30364650  7.50000000
   6.30364650  6.30364650  9.60121550
   0.00000000  4.20243100  9.60121550
   6.30328106  4.20303072 11.70744120
   8.40462906  6.30364699 11.70497870
   6.30437479  6.30364644 13.78939161
   0.00047979  4.20376873 13.78923739
   2.10121550  0.00000000  9.60121550
   4.20243100  2.10121550  9.60121550
   2.10121550  2.10121550  7.50000000
   4.20243100  0.00000000  7.50000000
   2.10094590  0.00000054 13.82826115
   4.20698071  2.10121482 13.83996676
   2.10366675  2.10121541 11.70286261
   4.20238488  0.00162278 11.70217515
   2.10121550  4.20243100  9.60121550
   4.20243100  6.30364650  9.60121550
   2.10121550  6.30364650  7.50000000
   4.20243100  4.20243100  7.50000000
   2.10094565  4.20243009 13.82826272
   4.20183636  6.30364648 13.82974133
   2.10120083  6.30364621 11.69968771
   4.20238484  4.20080798 11.70217544
   6.30364650  0.00000000  9.60121550
   0.00000000  2.10121550  9.60121550
   6.30364650  2.10121550  7.50000000
   0.00000000  0.00000000  7.50000000
   6.30336250  0.00072138 13.82994834
   0.00093795  2.10121532 13.82756774
   6.30270590  2.10121554 11.70071970
   8.40453059  0.00014608 11.69973903
   6.30364650  4.20243100  9.60121550
   0.00000000  6.30364650  9.60121550
   6.30364650  6.30364650  7.50000000
   0.00000000  4.20243100  7.50000000
   6.30336282  4.20170931 13.82994861
   8.40440734  6.30364637 13.82648768
   6.30288656  6.30364615 11.70012325
   8.40453070  4.20228468 11.69973976

--------------------------------------- Iteration      FINAL  ---------------------------------------

--------------------OUTCAR has been truncated-------------------------

[...]

--------------------OUTCAR has been truncated-------------------------

  Number of pair interactions contributing to vdW energy:  776525
  Edisp (eV):   -5.27398

  FORCE on cell =-STRESS in cart. coord.  units (eV):
  Direction    XX          YY          ZZ          XY          YZ          ZX
  Alpha Z   919.26093   919.26093   919.26093
  Ewald  160749.16290160408.48009************    -0.00389    -0.00117   108.22045
  Hartree171002.08948170868.24205************    -0.00004    -0.00461    45.24834
  E(xc)   -2042.36360 -2043.46880 -2046.77583     0.00002    -0.00012     0.45990
  Local  ************************341267.03286     0.00081     0.01406  -146.05566
  n-local -1201.69170 -1198.21224 -1214.39614    -0.00075     0.00252    -3.31268
  augment   902.92940   904.86671   892.58982     0.00027    -0.00079     0.03559
  Kinetic  7549.18807  7588.49876  7596.37237     0.00370    -0.01019    -3.97167
  Fock    -2012.92758 -2011.81364 -2007.70383    -0.00012     0.00043    -0.73435
  vdW        -7.66987    -7.66846    -6.39043    -0.00000     0.00000    -0.00197
  Total     -30.40994   -30.43638    -0.96997    -0.00000     0.00014    -0.11204
  in kB     -32.37509   -32.40324    -1.03265    -0.00000     0.00014    -0.11928

 VOLUME and BASIS-vectors are now :
  energy-cutoff  :      600.00
  volume of cell :     1504.93
      direct lattice vectors                 reciprocal lattice vectors
     8.404861995  0.000000000  0.000000000     0.118978753  0.000000000  0.000000000
     0.000000000  8.404861995  0.000000000     0.000000000  0.118978753  0.000000000
     0.000000000  0.000000000 21.303646496     0.000000000  0.000000000  0.046940321

  length of vectors
     8.404861995  8.404861995 21.303646496     0.118978753  0.118978753  0.046940321

 FORCES acting on ions:
    Electron-Ion                     Ewald-Force                    Non-Local-Force
   0.257E+03 -.256E-02 -.119E+04   -.300E+03 0.363E-02 0.118E+04   0.398E+02 -.873E-03 0.119E+02
   -.242E+03 0.270E-02 -.150E+04   0.300E+03 -.354E-02 0.152E+04   -.516E+02 0.691E-03 -.172E+02
   0.171E+00 0.221E+00 0.211E+04   -.173E+00 -.222E+00 -.210E+04   0.681E-03 0.669E-03 -.642E+01
   0.106E+00 -.211E-04 0.211E+04   -.106E+00 0.210E-04 -.210E+04   0.244E-03 -.313E-08 -.641E+01
   0.991E+00 -.649E-04 0.731E+03   -.983E+00 0.666E-04 -.732E+03   -.523E-02 -.145E-05 0.355E+00
   0.415E+00 0.124E+01 0.732E+03   -.418E+00 -.124E+01 -.732E+03   0.177E-02 0.317E-03 0.349E+00
   0.387E+01 0.428E+01 -.641E+03   -.387E+01 -.426E+01 0.641E+03   -.185E-02 -.144E-01 -.304E+00
   0.239E+01 -.583E-03 -.629E+03   -.243E+01 0.552E-03 0.629E+03   0.375E-01 0.269E-04 0.131E+00
   0.283E+02 -.564E-04 -.199E+04   -.287E+02 0.371E-04 0.199E+04   0.333E+00 0.104E-04 0.560E+01
   0.830E+01 0.336E+02 -.198E+04   -.834E+01 -.339E+02 0.198E+04   0.328E-01 0.295E+00 0.560E+01
   0.171E+00 -.221E+00 0.211E+04   -.173E+00 0.222E+00 -.210E+04   0.682E-03 -.669E-03 -.642E+01
   0.888E-01 0.208E-04 0.211E+04   -.891E-01 -.210E-04 -.210E+04   0.194E-03 0.108E-06 -.641E+01
   0.586E+00 0.656E-04 0.730E+03   -.589E+00 -.685E-04 -.730E+03   0.187E-02 0.195E-05 0.296E+00
   0.415E+00 -.124E+01 0.732E+03   -.418E+00 0.124E+01 -.732E+03   0.177E-02 -.313E-03 0.349E+00
   0.387E+01 -.428E+01 -.641E+03   -.387E+01 0.426E+01 0.641E+03   -.185E-02 0.144E-01 -.304E+00
   0.117E+01 0.496E-03 -.641E+03   -.118E+01 -.489E-03 0.641E+03   0.856E-02 -.126E-04 -.229E+00
   0.977E+01 -.368E-04 -.202E+04   -.982E+01 0.402E-04 0.202E+04   0.481E-01 0.112E-05 0.556E+01
   0.830E+01 -.336E+02 -.198E+04   -.834E+01 0.339E+02 0.198E+04   0.328E-01 -.295E+00 0.560E+01
   -.172E+00 0.237E+00 0.211E+04   0.173E+00 -.239E+00 -.210E+04   -.580E-03 0.102E-02 -.641E+01
   -.104E+00 -.105E-04 0.211E+04   0.105E+00 0.106E-04 -.210E+04   -.632E-03 -.181E-06 -.641E+01
   -.997E+00 -.758E-04 0.733E+03   0.100E+01 0.769E-04 -.733E+03   -.177E-02 -.365E-06 0.333E+00
   -.409E+00 0.828E+00 0.731E+03   0.409E+00 -.833E+00 -.731E+03   -.652E-04 0.324E-02 0.298E+00
   -.391E+01 0.539E+01 -.637E+03   0.391E+01 -.541E+01 0.638E+03   0.135E-02 0.210E-01 -.252E+00
   -.230E+01 -.689E-05 -.638E+03   0.235E+01 0.243E-05 0.639E+03   -.428E-01 0.231E-05 -.246E+00
   -.322E+02 0.253E-03 -.196E+04   0.326E+02 -.254E-03 0.195E+04   -.393E+00 -.705E-05 0.569E+01
   -.677E+01 0.134E+02 -.202E+04   0.680E+01 -.134E+02 0.201E+04   -.291E-01 0.476E-01 0.556E+01
   -.172E+00 -.237E+00 0.211E+04   0.173E+00 0.239E+00 -.210E+04   -.580E-03 -.102E-02 -.641E+01
   -.891E-01 0.106E-04 0.211E+04   0.892E-01 -.107E-04 -.210E+04   -.463E-04 0.107E-06 -.641E+01
   -.589E+00 0.770E-04 0.731E+03   0.588E+00 -.784E-04 -.731E+03   0.536E-03 0.572E-06 0.310E+00
   -.409E+00 -.828E+00 0.731E+03   0.409E+00 0.833E+00 -.731E+03   -.668E-04 -.324E-02 0.298E+00
   -.391E+01 -.539E+01 -.637E+03   0.391E+01 0.541E+01 0.638E+03   0.135E-02 -.210E-01 -.252E+00
   -.116E+01 0.251E-04 -.645E+03   0.117E+01 -.209E-04 0.646E+03   -.106E-01 -.281E-05 -.235E+00
   -.101E+02 -.351E-03 -.202E+04   0.102E+02 0.339E-03 0.201E+04   -.496E-01 0.163E-04 0.557E+01
   -.677E+01 -.134E+02 -.202E+04   0.680E+01 0.134E+02 0.201E+04   -.291E-01 -.476E-01 0.556E+01
   0.530E+00 0.670E+00 0.548E+03   -.536E+00 -.682E+00 -.547E+03   0.805E-02 0.141E-01 -.808E-01
   0.351E+00 -.101E-03 0.550E+03   -.352E+00 0.105E-03 -.550E+03   0.684E-03 -.477E-05 -.431E-01
   0.147E+00 -.110E-04 0.158E+04   -.148E+00 0.112E-04 -.159E+04   0.112E-02 -.618E-06 0.312E+01
   0.733E-01 0.191E+00 0.158E+04   -.736E-01 -.192E+00 -.159E+04   0.322E-03 0.130E-02 0.312E+01
   0.141E+02 0.143E+02 -.153E+04   -.141E+02 -.143E+02 0.153E+04   0.116E-02 -.117E-01 -.460E+01
   0.120E+02 -.483E-03 -.146E+04   -.120E+02 0.648E-03 0.147E+04   0.101E-01 -.161E-03 -.433E+01
   0.363E+01 -.102E-03 -.474E+03   -.365E+01 0.100E-03 0.473E+03   0.147E-01 0.187E-05 0.181E+00
   0.132E+01 0.440E+01 -.472E+03   -.132E+01 -.442E+01 0.471E+03   0.194E-02 0.164E-01 0.242E+00
   0.530E+00 -.670E+00 0.548E+03   -.536E+00 0.682E+00 -.547E+03   0.805E-02 -.141E-01 -.808E-01
   0.235E+00 0.983E-04 0.548E+03   -.235E+00 -.967E-04 -.548E+03   -.755E-03 -.228E-05 -.566E-01
   0.113E+00 0.113E-04 0.158E+04   -.114E+00 -.114E-04 -.159E+04   0.111E-02 0.357E-06 0.312E+01
   0.733E-01 -.191E+00 0.158E+04   -.736E-01 0.192E+00 -.159E+04   0.322E-03 -.130E-02 0.312E+01
   0.141E+02 -.143E+02 -.153E+04   -.141E+02 0.143E+02 0.153E+04   0.117E-02 0.117E-01 -.460E+01
   0.319E+01 0.343E-03 -.153E+04   -.320E+01 -.366E-03 0.154E+04   0.701E-02 0.129E-04 -.457E+01
   0.220E+01 0.112E-03 -.478E+03   -.222E+01 -.115E-03 0.477E+03   0.151E-01 0.292E-05 0.251E+00
   0.132E+01 -.440E+01 -.472E+03   -.132E+01 0.442E+01 0.471E+03   0.194E-02 -.164E-01 0.242E+00
   -.539E+00 0.761E+00 0.548E+03   0.549E+00 -.764E+00 -.548E+03   -.122E-01 0.360E-02 -.747E-01
   -.322E+00 -.244E-04 0.548E+03   0.308E+00 0.251E-04 -.548E+03   0.156E-01 -.946E-06 -.498E-01
   -.148E+00 -.122E-04 0.158E+04   0.149E+00 0.121E-04 -.159E+04   -.570E-03 -.154E-06 0.312E+01
   -.728E-01 0.156E+00 0.158E+04   0.732E-01 -.158E+00 -.159E+04   -.489E-03 0.167E-02 0.312E+01
   -.152E+02 0.213E+02 -.152E+04   0.151E+02 -.213E+02 0.152E+04   0.226E-01 0.438E-02 -.460E+01
   -.905E+01 0.539E-04 -.153E+04   0.914E+01 -.595E-04 0.153E+04   -.775E-01 0.977E-05 -.458E+01
   -.370E+01 -.418E-04 -.467E+03   0.372E+01 0.395E-04 0.467E+03   -.147E-01 0.292E-05 0.337E+00
   -.125E+01 0.287E+01 -.476E+03   0.125E+01 -.287E+01 0.476E+03   0.351E-02 0.443E-02 0.239E+00
   -.539E+00 -.761E+00 0.548E+03   0.549E+00 0.764E+00 -.548E+03   -.122E-01 -.360E-02 -.747E-01
   -.246E+00 0.239E-04 0.547E+03   0.250E+00 -.234E-04 -.547E+03   -.523E-02 -.706E-06 -.608E-01
   -.113E+00 0.123E-04 0.158E+04   0.114E+00 -.122E-04 -.159E+04   -.129E-02 0.267E-06 0.312E+01
   -.728E-01 -.156E+00 0.158E+04   0.732E-01 0.158E+00 -.159E+04   -.489E-03 -.167E-02 0.312E+01
   -.152E+02 -.213E+02 -.152E+04   0.151E+02 0.213E+02 0.152E+04   0.226E-01 -.440E-02 -.460E+01
   -.293E+01 0.238E-05 -.154E+04   0.292E+01 -.175E-05 0.154E+04   0.866E-02 -.528E-05 -.454E+01
   -.218E+01 0.517E-04 -.476E+03   0.219E+01 -.563E-04 0.476E+03   -.290E-02 0.455E-05 0.245E+00
   -.125E+01 -.287E+01 -.476E+03   0.125E+01 0.287E+01 0.476E+03   0.351E-02 -.443E-02 0.239E+00
   0.151E+02 0.457E-03 0.243E+02   0.156E-12 -.118E-12 -.603E-11   -.118E+02 -.454E-03 -.209E+02

 POSITION                                       TOTAL-FORCE (eV/Angst)
      4.17917      2.10123     16.56334        -0.026888      0.000121      0.004340
      5.28328      2.10122     16.92484        -0.001157     -0.000058      0.009804
      2.10122      0.00000      7.50000        -0.000239     -0.000294      0.406590
      4.20243      2.10122      7.50000        -0.000028      0.000000      0.404824
      2.10122      2.10122      9.60122         0.002020      0.000000      0.013795
      4.20243      0.00000      9.60122        -0.000977     -0.000988      0.014742
      2.10109      0.00049     11.70821         0.001019      0.000080      0.011207
      4.20207      2.10121     11.70529         0.000059     -0.000001      0.007378
      2.09725      2.10122     13.79731         0.002566     -0.000008      0.014119
      4.20100      8.39867     13.79238         0.001075      0.001225      0.013527
      2.10122      4.20243      7.50000        -0.000239      0.000295      0.406590
      4.20243      6.30365      7.50000        -0.000043      0.000000      0.405587
      2.10122      6.30365      9.60122        -0.000903     -0.000001      0.015508
      4.20243      4.20243      9.60122        -0.000977      0.000987      0.014744
      2.10109      4.20194     11.70821         0.001025     -0.000078      0.011204
      4.20176      6.30365     11.70697         0.001851     -0.000006      0.010210
      2.09927      6.30365     13.78929         0.003387      0.000005      0.019072
      4.20100      4.20862     13.79239         0.001073     -0.001241      0.013550
      6.30365      0.00000      7.50000         0.000267     -0.000356      0.406328
      0.00000      2.10122      7.50000         0.000202      0.000000      0.405256
      6.30365      2.10122      9.60122         0.002235      0.000001      0.012887
      0.00000      0.00000      9.60122        -0.000117     -0.001262      0.014142
      6.30340      8.40420     11.70760        -0.000314      0.000848      0.010824
      0.00210      2.10122     11.70622         0.000601     -0.000002      0.010371
      6.31538      2.10122     13.78383        -0.000521     -0.000009      0.012706
      0.00054      8.40345     13.78977        -0.000005      0.001793      0.018470
      6.30365      4.20243      7.50000         0.000267      0.000356      0.406329
      0.00000      6.30365      7.50000         0.000067      0.000000      0.406598
      6.30365      6.30365      9.60122        -0.000463     -0.000000      0.012770
      0.00000      4.20243      9.60122        -0.000117      0.001262      0.014143
      6.30340      4.20310     11.70760        -0.000320     -0.000845      0.010814
      8.40476      6.30365     11.70568         0.000828      0.000002      0.014071
      6.30459      6.30365     13.78988        -0.000526      0.000007      0.017636
      0.00054      4.20384     13.78977        -0.000000     -0.001791      0.018466
      2.10122      0.00000      9.60122         0.003101      0.004766      0.023002
      4.20243      2.10122      9.60122         0.000482     -0.000001      0.020472
      2.10122      2.10122      7.50000         0.000399     -0.000000     -0.493907
      4.20243      0.00000      7.50000         0.000133      0.000423     -0.493744
      2.10128      0.00021     13.82959         0.001849      0.000269      0.016813
      4.20717      2.10121     13.84095         0.001303     -0.000017      0.010734
      2.10365      2.10122     11.70342        -0.001341      0.000001      0.004363
      4.20247      0.00163     11.70286         0.000534     -0.001320      0.004647
      2.10122      4.20243      9.60122         0.003101     -0.004766      0.023002
      4.20243      6.30365      9.60122         0.000115     -0.000001      0.025510
      2.10122      6.30365      7.50000         0.000388      0.000001     -0.494733
      4.20243      4.20243      7.50000         0.000133     -0.000423     -0.493745
      2.10128      4.20222     13.82959         0.001857     -0.000277      0.016808
      4.20206      6.30365     13.83104         0.002494     -0.000008      0.016907
      2.10148      6.30365     11.70028         0.000909      0.000001      0.008592
      4.20247      4.20080     11.70286         0.000535      0.001310      0.004665
      6.30365      0.00000      9.60122        -0.004275      0.001722      0.021734
      0.00000      2.10122      9.60122         0.004359     -0.000000      0.023893
      6.30365      2.10122      7.50000        -0.000151     -0.000000     -0.493593
      0.00000      0.00000      7.50000        -0.000141      0.000555     -0.494440
      6.30305      0.00104     13.83122        -0.000447      0.001657      0.015997
      0.00093      2.10121     13.82890         0.001319      0.000006      0.017433
      6.30268      2.10122     11.70139         0.001677      0.000001      0.004034
      8.40452      0.00036     11.70029         0.000697     -0.000163      0.008030
      6.30365      4.20243      9.60122        -0.004274     -0.001722      0.021736
      0.00000      6.30365      9.60122        -0.001760     -0.000000      0.016564
      6.30365      6.30365      7.50000        -0.000401      0.000001     -0.494546
      0.00000      4.20243      7.50000        -0.000141     -0.000554     -0.494442
      6.30305      4.20139     13.83122        -0.000457     -0.001661      0.015989
      8.40440      6.30365     13.82856         0.000960     -0.000005      0.028010
      6.30274      6.30365     11.70071         0.001643      0.000001      0.007583
      8.40452      4.20207     11.70029         0.000696      0.000163      0.008029
    total drift:                               -0.001696     -0.000015     -0.009950

  FREE ENERGIE OF THE ION-ELECTRON SYSTEM (eV)
  free  energy   TOTEN  =      -454.76863206 eV

  energy  without entropy=     -454.76863206  energy(sigma->0) =     -454.76863206

 d Force = 0.3641509E-03[ 0.292E-03, 0.436E-03]  d Energy = 0.3626667E-03 0.148E-05
 d Force = 0.2416675E+02[ 0.242E+02, 0.242E+02]  d Ewald  = 0.2416675E+02 0.101E-06

 Conjugate gradient step on ions:
 trial-energy change:   -0.000363  1 .order   -0.000364   -0.000436   -0.000292
  (g-gl).g = 0.558E-03      g.g   = 0.532E-03  gl.gl    = 0.881E-02
 g(Force)  = 0.532E-03   g(Stress)= 0.000E+00 ortho     =-0.256E-04
 gamma     =   0.06331
 trial     =   0.82140
 opt step  =   2.98350  (harmonic =   2.49595) maximal distance =0.00666715
 next E    =  -454.768990   (d E  =  -0.00072)

 reached required accuracy - stopping structural energy minimisation