 vasp.6.3.0 20Jan22 (build Mar 11 2022 13:48:16) complex

 executed on             LinuxIFC date 2024.02.15  15:26:41

 INCAR:
   SYSTEM = Oxide-Surface
   ISMEAR = 0
   SIGMA = 0.05
   EDIFF = 1E-5
   ALGO = ALL
   ISTART = 0
   IBRION = -1
   NSW = 0
   ISYM = 2
   DIPOL = 0.5 0.5 0.5
   IDIPOL = 3
   LDIPOL = .TRUE.
   GGA = PE
   IVDW = 263
   ENCUT = 600
   PREC = Accurate
   LASPH = .TRUE.
   LREAL = .FALSE.
   ISPIN = 1
   NELM = 200
   NELMIN = 8
   NCORE = 19
   KPAR = 1
   LWAVE = .FALSE.
   LCHARG = .FALSE.

 POTCAR:    PAW_PBE C 08Apr2002
 POTCAR:    PAW_PBE O 08Apr2002
 POTCAR:    PAW_PBE Ti_pv 07Sep2000
 POTCAR:    PAW_PBE O 08Apr2002
 POTCAR:    PAW_PBE C 08Apr2002
   VRHFIN =C: s2p2

   TITEL  = PAW_PBE C 08Apr2002
   POMASS =   12.011; ZVAL   =    4.000    mass and valenz
   ENMAX  =  400.000; ENMIN  =  300.000 eV

[...]

   TITEL  = PAW_PBE Ti_pv 07Sep2000
   POMASS =   47.880; ZVAL   =   10.000    mass and valenz
   ENMAX  =  222.335; ENMIN  =  166.751 eV

   TITEL  = PAW_PBE O 08Apr2002
   POMASS =   16.000; ZVAL   =    6.000    mass and valenz
   ENMAX  =  400.000; ENMIN  =  300.000 eV

  PAW_PBE C 08Apr2002                   :
  PAW_PBE O 08Apr2002                   :
  PAW_PBE Ti_pv 07Sep2000               :
  PAW_PBE O 08Apr2002                   :

 POSCAR:  C  O Ti  O
  positions in direct lattice
 exchange correlation table for  LEXCH =        8
   RHO(1)=    0.500       N(1)  =     2000
   RHO(2)=  100.500       N(2)  =     4000

 ion  position               nearest neighbor table
   1  0.421  0.500  0.818-   2 1.17   3 1.19
   2  0.360  0.500  0.847-   1 1.17
   3  0.486  0.500  0.791-   1 1.19  83 2.50
   4  0.750  0.625  0.287-  85 1.95 145 1.95 144 1.95  84 1.95  87 1.98 166 1.98  14 2.96  34 2.96

   5  0.000  0.750  0.287-  86 1.95  87 1.95 106 1.95 107 1.95  88 1.98  35 2.96  15 2.96
   6  0.000  0.625  0.394-  88 1.95 148 1.95  89 1.95 149 1.95  90 1.98  91 1.98  16 2.96  36 2.96

[...]

  84  0.750  0.750  0.245-   4 1.95  14 1.95
  85  0.750  0.750  0.329-   4 1.95  14 1.95   7 1.98
  86  0.098  0.625  0.287-   5 1.95  35 1.95  44 1.98
  87  0.902  0.625  0.287-   5 1.95  35 1.95   4 1.98
  88  0.000  0.750  0.352-   6 1.95  16 1.95   5 1.98
  89  0.000  0.750  0.435-   6 1.95  16 1.95   9 1.98
  90  0.848  0.625  0.394-   7 1.95  37 1.95   6 1.98
  91  0.152  0.625  0.394-  47 1.95  77 1.95   6 1.98
  92  0.750  0.750  0.458-   8 1.95  18 1.95   7 1.98
  93  0.750  0.750  0.542-   8 1.95  18 1.95  11 2.11
  94  0.098  0.625  0.500-   9 1.95  39 1.95  48 1.98
  95  0.902  0.625  0.500-   9 1.95  39 1.95   8 1.98
  96  1.000  0.750  0.565-  20 1.89  10 1.90   9 2.00
  97  0.000  0.750  0.649-  13 1.81  10 2.02  20 2.02
  98  0.850  0.625  0.607-  10 1.95  11 1.97  41 1.97
  99  0.150  0.625  0.607-  10 1.95  51 1.97  81 1.97
 100  0.750  0.750  0.672-  11 1.86  22 2.10  12 2.10
 101  0.750  0.750  0.756-  12 1.83  22 1.83
 102  0.094  0.625  0.719-  43 1.95  13 1.95  52 2.02
 103  0.906  0.625  0.719-  43 1.94  13 1.95  12 2.03
 104  0.750  0.000  0.245-  14 1.95  24 1.95
 105  0.750  0.000  0.329-  14 1.95  24 1.95  17 1.98
 106  0.098  0.875  0.287-   5 1.95  15 1.95  54 1.98
 107  0.902  0.875  0.287-   5 1.95  15 1.95  14 1.98
 108  0.000  0.000  0.352-  16 1.95  26 1.95  15 1.98
 109  0.000  0.000  0.435-  16 1.95  26 1.95  19 1.98
 110  0.848  0.875  0.394-   7 1.95  17 1.95  16 1.98
 111  0.152  0.875  0.394-  47 1.95  57 1.95  16 1.98
 112  0.750  0.000  0.458-  18 1.95  28 1.95  17 1.98
 113  0.750  0.000  0.542-  18 1.95  28 1.95  21 2.11
 114  0.098  0.875  0.500-   9 1.95  19 1.95  58 1.98
 115  0.902  0.875  0.500-   9 1.95  19 1.95  18 1.98
 116  1.000  0.000  0.565-  30 1.90  20 1.90  19 2.00
 117  0.000  0.000  0.649-  23 1.81  30 2.02  20 2.02
 118  0.850  0.875  0.607-  20 1.95  21 1.97  11 1.98
 119  0.150  0.875  0.607-  20 1.95  61 1.97  51 1.97
 120  0.750  0.000  0.672-  21 1.86  32 2.10  22 2.10
 121  0.750  0.000  0.756-  32 1.83  22 1.83
 122  0.094  0.875  0.719-  13 1.95  23 1.95  62 2.03
 123  0.906  0.875  0.719-  13 1.94  23 1.95  22 2.03
 124  0.750  0.250  0.245-  24 1.95  34 1.95
 125  0.750  0.250  0.329-  24 1.95  34 1.95  27 1.98
 126  0.098  0.125  0.287-  15 1.95  25 1.95  64 1.98
 127  0.902  0.125  0.287-  15 1.95  25 1.95  24 1.98
 128  0.000  0.250  0.352-  26 1.95  36 1.95  25 1.98
 129  0.000  0.250  0.435-  26 1.95  36 1.95  29 1.98
 130  0.848  0.125  0.394-  17 1.95  27 1.95  26 1.98
 131  0.152  0.125  0.394-  57 1.95  67 1.95  26 1.98
 132  0.750  0.250  0.458-  28 1.95  38 1.95  27 1.98
 133  0.750  0.250  0.542-  28 1.95  38 1.95  31 2.11
 134  0.098  0.125  0.500-  19 1.95  29 1.95  68 1.98
 135  0.902  0.125  0.500-  19 1.95  29 1.95  28 1.98
 136  1.000  0.250  0.565-  30 1.89  40 1.90  29 2.00
 137  0.000  0.250  0.649-  33 1.81  40 2.02  30 2.02
 138  0.850  0.125  0.607-  30 1.95  21 1.97  31 1.98
 139  0.150  0.125  0.607-  30 1.95  61 1.97  71 1.97
 140  0.750  0.250  0.672-  31 1.86  32 2.10  42 2.10
 141  0.750  0.250  0.756-  42 1.83  32 1.83
 142  0.094  0.125  0.719-  33 1.95  23 1.95  72 2.03
 143  0.906  0.125  0.719-  33 1.94  23 1.95  32 2.03
[...]
 229  0.500  0.500  0.435-  46 1.95  76 1.95  79 1.98
 230  0.348  0.375  0.394-  67 1.95  77 1.95  76 1.98
 231  0.652  0.375  0.394-  27 1.95  37 1.95  76 1.98
 232  0.250  0.500  0.458-  48 1.95  78 1.95  77 1.98
 233  0.250  0.500  0.542-  48 1.95  78 1.95  81 2.10
 234  0.598  0.375  0.500-  69 1.95  79 1.95  38 1.98
 235  0.402  0.375  0.500-  69 1.95  79 1.95  78 1.98
 236  0.500  0.500  0.566-  50 1.90  80 1.90  79 2.00
 237  0.500  0.500  0.650-  83 1.83  80 2.01  50 2.01
 238  0.350  0.375  0.607-  80 1.95  81 1.97  71 1.97
 239  0.650  0.375  0.607-  80 1.95  31 1.97  41 1.97
 240  0.248  0.500  0.671-  81 1.86  82 2.10  52 2.10
 241  0.253  0.500  0.756-  52 1.84  82 1.84
 242  0.594  0.374  0.718-  73 1.94  83 1.95  42 2.02
 243  0.405  0.373  0.717-  73 1.93  83 1.95  82 2.03

  LATTYP: Found a simple orthorhombic cell.
 ALAT       =    11.8303781148
 B/A-ratio  =     1.0992024327
 C/A-ratio  =     2.5825673970

  Lattice vectors:

 A1 = (   0.0000000000, -11.8303781148,   0.0000000000)
 A2 = (  13.0039804036,   0.0000000000,   0.0000000000)
 A3 = (   0.0000000000,   0.0000000000,  30.5527488131)

Analysis of symmetry for initial positions (statically):
 Subroutine PRICEL returns:
 Original cell was already a primitive cell.

 Routine SETGRP: Setting up the symmetry group for a
 simple orthorhombic supercell.

 Subroutine GETGRP returns: Found  2 space group operations
 (whereof  2 operations were pure point group operations)
 out of a pool of  8 trial point group operations.

The static configuration has the point symmetry C_1h.

Analysis of symmetry for dynamics (positions and initial velocities):
 Subroutine PRICEL returns:
 Original cell was already a primitive cell.

[...]

The dynamic configuration has the point symmetry C_1h.

Analysis of constrained symmetry for selective dynamics:
 Subroutine PRICEL returns:
 Original cell was already a primitive cell.

 Routine SETGRP: Setting up the symmetry group for a
 simple orthorhombic supercell.

 Subroutine GETGRP returns: Found  2 space group operations
 (whereof  2 operations were pure point group operations)
 out of a pool of  8 trial point group operations.

The constrained configuration has the point symmetry C_1h.

 Subroutine INISYM returns: Found  2 space group operations
 (whereof  2 operations are pure point group operations),
 and found     1 'primitive' translations

                                     Primitive cell

  volume of cell :    4700.2961

  direct lattice vectors                    reciprocal lattice vectors
    13.003980404  0.000000000  0.000000000     0.076899531  0.000000000  0.000000000
     0.000000000 11.830378115  0.000000000     0.000000000  0.084528152  0.000000000
     0.000000000  0.000000000 30.552748813     0.000000000  0.000000000  0.032730279

  length of vectors
    13.003980404 11.830378115 30.552748813     0.076899531  0.084528152  0.032730279

  position of ions in fractional coordinates (direct lattice)
     0.421224201  0.499999963  0.818387433
     0.360265699  0.499999957  0.846570376
     0.486261671  0.499999960  0.791204282
     0.750000000  0.625000000  0.287188045
     0.000000000  0.750000000  0.287188045
     0.000000000  0.625000000  0.393594023
     0.750000000  0.750000000  0.393594023
     0.750000000  0.625000000  0.500000000
     0.000000000  0.750000000  0.500000000
     0.000030263  0.625021955  0.604127154
     0.750032362  0.749971388  0.610746625
     0.749731784  0.625029289  0.720403779
     0.999935195  0.750136607  0.708197468
     0.750000000  0.875000000  0.287188045
     0.000000000  0.000000000  0.287188045
     0.000000000  0.875000000  0.393594023
     0.750000000  0.000000000  0.393594023
     0.750000000  0.875000000  0.500000000
     0.000000000  0.000000000  0.500000000
     0.999920704  0.875024125  0.604160308
     0.749949659  0.000000003  0.610754269
     0.749816754  0.875046716  0.720461943
     0.000203576  0.000000001  0.708205577
     0.750000000  0.125000000  0.287188045
     0.000000000  0.250000000  0.287188045
     0.000000000  0.125000000  0.393594023
     0.750000000  0.250000000  0.393594023
     0.750000000  0.125000000  0.500000000
     0.000000000  0.250000000  0.500000000
     0.999920802  0.124975870  0.604160311
     0.750032509  0.250028638  0.610746624
     0.749816769  0.124953279  0.720461940
     0.999935200  0.249863407  0.708197468
     0.750000000  0.375000000  0.287188045
     0.000000000  0.500000000  0.287188045
     0.000000000  0.375000000  0.393594023
     0.750000000  0.500000000  0.393594023
     0.750000000  0.375000000  0.500000000
     0.000000000  0.500000000  0.500000000
     0.000030398  0.374978044  0.604127149
     0.750097307  0.500000000  0.610773780
     0.749731785  0.374970706  0.720403779
     0.999542300  0.500000003  0.708167157
     0.250000000  0.625000000  0.287188045
     0.500000000  0.750000000  0.287188045
     0.500000000  0.625000000  0.393594023
     0.250000000  0.750000000  0.393594023
     0.250000000  0.625000000  0.500000000
     0.500000000  0.750000000  0.500000000
     0.500031638  0.624340840  0.604661207
     0.249948918  0.750119636  0.610607905
     0.249451412  0.625320990  0.719923266
     0.500143258  0.750053202  0.707770089
     0.250000000  0.875000000  0.287188045
     0.500000000  0.000000000  0.287188045
     0.500000000  0.875000000  0.393594023
     0.250000000  0.000000000  0.393594023
     0.250000000  0.875000000  0.500000000
     0.500000000  0.000000000  0.500000000
     0.500105643  0.874698160  0.603798456
[...]
     0.500000000  0.500000000  0.435304973
     0.347999548  0.375000000  0.393594023
     0.652000452  0.375000000  0.393594023
     0.250000000  0.500000000  0.458289049
     0.250000000  0.500000000  0.541710951
     0.597999548  0.375000000  0.500000000
     0.402000452  0.375000000  0.500000000
     0.499960000  0.499999985  0.565548941
     0.500123817  0.500000009  0.649640772
     0.350033276  0.375003247  0.607321440
     0.649948086  0.375040970  0.607276350
[...]
   O          19.899          3.263          5.546          2.469          2.402          1.037
   O          20.107          3.268          5.574          2.460          2.377          1.042
   O          20.205          3.271          5.587          2.559          2.676          1.044
   O          20.201          3.271          5.586          2.560          2.680          1.044
   O          20.476          3.278          5.624          2.537          2.607          1.051
   O          19.363          3.250          5.480          2.688          3.100          1.027
   O          19.917          3.263          5.547          2.653          2.983          1.037
   O          20.031          3.266          5.562          2.645          2.953          1.039

  vdW correction parametrized for the method pbe

  IVDW = 263
  VDW_RADIUS =    50.000 A
  VDW_SR =     0.830
  VDW_D =     6.000
  SCSRAD =   120.000 A
  LVDWSCS = T
  LSCSGRAD = T
  LSCALER0 = T
  ITIM =  1
  Edisp (eV):  -67.15273

  FORCE on cell =-STRESS in cart. coord.  units (eV):
  Direction    XX          YY          ZZ          XY          YZ          ZX
  Alpha Z  4721.77504  4721.77504  4721.77504
  Ewald  968829.51579986004.11715************    -0.00005    -0.00017  -288.13657
  Hartree************************************    -0.00002    -0.00005   -95.19889
  E(xc)   -8668.59204 -8651.56127 -8677.79015     0.00000     0.00000    -1.00233
  Local  ************************************     0.00007     0.00019   346.94571
  n-local -5451.46430 -5373.75896 -5497.69784    -0.03249     0.00008     2.87765
  augment  5232.51611  5215.32445  5235.77897     0.00000     0.00000     1.42913
  Kinetic 28929.19326 28490.49421 28975.48778     0.12092    -0.00011    33.37170
  Fock        0.00000     0.00000     0.00000     0.00000     0.00000     0.00000
  vdW      -102.67931  -100.47316   -87.06877     0.00783     0.00015    -0.03226
  Total     -14.10694   -62.22325   -50.44318     0.00000     0.00000     0.25413
  in kB      -4.80860   -21.20987   -17.19443     0.00000     0.00000     0.08663

 VOLUME and BASIS-vectors are now :
  energy-cutoff  :      600.00
  volume of cell :     4700.30
      direct lattice vectors                 reciprocal lattice vectors
    13.003980404  0.000000000  0.000000000     0.076899531  0.000000000  0.000000000
     0.000000000 11.830378115  0.000000000     0.000000000  0.084528152  0.000000000
     0.000000000  0.000000000 30.552748813     0.000000000  0.000000000  0.032730279

  length of vectors
    13.003980404 11.830378115 30.552748813     0.076899531  0.084528152  0.032730279

 FORCES acting on ions:
    Electron-Ion                     Ewald-Force                    Non-Local-Force
   -.200E+02 0.315E-03 -.148E+04   0.191E+02 0.192E-04 0.148E+04   0.837E+00 -.180E-22 0.141E+00
   0.166E+03 0.791E-03 -.212E+04   -.211E+03 -.205E-04 0.217E+04   0.448E+02 0.347E-20 -.475E+02
   -.202E+03 0.729E-03 -.232E+04   0.246E+03 -.116E-04 0.228E+04   -.445E+02 0.124E-20 0.385E+02
   -.216E+00 -.803E-01 0.379E+04   0.215E+00 0.804E-01 -.380E+04   0.170E-03 -.631E-05 0.437E+00
   0.143E+00 -.117E+00 0.397E+04   -.143E+00 0.117E+00 -.397E+04   0.109E-03 -.108E-04 -.389E+01
   0.212E+00 -.120E+00 0.194E+04   -.215E+00 0.120E+00 -.194E+04   0.483E-03 0.259E-04 -.439E-01
   -.315E+00 -.118E+00 0.193E+04   0.313E+00 0.118E+00 -.193E+04   0.446E-03 -.594E-04 0.202E+00
   -.119E+01 -.428E+00 0.125E+02   0.118E+01 0.427E+00 -.117E+02   0.215E-02 0.189E-03 -.139E+00
   0.844E+00 -.890E+00 0.235E+02   -.852E+00 0.895E+00 -.246E+02   0.198E-02 -.172E-02 0.349E+00
   0.415E+01 -.268E+01 -.185E+04   -.415E+01 0.269E+01 0.185E+04   0.795E-04 -.337E-02 0.115E-01
   -.806E+01 -.579E+01 -.191E+04   0.806E+01 0.579E+01 0.191E+04   -.255E-02 -.205E-02 -.454E-01
   -.497E+02 -.200E+02 -.373E+04   0.497E+02 0.201E+02 0.373E+04   0.171E-01 -.100E-01 -.172E+00
   0.939E+01 -.103E+02 -.376E+04   -.940E+01 0.103E+02 0.376E+04   0.108E-01 -.290E-02 0.944E+00
   -.210E+00 -.802E-01 0.379E+04   0.210E+00 0.803E-01 -.380E+04   0.224E-03 -.733E-05 0.437E+00
   0.135E+00 -.599E-08 0.397E+04   -.136E+00 -.766E-07 -.397E+04   0.103E-03 0.253E-22 -.389E+01
   0.183E+00 -.121E+00 0.194E+04   -.186E+00 0.121E+00 -.194E+04   0.357E-03 0.153E-04 -.440E-01
   -.350E+00 -.222E-06 0.193E+04   0.348E+00 0.164E-06 -.193E+04   0.570E-03 -.714E-22 0.202E+00
   -.159E+01 -.428E+00 0.116E+02   0.159E+01 0.429E+00 -.108E+02   0.148E-02 -.195E-04 -.139E+00
   0.630E+00 -.214E-06 0.225E+02   -.635E+00 -.489E-05 -.236E+02   0.911E-03 0.133E-21 0.348E+00
   0.218E+01 -.257E+01 -.185E+04   -.217E+01 0.257E+01 0.185E+04   -.211E-02 -.370E-02 0.117E-01
   -.627E+01 -.703E-05 -.192E+04   0.627E+01 0.150E-04 0.192E+04   0.609E-02 -.629E-22 -.407E-01
   -.204E+02 -.143E+02 -.375E+04   0.204E+02 0.143E+02 0.375E+04   0.268E-01 0.174E-02 -.174E+00
   0.610E+01 -.444E-05 -.377E+04   -.611E+01 0.162E-04 0.377E+04   0.574E-02 -.803E-22 0.960E+00
   -.210E+00 0.802E-01 0.379E+04   0.210E+00 -.803E-01 -.380E+04   0.224E-03 0.733E-05 0.437E+00
   0.143E+00 0.117E+00 0.397E+04   -.143E+00 -.117E+00 -.397E+04   0.109E-03 0.108E-04 -.389E+01
   0.183E+00 0.121E+00 0.194E+04   -.186E+00 -.121E+00 -.194E+04   0.357E-03 -.153E-04 -.440E-01
   -.315E+00 0.118E+00 0.193E+04   0.313E+00 -.118E+00 -.193E+04   0.446E-03 0.594E-04 0.202E+00
   -.159E+01 0.428E+00 0.116E+02   0.159E+01 -.429E+00 -.108E+02   0.148E-02 0.195E-04 -.139E+00
   0.844E+00 0.890E+00 0.235E+02   -.852E+00 -.895E+00 -.246E+02   0.198E-02 0.172E-02 0.349E+00
   0.218E+01 0.257E+01 -.185E+04   -.217E+01 -.257E+01 0.185E+04   -.211E-02 0.370E-02 0.117E-01
   -.806E+01 0.579E+01 -.191E+04   0.806E+01 -.579E+01 0.191E+04   -.255E-02 0.205E-02 -.454E-01
   -.204E+02 0.143E+02 -.375E+04   0.204E+02 -.143E+02 0.375E+04   0.268E-01 -.174E-02 -.174E+00
   0.939E+01 0.103E+02 -.376E+04   -.940E+01 -.103E+02 0.376E+04   0.108E-01 0.290E-02 0.944E+00
   -.216E+00 0.803E-01 0.379E+04   0.215E+00 -.804E-01 -.380E+04   0.170E-03 0.631E-05 0.437E+00
   0.151E+00 0.457E-08 0.397E+04   -.151E+00 0.795E-07 -.397E+04   0.116E-03 -.207E-21 -.389E+01
   0.212E+00 0.120E+00 0.194E+04   -.215E+00 -.120E+00 -.194E+04   0.483E-03 -.259E-04 -.439E-01
   -.280E+00 0.224E-06 0.193E+04   0.278E+00 -.137E-06 -.193E+04   0.269E-03 0.274E-22 0.202E+00
   -.119E+01 0.428E+00 0.125E+02   0.118E+01 -.427E+00 -.117E+02   0.215E-02 -.189E-03 -.139E+00
   0.102E+01 -.230E-05 0.244E+02   -.104E+01 0.598E-05 -.255E+02   0.295E-02 -.259E-22 0.349E+00
   0.415E+01 0.268E+01 -.185E+04   -.415E+01 -.269E+01 0.185E+04   0.795E-04 0.337E-02 0.115E-01
   -.103E+02 -.137E-04 -.191E+04   0.103E+02 0.546E-04 0.191E+04   0.214E-02 0.120E-21 -.536E-01
   -.497E+02 0.200E+02 -.373E+04   0.497E+02 -.201E+02 0.373E+04   0.171E-01 0.100E-01 -.172E+00
   0.141E+02 0.248E-06 -.376E+04   -.141E+02 0.274E-05 0.376E+04   -.174E-01 -.163E-20 0.928E+00
   0.216E+00 -.921E-01 0.379E+04   -.216E+00 0.924E-01 -.380E+04   -.168E-03 -.358E-04 0.437E+00
   -.143E+00 -.126E+00 0.397E+04   0.144E+00 0.126E+00 -.397E+04   -.110E-03 -.432E-04 -.389E+01
   -.209E+00 -.584E-01 0.194E+04   0.212E+00 0.648E-01 -.194E+04   -.459E-03 -.132E-02 -.443E-01
   0.312E+00 -.163E+00 0.193E+04   -.310E+00 0.164E+00 -.193E+04   -.462E-03 0.547E-04 0.204E+00
   0.109E+01 -.723E+00 0.147E+02   -.108E+01 0.733E+00 -.138E+02   -.175E-02 -.812E-03 -.133E+00
   -.823E+00 -.443E+00 0.263E+02   0.829E+00 0.415E+00 -.273E+02   -.858E-03 0.175E-01 0.327E+00
   -.377E+01 -.639E+01 -.183E+04   0.377E+01 0.643E+01 0.183E+04   -.126E-02 -.411E-01 0.214E-01
   0.761E+01 -.766E+01 -.191E+04   -.761E+01 0.767E+01 0.191E+04   0.543E-02 -.562E-02 -.549E-01
   0.700E+02 -.361E+02 -.368E+04   -.700E+02 0.360E+02 0.368E+04   -.230E-01 0.242E-01 -.114E+00
   -.169E+02 -.631E+02 -.371E+04   0.168E+02 0.632E+02 0.371E+04   0.309E-01 -.295E-01 0.103E+01
   0.211E+00 -.919E-01 0.379E+04   -.210E+00 0.923E-01 -.380E+04   -.219E-03 -.416E-04 0.437E+00
   -.135E+00 -.581E-07 0.397E+04   0.136E+00 0.711E-07 -.397E+04   -.100E-03 0.111E-22 -.389E+01
   -.181E+00 -.615E-01 0.194E+04   0.183E+00 0.645E-01 -.194E+04   -.329E-03 -.900E-03 -.445E-01
   0.348E+00 -.920E-07 0.193E+04   -.345E+00 -.486E-07 -.193E+04   -.538E-03 0.134E-22 0.203E+00
   0.152E+01 -.784E+00 0.129E+02   -.152E+01 0.807E+00 -.121E+02   -.169E-02 -.148E-02 -.137E+00
   -.605E+00 -.440E-05 0.271E+02   0.608E+00 0.106E-04 -.282E+02   -.209E-03 0.205E-21 0.332E+00
   -.180E+01 -.825E+01 -.183E+04   0.180E+01 0.826E+01 0.183E+04   -.138E-02 -.496E-02 -.561E-01
[...]
   -.533E+02 0.557E-01 0.116E+04   0.572E+02 -.565E-01 -.116E+04   -.355E+01 0.153E-02 0.159E+00
   0.531E+02 0.406E-01 0.116E+04   -.571E+02 -.412E-01 -.116E+04   0.355E+01 0.989E-03 0.155E+00
   0.359E+00 -.147E-07 0.514E+03   -.354E+00 0.734E-06 -.518E+03   -.639E-02 0.354E-22 0.416E+01
   0.113E+01 0.302E-05 -.510E+03   -.112E+01 -.246E-05 0.518E+03   -.123E-01 0.230E-21 -.707E+01
   -.562E+02 0.361E-01 0.146E+02   0.609E+02 -.385E-01 -.148E+02   -.518E+01 0.155E-01 0.325E+00
   0.552E+02 0.135E+00 0.152E+02   -.599E+02 -.139E+00 -.155E+02   0.515E+01 0.179E-01 0.331E+00
   -.133E+01 0.240E-03 -.609E+03   0.131E+01 -.578E-04 0.603E+03   0.127E-01 -.373E-21 0.660E+01
   -.703E+01 -.151E-03 -.157E+04   0.714E+01 0.715E-04 0.157E+04   -.111E+00 -.810E-22 0.172E+01
   -.246E+02 0.413E+01 -.111E+04   0.276E+02 -.418E+01 0.111E+04   -.303E+01 0.548E-01 0.804E+00
   0.214E+02 0.296E+01 -.112E+04   -.244E+02 -.300E+01 0.112E+04   0.301E+01 0.353E-01 0.905E+00
   0.230E+02 -.616E-04 -.178E+04   -.232E+02 0.367E-04 0.178E+04   0.227E+00 -.133E-21 -.217E+01
   0.864E+02 0.133E-03 -.264E+04   -.863E+02 -.582E-04 0.266E+04   -.141E+00 0.523E-22 -.200E+02
   -.653E+02 0.346E+02 -.228E+04   0.712E+02 -.344E+02 0.228E+04   -.587E+01 -.218E+00 -.337E+01
   0.420E+02 0.477E+02 -.224E+04   -.480E+02 -.476E+02 0.224E+04   0.597E+01 -.502E-01 -.275E+01
   -.175E+01 -.125E-03 0.100E+03   -.156E-11 -.469E-12 0.182E-10   0.176E+01 0.486E-16 -.101E+03

 POSITION                                       TOTAL-FORCE (eV/Angst)
      5.47759      5.91519     25.00399        -0.044132     -0.000000      0.081376
      4.68489      5.91519     25.86505         0.205452     -0.000000     -0.199589
      6.32334      5.91519     24.17347        -0.166913     -0.000000      0.075448
      9.75299      7.39399      8.77438        -0.000429      0.000080     -3.381203
      0.00000      8.87278      8.77438        -0.000447      0.000063      2.916027
      0.00000      7.39399     12.02538        -0.002570      0.000249      0.525034
      9.75299      8.87278     12.02538        -0.001591      0.000525     -0.692457
      9.75299      7.39399     15.27637        -0.008867     -0.001155      0.706873
      0.00000      8.87278     15.27637        -0.006208      0.003456     -0.743534
      0.00039      7.39425     18.45775         0.001078      0.000076      0.049154
      9.75341      8.87245     18.65999        -0.000644     -0.000280     -0.057006
      9.74950      7.39433     22.01032         0.004380      0.003820     -0.031894
     13.00314      8.87440     21.63738         0.000612     -0.002116     -0.050108
      9.75299     10.35158      8.77438        -0.000526      0.000103     -3.381157
      0.00000      0.00000      8.77438        -0.000436     -0.000000      2.916037
      0.00000     10.35158     12.02538        -0.002220      0.000228      0.525365
      9.75299      0.00000     12.02538        -0.001910     -0.000000     -0.692453
      9.75299     10.35158     15.27637        -0.005696      0.001817      0.706913
      0.00000      0.00000     15.27637        -0.004018     -0.000000     -0.742336
     13.00295     10.35187     18.45876         0.000447      0.000379      0.049479
      9.75233      0.00000     18.66022        -0.000290     -0.000000     -0.056722
      9.75060     10.35213     22.01209         0.001203     -0.000059     -0.031409
      0.00265      0.00000     21.63763        -0.000539     -0.000000     -0.051367
      9.75299      1.47880      8.77438        -0.000526     -0.000103     -3.381157
      0.00000      2.95759      8.77438        -0.000447     -0.000063      2.916027
      0.00000      1.47880     12.02538        -0.002220     -0.000228      0.525365
      9.75299      2.95759     12.02538        -0.001591     -0.000525     -0.692457
      9.75299      1.47880     15.27637        -0.005696     -0.001817      0.706913
      0.00000      2.95759     15.27637        -0.006208     -0.003456     -0.743534
     13.00295      1.47851     18.45876         0.000447     -0.000379      0.049479
      9.75341      2.95793     18.65999        -0.000644      0.000280     -0.057006
      9.75060      1.47824     22.01209         0.001203      0.000059     -0.031409
     13.00314      2.95598     21.63738         0.000612      0.002116     -0.050108
      9.75299      4.43639      8.77438        -0.000429     -0.000080     -3.381203
      0.00000      5.91519      8.77438        -0.000495     -0.000000      2.916014
      0.00000      4.43639     12.02538        -0.002570     -0.000249      0.525034
      9.75299      5.91519     12.02538        -0.001266     -0.000000     -0.692167
      9.75299      4.43639     15.27637        -0.008867      0.001155      0.706873
      0.00000      5.91519     15.27637        -0.008322     -0.000000     -0.745046
      0.00040      4.43613     18.45775         0.001078     -0.000076      0.049154
      9.75425      5.91519     18.66082         0.000113     -0.000000     -0.058293
      9.74950      4.43605     22.01032         0.004380     -0.003820     -0.031894
     12.99803      5.91519     21.63645        -0.000129     -0.000000     -0.047260
      3.25100      7.39399      8.77438         0.000439      0.000294     -3.382624
      6.50199      8.87278      8.77438         0.000440      0.000285      2.917570
      6.50199      7.39399     12.02538         0.002477      0.005099      0.528725
      3.25100      8.87278     12.02538         0.001600      0.001110     -0.700108
      3.25100      7.39399     15.27637         0.009322      0.008915      0.674777
      6.50199      8.87278     15.27637         0.005456     -0.010700     -0.700539
      6.50240      7.38619     18.47406         0.000546     -0.000409      0.043506
      3.25033      8.87420     18.65575         0.000352     -0.001285     -0.055749
      3.24386      7.39778     21.99563        -0.005557      0.002058     -0.033550
      6.50385      8.87341     21.62432         0.001908      0.006240     -0.057782
      3.25100     10.35158      8.77438         0.000532      0.000336     -3.382267
      6.50199      0.00000      8.77438         0.000414     -0.000000      2.917937
      6.50199     10.35158     12.02538         0.002178      0.002095      0.531930
      3.25100      0.00000     12.02538         0.001949     -0.000000     -0.698151
      3.25100     10.35158     15.27637         0.006259      0.021613      0.695168
      6.50199      0.00000     15.27637         0.003299     -0.000000     -0.769474
      6.50336     10.34801     18.44770        -0.000043     -0.003882      0.051227
[...]
      6.50199      5.91519     13.29976        -0.000855     -0.000000     -0.031712
      4.52538      4.43639     12.02538         0.503508      0.000676      0.048976
      8.47860      4.43639     12.02538        -0.506286      0.000326      0.047967
      3.25100      5.91519     14.00199        -0.001801     -0.000000     -0.175196
      3.25100      5.91519     16.55076         0.001264     -0.000000      0.111712
      7.77637      4.43639     15.27637        -0.417366      0.013208      0.091944
      5.22761      4.43639     15.27637         0.403297      0.013821      0.092981
      6.50147      5.91519     17.27907         0.000211     -0.000000     -0.087185
      6.50360      5.91519     19.84831        -0.002326     -0.000000      0.018919
      4.55183      4.43643     18.55534         0.064933     -0.002616      0.000861
      8.45191      4.43688     18.55396        -0.063533     -0.001831      0.000735
      3.23067      5.91519     20.51474         0.003465     -0.000000     -0.013673
      3.29587      5.91519     23.08645        -0.007621     -0.000000     -0.062821
      7.72631      4.42656     21.93980         0.052823     -0.005377      0.001767
      5.26791      4.41716     21.91419        -0.050638     -0.015313     -0.009439
    total drift:                                0.001908     -0.000125     -0.091548

  FREE ENERGIE OF THE ION-ELECTRON SYSTEM (eV)
  free  energy   TOTEN  =     -2210.13641475 eV

  energy  without entropy=    -2210.13641475  energy(sigma->0) =    -2210.13641475