 vasp.6.4.2 20Jul23 (build Feb 22 2024 13:53:45) complex
 executed on              LinuxNV date 2024.08.30  04:02:10
 OpenACC runtime initialized ...    4 GPUs detected

 INCAR:
   SYSTEM = Oxide-Surface
   ISMEAR = 0
   SIGMA = 0.05
   EDIFF = 1E-5
   ALGO = Normal
   IBRION = -1
   NSW = 0
   ISYM = 0
   DIPOL = 0.5 0.5 0.5
   IDIPOL = 3
   LDIPOL = .TRUE.
   ISTART = 0
   LHFCALC = .FALSE.
   GGA = PE
   IVDW = 21
   VDW_SR = 0.96
   HFRCUT = -1
   ENCUT = 1000
   PREC = Normal
   PRECFOCK = Normal
   LASPH = .TRUE.
   LREAL = Auto
   ISPIN = 1
   NELM = 200
   NELMIN = 8
   NCORE = 1
   KPAR = 1
   LWAVE = .FALSE.
   LCHARG = .FALSE.

 POTCAR:    PAW_PBE C_h 06Feb2004
 POTCAR:    PAW_PBE O_h 06Feb2004
 POTCAR:    PAW_PBE Ti_sv 26Sep2005
 POTCAR:    PAW_PBE O_h 06Feb2004
 POTCAR:    PAW_PBE C_h 06Feb2004
   VRHFIN =C: s2p2

   TITEL  = PAW_PBE C_h 06Feb2004
   POMASS =   12.011; ZVAL   =    4.000    mass and valenz
   ENMAX  =  700.000; ENMIN  =  500.000 eV

[...]

   TITEL  = PAW_PBE Ti_sv 26Sep2005
   POMASS =   47.880; ZVAL   =   12.000    mass and valenz
   ENMAX  =  274.610; ENMIN  =  205.957 eV

   TITEL  = PAW_PBE O_h 06Feb2004
   POMASS =   16.000; ZVAL   =    6.000    mass and valenz
   ENMAX  =  700.000; ENMIN  =  500.000 eV

 Optimization of the real space projectors (new method)

 maximal supplied QI-value         = 34.20
 optimisation between [QCUT,QGAM] = [ 16.08, 32.15] = [ 72.37,289.48] Ry
 Optimized for a Real-space Cutoff    0.71 Angstroem

   l    n(q)    QCUT    max X(q) W(low)/X(q) W(high)/X(q)  e(spline)
   0      7    16.076   134.812    0.49E-03    0.92E-03    0.59E-07
   0      7    16.076    80.524    0.48E-03    0.91E-03    0.58E-07
   1      6    16.076    79.026    0.37E-03    0.58E-03    0.12E-06
   1      6    16.076    45.188    0.36E-03    0.56E-03    0.12E-06
 Optimization of the real space projectors (new method)

[...]

   l    n(q)    QCUT    max X(q) W(low)/X(q) W(high)/X(q)  e(spline)
   0     12    16.089    12.277    0.23E-04    0.54E-05    0.15E-06
   0     12    16.089    11.419    0.26E-04    0.82E-06    0.19E-06
   1     12    16.089     4.010    0.40E-04    0.12E-04    0.58E-06
   1     12    16.089     6.182    0.55E-05    0.28E-04    0.27E-06
   2     11    16.089    47.177    0.17E-03    0.26E-03    0.90E-06
   2     11    16.089    42.437    0.17E-03    0.25E-03    0.88E-06
 Optimization of the real space projectors (new method)

 maximal supplied QI-value         = 34.20
 optimisation between [QCUT,QGAM] = [ 16.08, 32.15] = [ 72.37,289.48] Ry
 Optimized for a Real-space Cutoff    0.71 Angstroem

   l    n(q)    QCUT    max X(q) W(low)/X(q) W(high)/X(q)  e(spline)
   0      7    16.076   280.207    0.42E-03    0.69E-03    0.60E-07
   0      7    16.076   228.978    0.42E-03    0.69E-03    0.61E-07
   1      6    16.076    86.127    0.11E-03    0.66E-03    0.10E-06
   1      6    16.076    65.368    0.11E-03    0.65E-03    0.10E-06
  PAW_PBE C_h 06Feb2004                 :
  PAW_PBE O_h 06Feb2004                 :
  PAW_PBE Ti_sv 26Sep2005               :
  PAW_PBE O_h 06Feb2004                 :

 POSCAR:  C  O Ti  O
  positions in direct lattice
 exchange correlation table for  LEXCH =        8
   RHO(1)=    0.500       N(1)  =     2000
   RHO(2)=  100.500       N(2)  =     4000

 ion  position               nearest neighbor table
   1  0.421  0.500  0.833-   2 1.17   3 1.19
   2  0.360  0.500  0.867-   1 1.17
   3  0.486  0.500  0.800-   1 1.19
   4  0.750  0.625  0.184-  85 1.95 145 1.95 144 1.95  84 1.95  87 1.98 166 1.98
   5  0.000  0.750  0.184-  86 1.95  87 1.95 106 1.95 107 1.95  88 1.98
   6  0.000  0.625  0.314-  88 1.95 148 1.95  89 1.95 149 1.95  90 1.98  91 1.98
   7  0.750  0.750  0.314-  90 1.95 110 1.95 171 1.95 191 1.95  92 1.98  85 1.98
   8  0.750  0.625  0.444-  92 1.95  93 1.95 152 1.95 153 1.95  95 1.98 174 1.98
   9  0.000  0.750  0.444-  94 1.95  95 1.95 114 1.95 115 1.95  89 1.98  96 2.00
  10  0.000  0.625  0.571- 156 1.90  96 1.90  99 1.95  98 1.95  97 2.02 157 2.02
  11  0.750  0.750  0.579- 100 1.86 179 1.97  98 1.97 199 1.97 118 1.98  93 2.11
  12  0.750  0.625  0.713- 161 1.83 101 1.83 182 2.02 103 2.03 160 2.10 100 2.10
  13  1.000  0.750  0.698-  97 1.81 123 1.94 122 1.95 103 1.95 102 1.95
  14  0.750  0.875  0.184-  85 1.95 105 1.95  84 1.95 104 1.95 107 1.98 186 1.98
  15  0.000  0.000  0.184- 126 1.95 127 1.95 106 1.95 107 1.95 108 1.98
  16  0.000  0.875  0.314-  88 1.95 108 1.95  89 1.95 109 1.95 110 1.98 111 1.98
  17  0.750  0.000  0.314- 130 1.95 211 1.95 191 1.95 110 1.95 112 1.98 105 1.98
  18  0.750  0.875  0.444-  92 1.95  93 1.95 112 1.95 113 1.95 115 1.98 194 1.98
  19  0.000  0.000  0.444- 134 1.95 135 1.95 114 1.95 115 1.95 109 1.98 116 2.00
  20  1.000  0.875  0.571-  96 1.89 116 1.90 118 1.95 119 1.95 117 2.02  97 2.02
  21  0.750  0.000  0.579- 120 1.86 199 1.97 219 1.97 138 1.97 118 1.97 113 2.11
  22  0.750  0.875  0.713- 121 1.83 101 1.83 202 2.02 123 2.03 100 2.10 120 2.10
  23  0.000  0.000  0.698- 117 1.81 122 1.95 142 1.95 123 1.95 143 1.95
  24  0.750  0.125  0.184- 105 1.95 125 1.95 124 1.95 104 1.95 127 1.98 206 1.98
  25  0.000  0.250  0.184- 126 1.95 127 1.95 146 1.95 147 1.95 128 1.98
  26  0.000  0.125  0.314- 108 1.95 128 1.95 109 1.95 129 1.95 130 1.98 131 1.98
  27  0.750  0.250  0.314- 130 1.95 150 1.95 211 1.95 231 1.95 132 1.98 125 1.98
  28  0.750  0.125  0.444- 112 1.95 113 1.95 132 1.95 133 1.95 135 1.98 214 1.98
  29  0.000  0.250  0.444- 134 1.95 135 1.95 154 1.95 155 1.95 129 1.98 136 2.00
  30  1.000  0.125  0.571- 136 1.89 116 1.90 138 1.95 139 1.95 117 2.02 137 2.02
  31  0.750  0.250  0.579- 140 1.86 239 1.97 158 1.97 219 1.97 138 1.98 133 2.11
  32  0.750  0.125  0.713- 121 1.83 141 1.83 222 2.02 143 2.03 140 2.10 120 2.10
  33  1.000  0.250  0.698- 137 1.81 143 1.94 142 1.95 163 1.95 162 1.95
  34  0.750  0.375  0.184- 145 1.95 125 1.95 144 1.95 124 1.95 147 1.98 226 1.98
  35  0.000  0.500  0.184- 146 1.95 147 1.95  86 1.95  87 1.95 148 1.98
  36  0.000  0.375  0.314- 148 1.95 128 1.95 149 1.95 129 1.95 150 1.98 151 1.98
  37  0.750  0.500  0.314- 150 1.95 231 1.95 171 1.95  90 1.95 145 1.98 152 1.98
  38  0.750  0.375  0.444- 152 1.95 153 1.95 132 1.95 133 1.95 155 1.98 234 1.98
  39  0.000  0.500  0.444- 154 1.95 155 1.95  94 1.95  95 1.95 149 1.98 156 2.00
  40  0.000  0.375  0.571- 156 1.90 136 1.90 159 1.95 158 1.95 137 2.02 157 2.02
  41  0.750  0.500  0.579- 160 1.86 179 1.97 239 1.97 158 1.97  98 1.97 153 2.11
  42  0.750  0.375  0.713- 161 1.83 141 1.83 242 2.02 163 2.03 160 2.10 140 2.10
  43  1.000  0.500  0.698- 157 1.81 103 1.94 163 1.94 102 1.95 162 1.95
  44  0.250  0.625  0.184- 165 1.95 225 1.95 224 1.95 164 1.95  86 1.98 167 1.98
  45  0.500  0.750  0.184- 166 1.95 167 1.95 186 1.95 187 1.95 168 1.98
  46  0.500  0.625  0.314- 168 1.95 228 1.95 169 1.95 229 1.95 170 1.98 171 1.98
  47  0.250  0.750  0.314-  91 1.95 111 1.95 170 1.95 190 1.95 172 1.98 165 1.98
  48  0.250  0.625  0.444- 172 1.95 173 1.95 232 1.95 233 1.95  94 1.98 175 1.98
  49  0.500  0.750  0.444- 174 1.95 175 1.95 194 1.95 195 1.95 169 1.98 176 2.00
  50  0.500  0.624  0.572- 236 1.90 176 1.91 179 1.95 178 1.95 177 2.01 237 2.01
  51  0.250  0.750  0.579- 180 1.86 198 1.97 119 1.97 178 1.97  99 1.97 173 2.10
  52  0.249  0.625  0.713- 181 1.83 241 1.84 102 2.02 183 2.03 180 2.09 240 2.10
  53  0.500  0.750  0.698- 177 1.80 183 1.93 182 1.94 203 1.95 202 1.95
  54  0.250  0.875  0.184- 165 1.95 185 1.95 164 1.95 184 1.95 106 1.98 187 1.98
  55  0.500  0.000  0.184- 206 1.95 207 1.95 186 1.95 187 1.95 188 1.98
  56  0.500  0.875  0.314- 168 1.95 188 1.95 169 1.95 189 1.95 190 1.98 191 1.98
  57  0.250  0.000  0.314- 131 1.95 210 1.95 190 1.95 111 1.95 192 1.98 185 1.98
  58  0.250  0.875  0.444- 172 1.95 173 1.95 192 1.95 193 1.95 114 1.98 195 1.98
  59  0.500  0.000  0.444- 214 1.95 215 1.95 194 1.95 195 1.95 189 1.98 196 1.99
  60  0.500  0.875  0.571- 176 1.89 196 1.89 199 1.95 198 1.95 177 2.01 197 2.02
[...]
 229  0.500  0.500  0.365-  76 1.95  46 1.95  79 1.98
 230  0.348  0.375  0.314-  77 1.95  67 1.95  76 1.98
 231  0.652  0.375  0.314-  37 1.95  27 1.95  76 1.98
 232  0.250  0.500  0.393-  78 1.95  48 1.95  77 1.98
 233  0.250  0.500  0.495-  78 1.95  48 1.95  81 2.10
 234  0.598  0.375  0.444-  79 1.95  69 1.95  38 1.98
 235  0.402  0.375  0.444-  79 1.95  69 1.95  78 1.98
 236  0.500  0.500  0.524-  50 1.90  80 1.90  79 2.00
 237  0.500  0.500  0.627-  83 1.83  80 2.01  50 2.01
 238  0.350  0.375  0.575-  80 1.95  81 1.97  71 1.97
 239  0.650  0.375  0.575-  80 1.95  31 1.97  41 1.97
 240  0.248  0.500  0.653-  81 1.86  82 2.10  52 2.10
 241  0.253  0.500  0.756-  52 1.84  82 1.84
 242  0.594  0.374  0.710-  73 1.94  83 1.95  42 2.02
 243  0.405  0.373  0.709-  73 1.93  83 1.95  82 2.03

IMPORTANT INFORMATION: All symmetrisations will be switched off!
NOSYMM: (Re-)initialisation of all symmetry stuff for point group C_1.

                                     Primitive cell

  volume of cell :    3846.0501

  direct lattice vectors                    reciprocal lattice vectors
    13.003980404  0.000000000  0.000000000     0.076899531  0.000000000  0.000000000
     0.000000000 11.830378115  0.000000000     0.000000000  0.084528152  0.000000000
     0.000000000  0.000000000 25.000000000     0.000000000  0.000000000  0.040000000

  length of vectors
    13.003980404 11.830378115 25.000000000     0.076899531  0.084528152  0.040000000

  position of ions in fractional coordinates (direct lattice)
     0.421233206  0.499999967  0.832858386
     0.360274704  0.499999961  0.867301041
     0.486270676  0.499999964  0.799637586
     0.750009005  0.625000004  0.183674327
     0.000009005  0.750000004  0.183674327
     0.000009005  0.625000004  0.313714131
     0.750009005  0.750000004  0.313714131
     0.750009005  0.625000004  0.443753935
     0.000009005  0.750000004  0.443753935
     0.000039268  0.625021959  0.571008767
     0.750041367  0.749971392  0.579098488
     0.749740788  0.625029293  0.713111588
     0.999944200  0.750136611  0.698194134
     0.750009005  0.875000004  0.183674327
     0.000009005  0.000000004  0.183674327
     0.000009005  0.875000004  0.313714131
     0.750009005  0.000000004  0.313714131
     0.750009005  0.875000004  0.443753935
     0.000009005  0.000000004  0.443753935
     0.999929708  0.875024128  0.571049285
     0.749958663  0.000000007  0.579107830
     0.749825759  0.875046720  0.713182670
     0.000212581  0.000000005  0.698204043
     0.750009005  0.125000004  0.183674327
     0.000009005  0.250000004  0.183674327
     0.000009005  0.125000004  0.313714131
     0.750009005  0.250000004  0.313714131
     0.750009005  0.125000004  0.443753935
     0.000009005  0.250000004  0.443753935
     0.999929806  0.124975873  0.571049289
     0.750041514  0.250028642  0.579098486
     0.749825774  0.124953283  0.713182667
     0.999944204  0.249863411  0.698194132
     0.750009005  0.375000004  0.183674327
     0.000009005  0.500000004  0.183674327
     0.000009005  0.375000004  0.313714131
     0.750009005  0.500000004  0.313714131
     0.750009005  0.375000004  0.443753935
     0.000009005  0.500000004  0.443753935
[...]
     0.000000000  0.000000000 25.000000000     0.000000000  0.000000000  0.040000000

  length of vectors
    13.003980404 11.830378115 25.000000000     0.076899531  0.084528152  0.040000000

 FORCES acting on ions
    electron-ion (+dipol)            ewald-force                    non-local-force                 convergence-correction
   -.214E+02 -.172E-04 -.973E+03   0.198E+02 0.189E-04 0.974E+03   0.150E+01 0.205E-05 -.102E+01   -.485E-03 -.176E-05 0.107E-03
   0.167E+03 0.172E-04 -.126E+04   -.210E+03 -.209E-04 0.130E+04   0.433E+02 0.657E-05 -.459E+02   -.409E-03 -.166E-05 0.179E-03
   -.203E+03 0.880E-05 -.168E+04   0.246E+03 -.121E-04 0.164E+04   -.434E+02 0.466E-05 0.370E+02   0.753E-04 -.116E-05 -.809E-03
   -.305E+01 -.137E+01 0.366E+04   0.305E+01 0.137E+01 -.367E+04   -.242E-02 -.128E-03 0.116E+01   0.138E-03 0.170E-03 -.370E-02
   0.186E+01 -.181E+01 0.388E+04   -.186E+01 0.181E+01 -.387E+04   -.166E-02 -.390E-04 -.567E+01   -.988E-04 0.186E-03 -.173E-02
   0.649E+00 -.382E+00 0.187E+04   -.652E+00 0.383E+00 -.187E+04   -.471E-03 -.429E-04 -.179E+00   0.292E-04 -.254E-05 0.789E-03
   -.892E+00 -.479E+00 0.186E+04   0.890E+00 0.479E+00 -.187E+04   -.635E-03 -.189E-03 0.340E+00   -.693E-05 -.259E-04 0.357E-03
   -.145E+01 -.519E+00 -.797E+01   0.143E+01 0.517E+00 0.897E+01   0.251E-02 0.423E-03 -.289E+00   -.252E-04 -.299E-04 0.869E-03
   0.112E+01 -.115E+01 0.907E+01   -.113E+01 0.115E+01 -.104E+02   0.154E-02 -.241E-02 0.580E+00   0.398E-04 -.499E-04 0.110E-02
   0.507E+01 -.325E+01 -.181E+04   -.506E+01 0.326E+01 0.181E+04   -.107E-01 -.448E-02 0.792E+00   0.151E-04 -.122E-04 0.893E-03
   -.971E+01 -.695E+01 -.186E+04   0.971E+01 0.694E+01 0.186E+04   0.111E-01 0.498E-02 -.110E+01   0.886E-06 -.288E-04 0.938E-03
   -.598E+02 -.241E+02 -.359E+04   0.598E+02 0.241E+02 0.359E+04   0.402E-01 -.482E-02 -.168E+01   0.159E-03 0.919E-04 0.167E-03
   0.113E+02 -.123E+02 -.369E+04   -.113E+02 0.123E+02 0.368E+04   0.280E-01 -.193E-01 0.282E+01   -.114E-03 0.147E-03 0.118E-03
   -.241E+01 -.134E+01 0.366E+04   0.241E+01 0.134E+01 -.367E+04   -.212E-02 -.145E-03 0.116E+01   0.107E-03 0.987E-04 -.399E-02
   0.152E+01 -.207E-04 0.388E+04   -.152E+01 -.467E-06 -.387E+04   -.158E-02 0.137E-04 -.567E+01   -.749E-04 0.129E-04 -.196E-02
   0.562E+00 -.382E+00 0.187E+04   -.565E+00 0.383E+00 -.187E+04   -.628E-03 -.394E-04 -.179E+00   0.315E-04 -.451E-04 0.725E-03
   -.898E+00 -.740E-05 0.186E+04   0.896E+00 0.249E-06 -.187E+04   -.443E-03 -.133E-05 0.340E+00   -.214E-04 0.684E-05 0.303E-03
   -.204E+01 -.518E+00 -.892E+01   0.203E+01 0.520E+00 0.992E+01   0.969E-03 -.325E-03 -.289E+00   -.261E-04 -.418E-04 0.869E-03
   0.838E+00 0.119E-04 0.796E+01   -.844E+00 -.539E-05 -.930E+01   0.180E-03 -.616E-06 0.580E+00   0.404E-04 -.698E-05 0.110E-02
   0.262E+01 -.312E+01 -.182E+04   -.263E+01 0.313E+01 0.182E+04   0.193E-01 -.652E-02 0.789E+00   0.224E-04 -.863E-06 0.952E-03
   -.760E+01 -.183E-04 -.187E+04   0.758E+01 0.209E-04 0.187E+04   0.851E-02 0.186E-06 -.109E+01   -.583E-05 -.273E-05 0.990E-03
   -.246E+02 -.172E+02 -.361E+04   0.245E+02 0.172E+02 0.361E+04   0.584E-01 0.726E-02 -.169E+01   0.137E-03 0.117E-03 0.453E-03
   0.734E+01 -.654E-05 -.369E+04   -.735E+01 0.215E-04 0.369E+04   0.191E-01 -.911E-06 0.284E+01   -.944E-04 -.157E-04 0.313E-03
   -.241E+01 0.134E+01 0.366E+04   0.241E+01 -.134E+01 -.367E+04   -.211E-02 0.144E-03 0.116E+01   0.667E-04 -.952E-04 -.398E-02
   0.186E+01 0.181E+01 0.388E+04   -.186E+01 -.181E+01 -.387E+04   -.167E-02 0.421E-04 -.567E+01   -.619E-04 -.165E-03 -.176E-02
   0.562E+00 0.382E+00 0.187E+04   -.565E+00 -.383E+00 -.187E+04   -.628E-03 0.429E-04 -.179E+00   0.313E-04 0.712E-05 0.713E-03
   -.892E+00 0.479E+00 0.186E+04   0.890E+00 -.479E+00 -.187E+04   -.634E-03 0.189E-03 0.340E+00   -.229E-04 0.164E-04 0.352E-03
   -.204E+01 0.518E+00 -.892E+01   0.203E+01 -.520E+00 0.992E+01   0.968E-03 0.323E-03 -.289E+00   -.279E-04 0.396E-04 0.872E-03
   0.112E+01 0.115E+01 0.907E+01   -.113E+01 -.115E+01 -.104E+02   0.154E-02 0.241E-02 0.580E+00   0.446E-04 0.523E-04 0.110E-02
   0.262E+01 0.312E+01 -.182E+04   -.263E+01 -.313E+01 0.182E+04   0.193E-01 0.652E-02 0.789E+00   0.229E-04 0.109E-04 0.945E-03
   -.971E+01 0.695E+01 -.186E+04   0.970E+01 -.694E+01 0.186E+04   0.110E-01 -.499E-02 -.110E+01   0.814E-06 0.328E-04 0.934E-03
   -.246E+02 0.172E+02 -.361E+04   0.245E+02 -.172E+02 0.361E+04   0.584E-01 -.725E-02 -.169E+01   0.138E-03 -.151E-03 0.431E-03
   0.113E+02 0.123E+02 -.369E+04   -.113E+02 -.123E+02 0.368E+04   0.280E-01 0.193E-01 0.282E+01   -.113E-03 -.134E-03 0.123E-03
   -.305E+01 0.137E+01 0.366E+04   0.305E+01 -.137E+01 -.367E+04   -.241E-02 0.125E-03 0.116E+01   0.104E-03 -.173E-03 -.368E-02
   0.222E+01 0.472E-04 0.388E+04   -.222E+01 0.484E-06 -.387E+04   -.176E-02 -.121E-04 -.567E+01   -.798E-04 -.383E-04 -.154E-02
   0.649E+00 0.382E+00 0.187E+04   -.652E+00 -.383E+00 -.187E+04   -.471E-03 0.375E-04 -.179E+00   0.359E-04 0.398E-04 0.769E-03
   -.887E+00 -.314E-05 0.186E+04   0.886E+00 -.220E-06 -.187E+04   -.872E-03 -.208E-06 0.340E+00   -.169E-04 0.358E-05 0.404E-03
   -.145E+01 0.519E+00 -.797E+01   0.143E+01 -.517E+00 0.897E+01   0.251E-02 -.424E-03 -.289E+00   -.294E-04 0.328E-04 0.872E-03
   0.137E+01 -.128E-04 0.102E+02   -.138E+01 0.833E-05 -.115E+02   0.290E-02 -.550E-06 0.579E+00   0.424E-04 0.451E-05 0.110E-02
   0.507E+01 0.325E+01 -.181E+04   -.506E+01 -.326E+01 0.181E+04   -.107E-01 0.448E-02 0.792E+00   0.175E-04 0.281E-05 0.893E-03
   -.123E+02 -.708E-04 -.185E+04   0.123E+02 0.708E-04 0.185E+04   0.112E-01 -.231E-06 -.112E+01   0.843E-05 -.105E-05 0.907E-03
   -.598E+02 0.241E+02 -.359E+04   0.598E+02 -.241E+02 0.359E+04   0.402E-01 0.482E-02 -.168E+01   0.157E-03 -.573E-04 0.173E-03
   0.169E+02 -.393E-05 -.368E+04   -.169E+02 0.345E-05 0.368E+04   -.323E-02 0.246E-06 0.280E+01   -.117E-03 0.248E-05 -.594E-04
   0.319E+01 -.199E+01 0.366E+04   -.319E+01 0.199E+01 -.366E+04   -.869E-03 -.105E-03 0.116E+01   -.109E-03 0.148E-03 -.333E-02
   -.196E+01 -.287E+01 0.388E+04   0.196E+01 0.287E+01 -.387E+04   -.152E-02 -.357E-03 -.568E+01   0.712E-04 0.203E-03 -.137E-02
   -.651E+00 -.368E+00 0.187E+04   0.654E+00 0.375E+00 -.187E+04   -.217E-02 -.208E-02 -.181E+00   -.323E-04 -.158E-04 0.809E-03
   0.893E+00 -.616E+00 0.186E+04   -.891E+00 0.617E+00 -.187E+04   -.189E-02 -.248E-03 0.344E+00   0.101E-04 -.213E-04 0.401E-03
   0.132E+01 -.913E+00 -.546E+01   -.130E+01 0.924E+00 0.641E+01   -.562E-02 -.271E-02 -.276E+00   0.291E-04 -.307E-04 0.861E-03
   -.109E+01 -.333E+00 0.121E+02   0.110E+01 0.304E+00 -.133E+02   -.341E-02 0.185E-01 0.546E+00   -.431E-04 -.499E-04 0.109E-02
   -.456E+01 -.789E+01 -.179E+04   0.457E+01 0.787E+01 0.179E+04   -.175E-02 0.427E-02 0.734E+00   -.143E-04 -.139E-04 0.808E-03
   0.909E+01 -.924E+01 -.185E+04   -.910E+01 0.925E+01 0.185E+04   0.618E-02 -.170E-01 -.108E+01   -.319E-05 -.194E-04 0.851E-03
   0.841E+02 -.430E+02 -.353E+04   -.840E+02 0.430E+02 0.353E+04   -.235E-01 -.369E-01 -.158E+01   -.142E-03 0.357E-04 -.194E-03
   -.201E+02 -.760E+02 -.362E+04   0.201E+02 0.759E+02 0.362E+04   0.445E-01 0.533E-01 0.292E+01   0.107E-03 0.182E-03 -.154E-03
   0.247E+01 -.190E+01 0.366E+04   -.247E+01 0.190E+01 -.367E+04   -.113E-02 -.667E-04 0.116E+01   -.958E-04 0.116E-03 -.369E-02
   -.157E+01 0.181E-07 0.388E+04   0.157E+01 -.533E-06 -.387E+04   -.162E-02 -.646E-07 -.568E+01   0.781E-04 -.732E-05 -.161E-02
   -.562E+00 -.368E+00 0.187E+04   0.565E+00 0.372E+00 -.187E+04   -.202E-02 -.126E-02 -.181E+00   -.313E-04 -.356E-05 0.735E-03
   0.898E+00 -.246E-05 0.186E+04   -.895E+00 -.956E-07 -.187E+04   -.205E-02 0.274E-06 0.342E+00   0.195E-04 0.452E-06 0.345E-03
   0.195E+01 -.999E+00 -.746E+01   -.194E+01 0.103E+01 0.844E+01   -.446E-02 -.553E-02 -.285E+00   0.255E-04 -.349E-04 0.866E-03
   -.802E+00 -.142E-04 0.135E+02   0.807E+00 0.149E-04 -.148E+02   -.248E-02 -.597E-06 0.540E+00   -.394E-04 0.262E-06 0.109E-02
   -.212E+01 -.100E+02 -.179E+04   0.214E+01 0.996E+01 0.179E+04   -.117E-01 0.284E-01 0.711E+00   -.202E-04 0.166E-05 0.891E-03
[...]
   -.631E+02 0.210E+00 0.934E+03   0.666E+02 -.212E+00 -.934E+03   -.304E+01 0.181E-02 0.182E+00   -.372E-03 0.105E-04 0.278E-03
   0.628E+02 0.171E+00 0.934E+03   -.662E+02 -.172E+00 -.934E+03   0.303E+01 0.123E-02 0.177E+00   0.355E-03 0.868E-05 0.264E-03
   0.438E+00 -.113E-05 0.427E+03   -.432E+00 0.717E-06 -.431E+03   -.767E-02 0.951E-07 0.377E+01   0.129E-04 0.493E-06 0.408E-03
   0.106E+01 0.309E-05 -.451E+03   -.104E+01 -.399E-05 0.457E+03   -.136E-01 0.121E-05 -.630E+01   0.101E-04 -.378E-06 0.508E-03
   -.668E+02 0.153E-01 0.421E+01   0.713E+02 -.205E-01 -.450E+01   -.492E+01 0.182E-01 0.380E+00   0.493E-04 0.385E-05 0.493E-03
   0.658E+02 0.124E+00 0.483E+01   -.702E+02 -.131E+00 -.513E+01   0.489E+01 0.209E-01 0.386E+00   -.901E-04 0.426E-05 0.491E-03
   -.135E+01 0.727E-04 -.471E+03   0.133E+01 -.743E-04 0.465E+03   0.100E-01 0.120E-04 0.574E+01   -.183E-04 -.919E-05 0.438E-03
   -.723E+01 -.736E-04 -.127E+04   0.734E+01 0.823E-04 0.127E+04   -.110E+00 -.242E-05 0.114E+01   0.626E-05 -.658E-05 0.341E-03
   -.305E+02 0.423E+01 -.902E+03   0.334E+02 -.429E+01 0.901E+03   -.298E+01 0.513E-01 0.792E+00   -.149E-03 0.135E-04 0.433E-03
   0.272E+02 0.301E+01 -.905E+03   -.301E+02 -.304E+01 0.904E+03   0.297E+01 0.335E-01 0.887E+00   0.131E-03 0.131E-05 0.459E-03
   0.235E+02 -.968E-06 -.144E+04   -.237E+02 0.412E-04 0.144E+04   0.209E+00 0.129E-04 -.116E+01   -.339E-04 -.577E-04 0.888E-04
   0.847E+02 0.154E-03 -.215E+04   -.846E+02 -.746E-04 0.217E+04   -.535E-01 0.415E-04 -.185E+02   -.150E-03 -.110E-03 -.702E-03
   -.755E+02 0.344E+02 -.185E+04   0.809E+02 -.343E+02 0.185E+04   -.536E+01 -.196E+00 -.302E+01   0.178E-03 -.808E-04 -.245E-03
   0.527E+02 0.476E+02 -.181E+04   -.581E+02 -.476E+02 0.181E+04   0.546E+01 -.218E-01 -.243E+01   -.109E-03 -.910E-04 -.340E-03
   -.214E+01 -.442E-04 0.996E+02   0.248E-11 -.176E-11 0.675E-10   0.217E+01 0.685E-06 -.100E+03   -.770E-03 -.312E-06 0.339E-02

 POSITION                                       TOTAL-FORCE (eV/Angst)
      5.47771      5.91519     20.82146        -0.089524      0.000002      0.201359
      4.68501      5.91519     21.68253         0.651175      0.000001     -0.664524
      6.32345      5.91519     19.99094        -0.531180      0.000000      0.537714
      9.75310      7.39399      4.59186        -0.000356      0.001025     -3.490840
      0.00012      8.87278      4.59186        -0.001510      0.000202      2.792173
      0.00012      7.39399      7.84285        -0.003744      0.000279      0.509476
      9.75310      8.87278      7.84285        -0.002642      0.000619     -0.711509
      9.75310      7.39399     11.09385        -0.010911     -0.001315      0.706600
      0.00012      8.87278     11.09385        -0.007938      0.003505     -0.751827
      0.00051      7.39425     14.27522        -0.002491      0.000052      0.093943
      9.75352      8.87245     14.47746         0.010487     -0.001686     -0.012662
      9.74961      7.39433     17.82779         0.004440      0.007826      0.038894
     13.00325      8.87440     17.45485        -0.000941      0.012635      0.029370
      9.75310     10.35158      4.59186        -0.000860      0.001019     -3.491963
      0.00012      0.00000      4.59186        -0.001737      0.000006      2.792110
      0.00012     10.35158      7.84285        -0.003422      0.000242      0.509816
      9.75310      0.00000      7.84285        -0.002982     -0.000001     -0.711668
      9.75310     10.35158     11.09385        -0.007089      0.001729      0.706301
      0.00012      0.00000     11.09385        -0.005683     -0.000001     -0.750680
     13.00307     10.35187     14.27623         0.006586     -0.000306      0.089472
      9.75245      0.00000     14.47770        -0.013272      0.000000     -0.008302
      9.75072     10.35213     17.82957         0.002616      0.008551      0.037949
      0.00276      0.00000     17.45510         0.014723     -0.000002      0.021977
      9.75310      1.47880      4.59186        -0.000857     -0.001022     -3.491968
      0.00012      2.95759      4.59186        -0.001514     -0.000199      2.792083
      0.00012      1.47880      7.84285        -0.003421     -0.000247      0.509821
      9.75310      2.95759      7.84285        -0.002644     -0.000618     -0.711506
      9.75310      1.47880     11.09385        -0.007090     -0.001730      0.706298
      0.00012      2.95759     11.09385        -0.007938     -0.003505     -0.751821
     13.00307      1.47851     14.27623         0.006570      0.000307      0.089475
      9.75353      2.95793     14.47746         0.010469      0.001684     -0.012662
      9.75072      1.47824     17.82957         0.002614     -0.008554      0.037958
     13.00325      2.95598     17.45485        -0.000940     -0.012639      0.029332
      9.75310      4.43639      4.59186        -0.000349     -0.001024     -3.490854
      0.00012      5.91519      4.59186        -0.001265     -0.000003      2.792097
      0.00012      4.43639      7.84285        -0.003743     -0.000273      0.509481
      9.75310      5.91519      7.84285        -0.002316      0.000000     -0.711099
      9.75310      4.43639     11.09385        -0.010913      0.001315      0.706601
      0.00012      5.91519     11.09385        -0.010040     -0.000000     -0.753245
      0.00051      4.43613     14.27522        -0.002511     -0.000054      0.093947
      9.75437      5.91519     14.47829         0.002075     -0.000001     -0.013676
      9.74961      4.43605     17.82779         0.004445     -0.007824      0.038841
     12.99815      5.91519     17.45393        -0.010543      0.000003      0.031787
      3.25111      7.39399      4.59186        -0.003082      0.000035     -3.494633
      6.50211      8.87278      4.59186        -0.002055      0.001226      2.797886
      6.50211      7.39399      7.84285         0.000792      0.005146      0.514168
      3.25111      8.87278      7.84285        -0.000046      0.001142     -0.719875
      3.25111      7.39399     11.09385         0.007984      0.008853      0.674413
      6.50211      8.87278     11.09385         0.003838     -0.010477     -0.708822
      6.50252      7.38619     14.29154         0.004704     -0.010146      0.074596
      3.25045      8.87420     14.47322         0.004542     -0.002896     -0.009606
      3.24398      7.39778     17.81311        -0.000588      0.000651      0.049803
      6.50397      8.87341     17.44180         0.005750      0.007508     -0.001454
      3.25111     10.35158      4.59186        -0.002651      0.000322     -3.493969
      6.50211      0.00000      4.59186        -0.001761     -0.000008      2.797035
      6.50211     10.35158      7.84285         0.000505      0.002186      0.517103
      3.25111      0.00000      7.84285         0.000293     -0.000002     -0.717902
      3.25111     10.35158     11.09385         0.004179      0.021843      0.694547
      6.50211      0.00000     11.09385         0.001616      0.000001     -0.775984
      6.50348     10.34801     14.26518         0.002493     -0.021699      0.085928
[...]
      6.50211      5.91519      9.11724        -0.001058      0.000001     -0.116079
      4.52550      4.43639      7.84285         0.410754      0.000662      0.056500
      8.47872      4.43639      7.84285        -0.413865      0.000344      0.055428
      3.25111      5.91519      9.81946        -0.002080      0.000000     -0.084627
      3.25111      5.91519     12.36823         0.001181      0.000000      0.034435
      7.77649      4.43639     11.09385        -0.500594      0.012886      0.087803
      5.22772      4.43639     11.09385         0.485907      0.013501      0.088821
      6.50159      5.91519     13.09655        -0.001941      0.000001     -0.002373
      6.50372      5.91519     15.66579        -0.001903     -0.000000     -0.012512
      4.55194      4.43643     14.37281        -0.028188     -0.001361      0.003799
      8.45203      4.43688     14.37144         0.032992     -0.001355      0.001182
      3.23079      5.91519     16.33221         0.000226     -0.000004      0.027934
      3.29598      5.91519     18.90392        -0.043122      0.000012     -0.059626
      7.72642      4.42656     17.75727        -0.050139     -0.005356      0.039131
      5.26802      4.41716     17.73167         0.059784     -0.015638      0.024411
    total drift:                                0.032674     -0.000044     -0.359730

  FREE ENERGIE OF THE ION-ELECTRON SYSTEM (eV)
  free  energy   TOTEN  =     -2187.47053868 eV

  energy  without entropy=    -2187.47053868  energy(sigma->0) =    -2187.47053868