 vasp.6.4.2 20Jul23 (build Feb 22 2024 13:53:45) complex
 executed on              LinuxNV date 2024.08.30  05:03:26
 OpenACC runtime initialized ...    4 GPUs detected

 INCAR:
   SYSTEM = Oxide-Surface
   ISMEAR = 0
   SIGMA = 0.05
   EDIFF = 1E-5
   ALGO = Normal
   IBRION = -1
   NSW = 0
   ISYM = 0
   DIPOL = 0.5 0.5 0.5
   IDIPOL = 3
   LDIPOL = .TRUE.
   ISTART = 1
   LHFCALC = .TRUE.
   GGA = PE
   IVDW = 21
   VDW_SR = 0.96
   HFRCUT = -1
   ENCUT = 520
   PREC = Normal
   PRECFOCK = Normal
   LASPH = .TRUE.
   LREAL = Auto
   ISPIN = 1
   NELM = 200
   NELMIN = 8
   NCORE = 1
   KPAR = 1
   LWAVE = .FALSE.
   LCHARG = .FALSE.

 POTCAR:    PAW_PBE C 08Apr2002
 POTCAR:    PAW_PBE O 08Apr2002
 POTCAR:    PAW_PBE Ti_pv 07Sep2000
 POTCAR:    PAW_PBE O 08Apr2002
 POTCAR:    PAW_PBE C 08Apr2002
   VRHFIN =C: s2p2

   TITEL  = PAW_PBE C 08Apr2002
   POMASS =   12.011; ZVAL   =    4.000    mass and valenz
   ENMAX  =  400.000; ENMIN  =  300.000 eV

[...]

   TITEL  = PAW_PBE Ti_pv 07Sep2000
   POMASS =   47.880; ZVAL   =   10.000    mass and valenz
   ENMAX  =  222.335; ENMIN  =  166.751 eV

   TITEL  = PAW_PBE O 08Apr2002
   POMASS =   16.000; ZVAL   =    6.000    mass and valenz
   ENMAX  =  400.000; ENMIN  =  300.000 eV

 Optimization of the real space projectors (new method)

 maximal supplied QI-value         = 25.13
 optimisation between [QCUT,QGAM] = [ 11.56, 23.12] = [ 37.43,149.72] Ry
 Optimized for a Real-space Cutoff    1.04 Angstroem

   l    n(q)    QCUT    max X(q) W(low)/X(q) W(high)/X(q)  e(spline)
   0      7    11.561   115.676    0.20E-03    0.60E-03    0.21E-06
   0      7    11.561    87.132    0.20E-03    0.59E-03    0.21E-06
   1      7    11.561     4.429    0.23E-03    0.35E-03    0.15E-06
   1      7    11.561     2.733    0.18E-03    0.25E-03    0.12E-06
 Optimization of the real space projectors (new method)

[...]

   l    n(q)    QCUT    max X(q) W(low)/X(q) W(high)/X(q)  e(spline)
   1     10    11.641     4.216    0.33E-04    0.72E-04    0.48E-07
   1     10    11.641     5.422    0.11E-03    0.20E-03    0.10E-06
   2      9    11.641    72.084    0.36E-03    0.27E-03    0.57E-06
   2      9    11.641    65.965    0.35E-03    0.27E-03    0.57E-06
   0     10    11.641    41.531    0.11E-03    0.93E-04    0.16E-06
   0     10    11.641    16.290    0.82E-04    0.72E-04    0.13E-06
 Optimization of the real space projectors (new method)

 maximal supplied QI-value         = 24.76
 optimisation between [QCUT,QGAM] = [ 11.64, 23.27] = [ 37.91,151.63] Ry
 Optimized for a Real-space Cutoff    1.04 Angstroem

   l    n(q)    QCUT    max X(q) W(low)/X(q) W(high)/X(q)  e(spline)
   0      7    11.635    20.381    0.14E-03    0.49E-03    0.18E-06
   0      7    11.635    15.268    0.16E-03    0.52E-03    0.19E-06
   1      7    11.635     5.964    0.30E-03    0.44E-03    0.22E-06
   1      7    11.635     5.382    0.27E-03    0.34E-03    0.19E-06
  PAW_PBE C 08Apr2002                   :
  PAW_PBE O 08Apr2002                   :
  PAW_PBE Ti_pv 07Sep2000               :
  PAW_PBE O 08Apr2002                   :

 POSCAR:  C  O Ti  O
  positions in direct lattice
 exchange correlation table for  LEXCH =        8
   RHO(1)=    0.500       N(1)  =     2000
   RHO(2)=  100.500       N(2)  =     4000

 ion  position               nearest neighbor table
   1  0.421  0.500  0.833-   2 1.17   3 1.19
   2  0.360  0.500  0.867-   1 1.17
   3  0.486  0.500  0.800-   1 1.19  83 2.50
   4  0.750  0.625  0.184-  85 1.95 145 1.95 144 1.95  84 1.95  87 1.98 166 1.98  34 2.96  14 2.96

   5  0.000  0.750  0.184-  86 1.95  87 1.95 106 1.95 107 1.95  88 1.98  35 2.96  15 2.96
   6  0.000  0.625  0.314-  88 1.95 148 1.95  89 1.95 149 1.95  90 1.98  91 1.98  36 2.96  16 2.96

[...]

  84  0.750  0.750  0.133-   4 1.95  14 1.95
  85  0.750  0.750  0.235-   4 1.95  14 1.95   7 1.98
  86  0.098  0.625  0.184-   5 1.95  35 1.95  44 1.98
  87  0.902  0.625  0.184-   5 1.95  35 1.95   4 1.98
  88  0.000  0.750  0.263-   6 1.95  16 1.95   5 1.98
  89  0.000  0.750  0.365-   6 1.95  16 1.95   9 1.98
  90  0.848  0.625  0.314-   7 1.95  37 1.95   6 1.98
  91  0.152  0.625  0.314-  47 1.95  77 1.95   6 1.98
  92  0.750  0.750  0.393-   8 1.95  18 1.95   7 1.98
  93  0.750  0.750  0.495-   8 1.95  18 1.95  11 2.11
  94  0.098  0.625  0.444-   9 1.95  39 1.95  48 1.98
  95  0.902  0.625  0.444-   9 1.95  39 1.95   8 1.98
  96  1.000  0.750  0.524-  20 1.89  10 1.90   9 2.00
  97  0.000  0.750  0.626-  13 1.81  10 2.02  20 2.02
  98  0.850  0.625  0.575-  10 1.95  11 1.97  41 1.97
  99  0.150  0.625  0.574-  10 1.95  51 1.97  81 1.97
 100  0.750  0.750  0.654-  11 1.86  22 2.10  12 2.10
 101  0.750  0.750  0.757-  12 1.83  22 1.83
 102  0.094  0.625  0.711-  43 1.95  13 1.95  52 2.02
 103  0.906  0.625  0.711-  43 1.94  13 1.95  12 2.03
 104  0.750  0.000  0.133-  24 1.95  14 1.95
 105  0.750  0.000  0.235-  24 1.95  14 1.95  17 1.98
 106  0.098  0.875  0.184-   5 1.95  15 1.95  54 1.98
 107  0.902  0.875  0.184-   5 1.95  15 1.95  14 1.98
 108  0.000  0.000  0.263-  26 1.95  16 1.95  15 1.98
 109  0.000  0.000  0.365-  26 1.95  16 1.95  19 1.98
 110  0.848  0.875  0.314-   7 1.95  17 1.95  16 1.98
 111  0.152  0.875  0.314-  47 1.95  57 1.95  16 1.98
 112  0.750  0.000  0.393-  28 1.95  18 1.95  17 1.98
 113  0.750  0.000  0.495-  28 1.95  18 1.95  21 2.11
 114  0.098  0.875  0.444-   9 1.95  19 1.95  58 1.98
 115  0.902  0.875  0.444-   9 1.95  19 1.95  18 1.98
 116  1.000  0.000  0.524-  30 1.90  20 1.90  19 2.00
 117  0.000  0.000  0.626-  23 1.81  30 2.02  20 2.02
 118  0.850  0.875  0.575-  20 1.95  21 1.97  11 1.98
 119  0.150  0.875  0.575-  20 1.95  61 1.97  51 1.97
 120  0.750  0.000  0.654-  21 1.86  32 2.10  22 2.10
 121  0.750  0.000  0.757-  32 1.83  22 1.83
 122  0.094  0.875  0.711-  13 1.95  23 1.95  62 2.03
 123  0.906  0.875  0.711-  13 1.94  23 1.95  22 2.03
 124  0.750  0.250  0.133-  24 1.95  34 1.95
 125  0.750  0.250  0.235-  24 1.95  34 1.95  27 1.98
 126  0.098  0.125  0.184-  15 1.95  25 1.95  64 1.98
 127  0.902  0.125  0.184-  15 1.95  25 1.95  24 1.98
 128  0.000  0.250  0.263-  26 1.95  36 1.95  25 1.98
 129  0.000  0.250  0.365-  26 1.95  36 1.95  29 1.98
 130  0.848  0.125  0.314-  17 1.95  27 1.95  26 1.98
 131  0.152  0.125  0.314-  57 1.95  67 1.95  26 1.98
 132  0.750  0.250  0.393-  28 1.95  38 1.95  27 1.98
 133  0.750  0.250  0.495-  28 1.95  38 1.95  31 2.11
 134  0.098  0.125  0.444-  19 1.95  29 1.95  68 1.98
 135  0.902  0.125  0.444-  19 1.95  29 1.95  28 1.98
 136  1.000  0.250  0.524-  30 1.89  40 1.90  29 2.00
 137  0.000  0.250  0.626-  33 1.81  40 2.02  30 2.02
 138  0.850  0.125  0.575-  30 1.95  21 1.97  31 1.98
 139  0.150  0.125  0.575-  30 1.95  61 1.97  71 1.97
 140  0.750  0.250  0.654-  31 1.86  32 2.10  42 2.10
 141  0.750  0.250  0.757-  42 1.83  32 1.83
 142  0.094  0.125  0.711-  33 1.95  23 1.95  72 2.03
 143  0.906  0.125  0.711-  33 1.94  23 1.95  32 2.03
[...]
 229  0.500  0.500  0.365-  76 1.95  46 1.95  79 1.98
 230  0.348  0.375  0.314-  77 1.95  67 1.95  76 1.98
 231  0.652  0.375  0.314-  37 1.95  27 1.95  76 1.98
 232  0.250  0.500  0.393-  78 1.95  48 1.95  77 1.98
 233  0.250  0.500  0.495-  78 1.95  48 1.95  81 2.10
 234  0.598  0.375  0.444-  79 1.95  69 1.95  38 1.98
 235  0.402  0.375  0.444-  79 1.95  69 1.95  78 1.98
 236  0.500  0.500  0.524-  50 1.90  80 1.90  79 2.00
 237  0.500  0.500  0.627-  83 1.83  80 2.01  50 2.01
 238  0.350  0.375  0.575-  80 1.95  81 1.97  71 1.97
 239  0.650  0.375  0.575-  80 1.95  31 1.97  41 1.97
 240  0.248  0.500  0.653-  81 1.86  82 2.10  52 2.10
 241  0.253  0.500  0.756-  52 1.84  82 1.84
 242  0.594  0.374  0.710-  73 1.94  83 1.95  42 2.02
 243  0.405  0.373  0.709-  73 1.93  83 1.95  82 2.03

IMPORTANT INFORMATION: All symmetrisations will be switched off!
NOSYMM: (Re-)initialisation of all symmetry stuff for point group C_1.

                                     Primitive cell

  volume of cell :    3846.0501

  direct lattice vectors                    reciprocal lattice vectors
    13.003980404  0.000000000  0.000000000     0.076899531  0.000000000  0.000000000
     0.000000000 11.830378115  0.000000000     0.000000000  0.084528152  0.000000000
     0.000000000  0.000000000 25.000000000     0.000000000  0.000000000  0.040000000

  length of vectors
    13.003980404 11.830378115 25.000000000     0.076899531  0.084528152  0.040000000

  position of ions in fractional coordinates (direct lattice)
     0.421233206  0.499999967  0.832858386
     0.360274704  0.499999961  0.867301041
     0.486270676  0.499999964  0.799637586
     0.750009005  0.625000004  0.183674327
     0.000009005  0.750000004  0.183674327
     0.000009005  0.625000004  0.313714131
     0.750009005  0.750000004  0.313714131
     0.750009005  0.625000004  0.443753935
     0.000009005  0.750000004  0.443753935
     0.000039268  0.625021959  0.571008767
     0.750041367  0.749971392  0.579098488
     0.749740788  0.625029293  0.713111588
     0.999944200  0.750136611  0.698194134
     0.750009005  0.875000004  0.183674327
     0.000009005  0.000000004  0.183674327
     0.000009005  0.875000004  0.313714131
     0.750009005  0.000000004  0.313714131
     0.750009005  0.875000004  0.443753935
     0.000009005  0.000000004  0.443753935
     0.999929708  0.875024128  0.571049285
     0.749958663  0.000000007  0.579107830
     0.749825759  0.875046720  0.713182670
     0.000212581  0.000000005  0.698204043
     0.750009005  0.125000004  0.183674327
     0.000009005  0.250000004  0.183674327
     0.000009005  0.125000004  0.313714131
     0.750009005  0.250000004  0.313714131
     0.750009005  0.125000004  0.443753935
     0.000009005  0.250000004  0.443753935
     0.999929806  0.124975873  0.571049289
     0.750041514  0.250028642  0.579098486
     0.749825774  0.124953283  0.713182667
     0.999944204  0.249863411  0.698194132
     0.750009005  0.375000004  0.183674327
     0.000009005  0.500000004  0.183674327
     0.000009005  0.375000004  0.313714131
     0.750009005  0.500000004  0.313714131
     0.750009005  0.375000004  0.443753935
     0.000009005  0.500000004  0.443753935
     0.000039403  0.374978048  0.571008760
     0.750106312  0.500000004  0.579131674
     0.749740789  0.374970710  0.713111587
     0.999551305  0.500000007  0.698157090
     0.250009005  0.625000004  0.183674327
     0.500009005  0.750000004  0.183674327
     0.500009005  0.625000004  0.313714131
     0.250009005  0.750000004  0.313714131
     0.250009005  0.625000004  0.443753935
     0.500009005  0.750000004  0.443753935
     0.500040642  0.624340844  0.571661438
     0.249957923  0.750119640  0.578928957
     0.249460416  0.625320994  0.712524348
     0.500152263  0.750053206  0.697671829
     0.250009005  0.875000004  0.183674327
     0.500009005  0.000000004  0.183674327
     0.500009005  0.875000004  0.313714131
     0.250009005  0.000000004  0.313714131
     0.250009005  0.875000004  0.443753935
     0.500009005  0.000000004  0.443753935
     0.500114648  0.874698164  0.570607062
[...]
     0.500009005  0.500000004  0.364689499
     0.348008553  0.375000004  0.313714131
     0.652009456  0.375000004  0.313714131
[...]
     0.000000000  0.000000000 25.000000000     0.000000000  0.000000000  0.040000000

  length of vectors
    13.003980404 11.830378115 25.000000000     0.076899531  0.084528152  0.040000000

 FORCES acting on ions
    electron-ion (+dipol)            ewald-force                    non-local-force                 convergence-correction
   -.202E+02 -.188E-04 -.891E+03   0.193E+02 0.192E-04 0.891E+03   0.746E+00 -.117E-05 0.119E+00   -.273E-02 -.274E-06 -.839E-01
   0.165E+03 0.169E-04 -.117E+04   -.210E+03 -.205E-04 0.122E+04   0.400E+02 0.425E-05 -.424E+02   -.770E-03 -.535E-06 -.118E+00
   -.201E+03 0.102E-04 -.152E+04   0.246E+03 -.116E-04 0.148E+04   -.398E+02 0.220E-05 0.341E+02   -.364E-02 -.185E-05 -.129E+00
   -.254E+01 -.114E+01 0.279E+04   0.254E+01 0.114E+01 -.279E+04   -.187E-03 0.160E-02 0.616E+00   -.368E-03 -.152E-03 0.154E+00
   0.155E+01 -.151E+01 0.297E+04   -.155E+01 0.151E+01 -.296E+04   0.347E-03 -.159E-04 -.416E+01   0.265E-03 -.185E-03 0.154E+00
   0.533E+00 -.320E+00 0.143E+04   -.536E+00 0.320E+00 -.143E+04   0.104E-02 -.849E-02 -.958E-01   0.538E-04 -.218E-04 0.156E+00
   -.750E+00 -.410E+00 0.142E+04   0.748E+00 0.411E+00 -.142E+04   0.848E-03 -.107E-03 0.237E+00   -.219E-04 -.278E-04 0.156E+00
   -.129E+01 -.467E+00 -.384E+01   0.127E+01 0.466E+00 0.470E+01   0.349E-02 -.372E-02 -.159E+00   0.165E-03 0.467E-04 0.910E-01
   0.905E+00 -.943E+00 0.693E+01   -.915E+00 0.949E+00 -.824E+01   0.282E-02 -.191E-02 0.396E+00   0.193E-05 0.396E-04 0.892E-01
   0.416E+01 -.269E+01 -.138E+04   -.416E+01 0.269E+01 0.138E+04   0.438E-03 -.701E-02 0.166E+00   0.562E-04 0.858E-04 -.995E-02
   -.808E+01 -.580E+01 -.142E+04   0.808E+01 0.580E+01 0.142E+04   0.253E-03 -.630E-03 -.268E+00   0.425E-03 0.223E-03 -.184E-01
   -.497E+02 -.200E+02 -.272E+04   0.497E+02 0.201E+02 0.272E+04   0.272E-01 0.408E-02 -.474E+00   0.101E-02 0.321E-03 -.145E+00
   0.938E+01 -.103E+02 -.281E+04   -.940E+01 0.103E+02 0.281E+04   0.144E-01 -.174E-01 0.127E+01   0.447E-03 0.235E-04 -.132E+00
   -.201E+01 -.112E+01 0.279E+04   0.201E+01 0.112E+01 -.279E+04   0.441E-04 -.166E-02 0.616E+00   -.281E-03 -.131E-03 0.155E+00
   0.127E+01 0.285E-05 0.297E+04   -.127E+01 -.401E-06 -.297E+04   0.513E-03 0.178E-07 -.417E+01   0.218E-03 -.242E-05 0.154E+00
   0.463E+00 -.320E+00 0.143E+04   -.466E+00 0.320E+00 -.143E+04   0.911E-03 0.845E-02 -.959E-01   0.459E-04 -.237E-04 0.156E+00
   -.748E+00 -.327E-05 0.142E+04   0.745E+00 0.921E-07 -.142E+04   0.106E-02 -.965E-07 0.240E+00   -.168E-04 0.320E-05 0.156E+00
   -.168E+01 -.467E+00 -.469E+01   0.167E+01 0.468E+00 0.554E+01   0.229E-02 0.389E-02 -.159E+00   0.132E-03 0.292E-04 0.911E-01
   0.689E+00 0.108E-04 0.603E+01   -.695E+00 -.490E-05 -.734E+01   0.177E-02 -.272E-06 0.383E+00   0.247E-05 -.478E-05 0.892E-01
   0.218E+01 -.257E+01 -.139E+04   -.218E+01 0.258E+01 0.139E+04   -.113E-02 0.192E-02 0.170E+00   0.640E-04 0.773E-04 -.995E-02
   -.629E+01 -.174E-04 -.142E+04   0.628E+01 0.150E-04 0.142E+04   0.701E-02 -.109E-06 -.252E+00   0.315E-03 0.272E-05 -.183E-01
   -.204E+02 -.143E+02 -.275E+04   0.204E+02 0.143E+02 0.275E+04   0.313E-01 -.613E-02 -.477E+00   0.349E-03 0.161E-03 -.146E+00
   0.610E+01 -.188E-04 -.282E+04   -.611E+01 0.162E-04 0.282E+04   0.921E-02 0.114E-06 0.128E+01   0.383E-03 0.411E-05 -.132E+00
   -.201E+01 0.112E+01 0.279E+04   0.201E+01 -.112E+01 -.279E+04   0.450E-04 0.166E-02 0.616E+00   -.283E-03 0.132E-03 0.155E+00
   0.155E+01 0.151E+01 0.297E+04   -.155E+01 -.151E+01 -.296E+04   0.348E-03 0.162E-04 -.416E+01   0.263E-03 0.185E-03 0.154E+00
   0.463E+00 0.320E+00 0.143E+04   -.466E+00 -.320E+00 -.143E+04   0.909E-03 -.845E-02 -.959E-01   0.525E-04 0.173E-04 0.156E+00
   -.750E+00 0.410E+00 0.142E+04   0.748E+00 -.411E+00 -.142E+04   0.849E-03 0.109E-03 0.237E+00   -.250E-04 0.220E-04 0.156E+00
   -.168E+01 0.467E+00 -.469E+01   0.167E+01 -.468E+00 0.554E+01   0.229E-02 -.389E-02 -.159E+00   0.133E-03 -.380E-04 0.911E-01
   0.905E+00 0.943E+00 0.693E+01   -.915E+00 -.949E+00 -.824E+01   0.282E-02 0.191E-02 0.396E+00   0.356E-05 -.333E-04 0.892E-01
   0.218E+01 0.257E+01 -.139E+04   -.218E+01 -.258E+01 0.139E+04   -.113E-02 -.192E-02 0.170E+00   0.612E-04 -.718E-04 -.994E-02
   -.808E+01 0.580E+01 -.142E+04   0.808E+01 -.580E+01 0.142E+04   0.254E-03 0.632E-03 -.268E+00   0.429E-03 -.223E-03 -.184E-01
   -.204E+02 0.143E+02 -.275E+04   0.204E+02 -.143E+02 0.275E+04   0.313E-01 0.613E-02 -.477E+00   0.348E-03 -.164E-03 -.146E+00
   0.938E+01 0.103E+02 -.281E+04   -.940E+01 -.103E+02 0.281E+04   0.144E-01 0.174E-01 0.127E+01   0.451E-03 -.291E-04 -.132E+00
   -.254E+01 0.114E+01 0.279E+04   0.254E+01 -.114E+01 -.279E+04   -.185E-03 -.160E-02 0.616E+00   -.366E-03 0.147E-03 0.154E+00
   0.185E+01 -.233E-05 0.297E+04   -.185E+01 0.414E-06 -.296E+04   0.346E-03 0.583E-06 -.417E+01   0.315E-03 0.174E-05 0.154E+00
   0.533E+00 0.320E+00 0.143E+04   -.536E+00 -.320E+00 -.143E+04   0.104E-02 0.849E-02 -.958E-01   0.526E-04 0.257E-04 0.156E+00
   -.754E+00 -.120E-05 0.142E+04   0.752E+00 -.646E-07 -.142E+04   0.762E-03 0.129E-06 0.240E+00   -.348E-04 0.174E-05 0.156E+00
   -.129E+01 0.467E+00 -.384E+01   0.127E+01 -.466E+00 0.470E+01   0.349E-02 0.372E-02 -.159E+00   0.165E-03 -.413E-04 0.910E-01
   0.109E+01 -.647E-05 0.783E+01   -.110E+01 0.600E-05 -.914E+01   0.392E-02 0.396E-06 0.384E+00   -.491E-05 0.268E-06 0.891E-01
   0.416E+01 0.269E+01 -.138E+04   -.416E+01 -.269E+01 0.138E+04   0.441E-03 0.701E-02 0.166E+00   0.545E-04 -.899E-04 -.994E-02
   -.103E+02 -.541E-04 -.141E+04   0.103E+02 0.546E-04 0.141E+04   0.837E-03 0.285E-06 -.270E+00   0.544E-03 -.133E-05 -.186E-01
   -.497E+02 0.200E+02 -.272E+04   0.497E+02 -.201E+02 0.272E+04   0.272E-01 -.407E-02 -.474E+00   0.101E-02 -.318E-03 -.145E+00
   0.141E+02 -.338E-05 -.281E+04   -.141E+02 0.274E-05 0.281E+04   -.155E-01 0.482E-06 0.123E+01   0.509E-03 0.593E-08 -.132E+00
   0.266E+01 -.166E+01 0.278E+04   -.266E+01 0.166E+01 -.279E+04   0.102E-02 0.156E-02 0.617E+00   0.384E-03 -.241E-03 0.154E+00
   -.164E+01 -.239E+01 0.297E+04   0.164E+01 0.239E+01 -.296E+04   0.566E-03 -.233E-03 -.416E+01   -.276E-03 -.328E-03 0.154E+00
   -.535E+00 -.318E+00 0.143E+04   0.538E+00 0.326E+00 -.143E+04   -.142E-03 -.985E-02 -.969E-01   -.576E-04 -.204E-04 0.156E+00
   0.751E+00 -.520E+00 0.142E+04   -.749E+00 0.521E+00 -.142E+04   -.586E-04 -.959E-04 0.240E+00   0.233E-04 -.393E-04 0.156E+00
   0.119E+01 -.765E+00 -.186E+01   -.117E+01 0.776E+00 0.267E+01   -.244E-02 -.518E-02 -.152E+00   -.165E-03 0.403E-04 0.909E-01
   -.885E+00 -.511E+00 0.954E+01   0.892E+00 0.477E+00 -.108E+02   -.699E-03 0.168E-01 0.372E+00   -.110E-05 0.758E-04 0.890E-01
   -.378E+01 -.640E+01 -.137E+04   0.378E+01 0.644E+01 0.137E+04   -.304E-02 -.352E-01 0.176E+00   -.494E-04 0.347E-03 -.111E-01
   0.763E+01 -.767E+01 -.141E+04   -.763E+01 0.768E+01 0.141E+04   0.425E-02 -.828E-02 -.259E+00   -.423E-03 0.223E-03 -.181E-01
   0.700E+02 -.360E+02 -.268E+04   -.700E+02 0.360E+02 0.268E+04   -.371E-01 0.225E-01 -.403E+00   -.102E-02 0.360E-03 -.143E+00
   -.169E+02 -.631E+02 -.276E+04   0.168E+02 0.632E+02 0.276E+04   0.205E-01 0.626E-02 0.135E+01   -.423E-03 0.119E-02 -.131E+00
   0.206E+01 -.159E+01 0.279E+04   -.206E+01 0.159E+01 -.279E+04   0.816E-03 -.167E-02 0.617E+00   0.286E-03 -.225E-03 0.154E+00
   -.131E+01 -.416E-05 0.297E+04   0.131E+01 -.474E-06 -.296E+04   0.561E-03 0.563E-06 -.418E+01   -.214E-03 0.441E-05 0.154E+00
   -.463E+00 -.320E+00 0.143E+04   0.466E+00 0.323E+00 -.143E+04   -.182E-04 0.764E-02 -.973E-01   -.551E-04 -.516E-04 0.156E+00
   0.748E+00 -.159E-05 0.142E+04   -.745E+00 -.135E-06 -.142E+04   -.733E-04 0.331E-06 0.242E+00   0.185E-04 0.207E-05 0.156E+00
   0.161E+01 -.824E+00 -.351E+01   -.160E+01 0.850E+00 0.435E+01   -.169E-02 0.146E-02 -.157E+00   -.128E-03 0.693E-04 0.911E-01
   -.664E+00 -.844E-05 0.105E+02   0.668E+00 0.105E-04 -.118E+02   0.608E-05 0.360E-06 0.361E+00   -.170E-04 -.243E-05 0.891E-01
   -.180E+01 -.829E+01 -.137E+04   0.181E+01 0.827E+01 0.137E+04   -.366E-02 0.243E-01 0.920E-01   -.649E-04 0.268E-03 -.986E-02
[...]
   -.529E+02 0.216E+00 0.855E+03   0.571E+02 -.217E+00 -.856E+03   -.336E+01 0.330E-02 0.171E+00   0.125E-03 0.200E-04 0.941E-01
   0.526E+02 0.177E+00 0.856E+03   -.568E+02 -.178E+00 -.856E+03   0.335E+01 0.278E-02 0.166E+00   -.164E-03 0.190E-04 0.941E-01
   0.467E+00 -.469E-06 0.387E+03   -.461E+00 0.752E-06 -.392E+03   -.637E-02 0.441E-06 0.396E+01   -.528E-04 -.684E-06 0.741E-01
   0.116E+01 0.336E-05 -.404E+03   -.115E+01 -.246E-05 0.411E+03   -.104E-01 0.924E-06 -.678E+01   -.166E-03 -.177E-05 0.319E-01
   -.558E+02 0.591E-01 0.461E+01   0.609E+02 -.637E-01 -.492E+01   -.499E+01 0.129E-01 0.311E+00   0.178E-03 -.291E-04 0.542E-01
   0.548E+02 0.159E+00 0.521E+01   -.599E+02 -.165E+00 -.554E+01   0.497E+01 0.152E-01 0.317E+00   -.193E-03 -.323E-04 0.542E-01
   -.134E+01 0.473E-04 -.437E+03   0.133E+01 -.578E-04 0.430E+03   0.140E-01 0.886E-05 0.628E+01   -.117E-04 0.670E-06 0.177E-01
   -.702E+01 -.664E-04 -.116E+04   0.714E+01 0.715E-04 0.116E+04   -.107E+00 -.421E-05 0.154E+01   -.740E-04 0.209E-06 -.357E-01
   -.245E+02 0.413E+01 -.825E+03   0.276E+02 -.419E+01 0.824E+03   -.280E+01 0.561E-01 0.776E+00   -.552E-03 -.141E-03 -.838E-02
   0.213E+02 0.297E+01 -.828E+03   -.244E+02 -.300E+01 0.827E+03   0.278E+01 0.361E-01 0.875E+00   0.511E-03 -.135E-03 -.842E-02
   0.230E+02 -.373E-04 -.131E+04   -.232E+02 0.367E-04 0.131E+04   0.212E+00 0.145E-05 -.218E+01   -.611E-03 -.233E-06 -.506E-01
   0.864E+02 0.450E-04 -.194E+04   -.863E+02 -.582E-04 0.196E+04   -.131E+00 0.853E-05 -.190E+02   -.994E-03 0.300E-05 -.113E+00
   -.648E+02 0.346E+02 -.168E+04   0.712E+02 -.344E+02 0.168E+04   -.571E+01 -.199E+00 -.336E+01   0.869E-03 -.810E-03 -.873E-01
   0.415E+02 0.477E+02 -.164E+04   -.480E+02 -.476E+02 0.165E+04   0.580E+01 -.438E-01 -.277E+01   -.144E-02 -.102E-02 -.863E-01
   -.184E+01 -.597E-04 0.102E+03   -.145E-11 0.888E-12 0.402E-10   0.167E+01 0.911E-04 -.971E+02   -.665E-02 0.369E-05 0.826E+01

 POSITION                                       TOTAL-FORCE (eV/Angst)
      5.47771      5.91519     20.82146        -0.196430     -0.000001      0.322299
      4.68501      5.91519     21.68253         1.279011      0.000001     -1.361251
      6.32345      5.91519     19.99094        -1.076401     -0.000001      0.946221
      9.75310      7.39399      4.59186         0.001563      0.000278     -3.964465
      0.00012      8.87278      4.59186         0.000472      0.000124      3.337745
      0.00012      7.39399      7.84285        -0.002682     -0.000017      0.569383
      9.75310      8.87278      7.84285        -0.001616      0.000679     -0.806460
      9.75310      7.39399     11.09385        -0.011275     -0.002041      0.789028
      0.00012      8.87278     11.09385        -0.007654      0.004264     -0.829821
      0.00051      7.39425     14.27522         0.000605      0.000992      0.008026
      9.75352      8.87245     14.47746        -0.002899     -0.001293      0.160275
      9.74961      7.39433     17.82779        -0.004190      0.004694      0.288538
     13.00325      8.87440     17.45485        -0.005402      0.001195     -0.164913
      9.75310     10.35158      4.59186         0.000994      0.002104     -3.965708
      0.00012      0.00000      4.59186         0.000140     -0.000000      3.336998
      0.00012     10.35158      7.84285        -0.002263      0.000666      0.569840
      9.75310      0.00000      7.84285        -0.001894     -0.000000     -0.805458
      9.75310     10.35158     11.09385        -0.006158      0.002000      0.788927
      0.00012      0.00000     11.09385        -0.004821      0.000000     -0.828593
     13.00307     10.35187     14.27623        -0.002859      0.000971      0.007866
      9.75245      0.00000     14.47770        -0.003406     -0.000000      0.158304
      9.75072     10.35213     17.82957        -0.001758     -0.000992      0.288829
      0.00276      0.00000     17.45510        -0.003460      0.000001     -0.168222
      9.75310      1.47880      4.59186         0.000994     -0.002104     -3.965709
      0.00012      2.95759      4.59186         0.000472     -0.000124      3.337745
      0.00012      1.47880      7.84285        -0.002265     -0.000666      0.569840
      9.75310      2.95759      7.84285        -0.001615     -0.000680     -0.806458
      9.75310      1.47880     11.09385        -0.006156     -0.002001      0.788925
      0.00012      2.95759     11.09385        -0.007653     -0.004264     -0.829821
     13.00307      1.47851     14.27623        -0.002857     -0.000969      0.007867
      9.75353      2.95793     14.47746        -0.002896      0.001293      0.160275
      9.75072      1.47824     17.82957        -0.001758      0.000993      0.288833
     13.00325      2.95598     17.45485        -0.005400     -0.001196     -0.164914
      9.75310      4.43639      4.59186         0.001563     -0.000279     -3.964465
      0.00012      5.91519      4.59186         0.000794      0.000000      3.336700
      0.00012      4.43639      7.84285        -0.002682      0.000017      0.569384
      9.75310      5.91519      7.84285        -0.001151      0.000000     -0.804536
      9.75310      4.43639     11.09385        -0.011275      0.002042      0.789027
      0.00012      5.91519     11.09385        -0.010084     -0.000000     -0.831944
      0.00051      4.43613     14.27522         0.000607     -0.000993      0.008028
      9.75437      5.91519     14.47829        -0.006117     -0.000001      0.163749
      9.74961      4.43605     17.82779        -0.004191     -0.004695      0.288538
     12.99815      5.91519     17.45393        -0.006756     -0.000001     -0.163634
      3.25111      7.39399      4.59186        -0.001656     -0.001156     -3.969635
      6.50211      8.87278      4.59186        -0.000696      0.001309      3.344177
      6.50211      7.39399      7.84285         0.002537      0.005454      0.574823
      3.25111      8.87278      7.84285         0.001495      0.001299     -0.816386
      3.25111      7.39399     11.09385         0.011668      0.009421      0.753715
      6.50211      8.87278     11.09385         0.006526     -0.015792     -0.780869
      6.50252      7.38619     14.29154         0.002698     -0.000386      0.011073
      3.25045      8.87420     14.47322         0.000981      0.002551      0.153270
      3.24398      7.39778     17.81311         0.014355      0.035002      0.259322
      6.50397      8.87341     17.44180         0.001074      0.001683     -0.181881
      3.25111     10.35158      4.59186        -0.001180      0.001012     -3.968530
      6.50211      0.00000      4.59186        -0.000330     -0.000000      3.342641
      6.50211     10.35158      7.84285         0.002120      0.002808      0.578138
      3.25111      0.00000      7.84285         0.001941      0.000000     -0.812723
      3.25111     10.35158     11.09385         0.006690      0.024377      0.775453
      6.50211      0.00000     11.09385         0.003958     -0.000000     -0.852541
      6.50348     10.34801     14.26518         0.004339     -0.009134      0.015786
[...]
      6.50211      5.91519      9.11724        -0.000886      0.000000     -0.294879
      4.52550      4.43639      7.84285         0.292738      0.002670      0.069773
      8.47872      4.43639      7.84285        -0.295306      0.002341      0.068371
      3.25111      5.91519      9.81946        -0.002009     -0.000000      0.072293
      3.25111      5.91519     12.36823         0.001538      0.000000     -0.240954
      7.77649      4.43639     11.09385        -0.731164      0.012346      0.100338
      5.22772      4.43639     11.09385         0.714960      0.013151      0.101849
      6.50159      5.91519     13.09655         0.002480      0.000001      0.194456
      6.50372      5.91519     15.66579        -0.004203      0.000000     -0.029040
      4.55194      4.43643     14.37281        -0.119313      0.003708      0.017948
      8.45203      4.43688     14.37144         0.116211      0.002989      0.020563
      3.23079      5.91519     16.33221         0.008656      0.000001     -0.085403
      3.29598      5.91519     18.90392        -0.042990     -0.000000     -0.636736
      7.72642      4.42656     17.75727        -0.317193     -0.014653     -0.094953
      5.26802      4.41716     17.73167         0.311326     -0.022559     -0.100080
    total drift:                                0.030178      0.000026     -0.025572

  FREE ENERGIE OF THE ION-ELECTRON SYSTEM (eV)
  free  energy   TOTEN  =     -2850.19132740 eV

  energy  without entropy=    -2850.19132740  energy(sigma->0) =    -2850.19132740