 vasp.6.4.2 20Jul23 (build Feb 22 2024 13:53:45) complex
 executed on              LinuxNV date 2024.08.30  04:45:14
 OpenACC runtime initialized ...    4 GPUs detected

 INCAR:
   SYSTEM = Oxide-Surface
   ISMEAR = 0
   SIGMA = 0.05
   EDIFF = 1E-5
   ALGO = Normal
   IBRION = -1
   NSW = 0
   ISYM = 0
   DIPOL = 0.5 0.5 0.5
   IDIPOL = 3
   LDIPOL = .TRUE.
   ISTART = 0
   LHFCALC = .FALSE.
   GGA = PE
   IVDW = 21
   VDW_SR = 0.96
   HFRCUT = -1
   ENCUT = 520
   PREC = Normal
   PRECFOCK = Normal
   LASPH = .TRUE.
   LREAL = Auto
   ISPIN = 1
   NELM = 200
   NELMIN = 8
   NCORE = 1
   KPAR = 1
   LWAVE = .TRUE.
   LCHARG = .FALSE.

 POTCAR:    PAW_PBE C 08Apr2002
 POTCAR:    PAW_PBE O 08Apr2002
 POTCAR:    PAW_PBE Ti_pv 07Sep2000
 POTCAR:    PAW_PBE O 08Apr2002
 POTCAR:    PAW_PBE C 08Apr2002
   VRHFIN =C: s2p2

   TITEL  = PAW_PBE C 08Apr2002
   POMASS =   12.011; ZVAL   =    4.000    mass and valenz
   ENMAX  =  400.000; ENMIN  =  300.000 eV

[...]

   TITEL  = PAW_PBE Ti_pv 07Sep2000
   POMASS =   47.880; ZVAL   =   10.000    mass and valenz
   ENMAX  =  222.335; ENMIN  =  166.751 eV

   TITEL  = PAW_PBE O 08Apr2002
   POMASS =   16.000; ZVAL   =    6.000    mass and valenz
   ENMAX  =  400.000; ENMIN  =  300.000 eV

 Optimization of the real space projectors (new method)

 maximal supplied QI-value         = 25.13
 optimisation between [QCUT,QGAM] = [ 11.56, 23.12] = [ 37.43,149.72] Ry
 Optimized for a Real-space Cutoff    1.04 Angstroem

   l    n(q)    QCUT    max X(q) W(low)/X(q) W(high)/X(q)  e(spline)
   0      7    11.561   115.676    0.20E-03    0.60E-03    0.21E-06
   0      7    11.561    87.132    0.20E-03    0.59E-03    0.21E-06
   1      7    11.561     4.429    0.23E-03    0.35E-03    0.15E-06
   1      7    11.561     2.733    0.18E-03    0.25E-03    0.12E-06
 Optimization of the real space projectors (new method)

[...]

   l    n(q)    QCUT    max X(q) W(low)/X(q) W(high)/X(q)  e(spline)
   1     10    11.641     4.216    0.33E-04    0.72E-04    0.48E-07
   1     10    11.641     5.422    0.11E-03    0.20E-03    0.10E-06
   2      9    11.641    72.084    0.36E-03    0.27E-03    0.57E-06
   2      9    11.641    65.965    0.35E-03    0.27E-03    0.57E-06
   0     10    11.641    41.531    0.11E-03    0.93E-04    0.16E-06
   0     10    11.641    16.290    0.82E-04    0.72E-04    0.13E-06
 Optimization of the real space projectors (new method)

 maximal supplied QI-value         = 24.76
 optimisation between [QCUT,QGAM] = [ 11.64, 23.27] = [ 37.91,151.63] Ry
 Optimized for a Real-space Cutoff    1.04 Angstroem

   l    n(q)    QCUT    max X(q) W(low)/X(q) W(high)/X(q)  e(spline)
   0      7    11.635    20.381    0.14E-03    0.49E-03    0.18E-06
   0      7    11.635    15.268    0.16E-03    0.52E-03    0.19E-06
   1      7    11.635     5.964    0.30E-03    0.44E-03    0.22E-06
   1      7    11.635     5.382    0.27E-03    0.34E-03    0.19E-06
  PAW_PBE C 08Apr2002                   :
  PAW_PBE O 08Apr2002                   :
  PAW_PBE Ti_pv 07Sep2000               :
  PAW_PBE O 08Apr2002                   :

 POSCAR:  C  O Ti  O
  positions in direct lattice
 exchange correlation table for  LEXCH =        8
   RHO(1)=    0.500       N(1)  =     2000
   RHO(2)=  100.500       N(2)  =     4000

 ion  position               nearest neighbor table
   1  0.421  0.500  0.833-   2 1.17   3 1.19
   2  0.360  0.500  0.867-   1 1.17
   3  0.486  0.500  0.800-   1 1.19  83 2.50
   4  0.750  0.625  0.184-  85 1.95 145 1.95 144 1.95  84 1.95  87 1.98 166 1.98  34 2.96  14 2.96

   5  0.000  0.750  0.184-  86 1.95  87 1.95 106 1.95 107 1.95  88 1.98  35 2.96  15 2.96
   6  0.000  0.625  0.314-  88 1.95 148 1.95  89 1.95 149 1.95  90 1.98  91 1.98  36 2.96  16 2.96

[...]

  84  0.750  0.750  0.133-   4 1.95  14 1.95
  85  0.750  0.750  0.235-   4 1.95  14 1.95   7 1.98
  86  0.098  0.625  0.184-   5 1.95  35 1.95  44 1.98
  87  0.902  0.625  0.184-   5 1.95  35 1.95   4 1.98
  88  0.000  0.750  0.263-   6 1.95  16 1.95   5 1.98
  89  0.000  0.750  0.365-   6 1.95  16 1.95   9 1.98
  90  0.848  0.625  0.314-   7 1.95  37 1.95   6 1.98
  91  0.152  0.625  0.314-  47 1.95  77 1.95   6 1.98
  92  0.750  0.750  0.393-   8 1.95  18 1.95   7 1.98
  93  0.750  0.750  0.495-   8 1.95  18 1.95  11 2.11
  94  0.098  0.625  0.444-   9 1.95  39 1.95  48 1.98
  95  0.902  0.625  0.444-   9 1.95  39 1.95   8 1.98
  96  1.000  0.750  0.524-  20 1.89  10 1.90   9 2.00
  97  0.000  0.750  0.626-  13 1.81  10 2.02  20 2.02
  98  0.850  0.625  0.575-  10 1.95  11 1.97  41 1.97
  99  0.150  0.625  0.574-  10 1.95  51 1.97  81 1.97
 100  0.750  0.750  0.654-  11 1.86  22 2.10  12 2.10
 101  0.750  0.750  0.757-  12 1.83  22 1.83
 102  0.094  0.625  0.711-  43 1.95  13 1.95  52 2.02
 103  0.906  0.625  0.711-  43 1.94  13 1.95  12 2.03
 104  0.750  0.000  0.133-  24 1.95  14 1.95
 105  0.750  0.000  0.235-  24 1.95  14 1.95  17 1.98
 106  0.098  0.875  0.184-   5 1.95  15 1.95  54 1.98
 107  0.902  0.875  0.184-   5 1.95  15 1.95  14 1.98
 108  0.000  0.000  0.263-  26 1.95  16 1.95  15 1.98
 109  0.000  0.000  0.365-  26 1.95  16 1.95  19 1.98
 110  0.848  0.875  0.314-   7 1.95  17 1.95  16 1.98
 111  0.152  0.875  0.314-  47 1.95  57 1.95  16 1.98
 112  0.750  0.000  0.393-  28 1.95  18 1.95  17 1.98
 113  0.750  0.000  0.495-  28 1.95  18 1.95  21 2.11
 114  0.098  0.875  0.444-   9 1.95  19 1.95  58 1.98
 115  0.902  0.875  0.444-   9 1.95  19 1.95  18 1.98
 116  1.000  0.000  0.524-  30 1.90  20 1.90  19 2.00
 117  0.000  0.000  0.626-  23 1.81  30 2.02  20 2.02
 118  0.850  0.875  0.575-  20 1.95  21 1.97  11 1.98
 119  0.150  0.875  0.575-  20 1.95  61 1.97  51 1.97
 120  0.750  0.000  0.654-  21 1.86  32 2.10  22 2.10
 121  0.750  0.000  0.757-  32 1.83  22 1.83
 122  0.094  0.875  0.711-  13 1.95  23 1.95  62 2.03
 123  0.906  0.875  0.711-  13 1.94  23 1.95  22 2.03
 124  0.750  0.250  0.133-  24 1.95  34 1.95
 125  0.750  0.250  0.235-  24 1.95  34 1.95  27 1.98
 126  0.098  0.125  0.184-  15 1.95  25 1.95  64 1.98
 127  0.902  0.125  0.184-  15 1.95  25 1.95  24 1.98
 128  0.000  0.250  0.263-  26 1.95  36 1.95  25 1.98
 129  0.000  0.250  0.365-  26 1.95  36 1.95  29 1.98
 130  0.848  0.125  0.314-  17 1.95  27 1.95  26 1.98
 131  0.152  0.125  0.314-  57 1.95  67 1.95  26 1.98
 132  0.750  0.250  0.393-  28 1.95  38 1.95  27 1.98
 133  0.750  0.250  0.495-  28 1.95  38 1.95  31 2.11
 134  0.098  0.125  0.444-  19 1.95  29 1.95  68 1.98
 135  0.902  0.125  0.444-  19 1.95  29 1.95  28 1.98
 136  1.000  0.250  0.524-  30 1.89  40 1.90  29 2.00
 137  0.000  0.250  0.626-  33 1.81  40 2.02  30 2.02
 138  0.850  0.125  0.575-  30 1.95  21 1.97  31 1.98
 139  0.150  0.125  0.575-  30 1.95  61 1.97  71 1.97
 140  0.750  0.250  0.654-  31 1.86  32 2.10  42 2.10
 141  0.750  0.250  0.757-  42 1.83  32 1.83
 142  0.094  0.125  0.711-  33 1.95  23 1.95  72 2.03
 143  0.906  0.125  0.711-  33 1.94  23 1.95  32 2.03
[...]
 229  0.500  0.500  0.365-  76 1.95  46 1.95  79 1.98
 230  0.348  0.375  0.314-  77 1.95  67 1.95  76 1.98
 231  0.652  0.375  0.314-  37 1.95  27 1.95  76 1.98
 232  0.250  0.500  0.393-  78 1.95  48 1.95  77 1.98
 233  0.250  0.500  0.495-  78 1.95  48 1.95  81 2.10
 234  0.598  0.375  0.444-  79 1.95  69 1.95  38 1.98
 235  0.402  0.375  0.444-  79 1.95  69 1.95  78 1.98
 236  0.500  0.500  0.524-  50 1.90  80 1.90  79 2.00
 237  0.500  0.500  0.627-  83 1.83  80 2.01  50 2.01
 238  0.350  0.375  0.575-  80 1.95  81 1.97  71 1.97
 239  0.650  0.375  0.575-  80 1.95  31 1.97  41 1.97
 240  0.248  0.500  0.653-  81 1.86  82 2.10  52 2.10
 241  0.253  0.500  0.756-  52 1.84  82 1.84
 242  0.594  0.374  0.710-  73 1.94  83 1.95  42 2.02
 243  0.405  0.373  0.709-  73 1.93  83 1.95  82 2.03

IMPORTANT INFORMATION: All symmetrisations will be switched off!
NOSYMM: (Re-)initialisation of all symmetry stuff for point group C_1.

                                     Primitive cell

  volume of cell :    3846.0501

  direct lattice vectors                    reciprocal lattice vectors
    13.003980404  0.000000000  0.000000000     0.076899531  0.000000000  0.000000000
     0.000000000 11.830378115  0.000000000     0.000000000  0.084528152  0.000000000
     0.000000000  0.000000000 25.000000000     0.000000000  0.000000000  0.040000000

  length of vectors
    13.003980404 11.830378115 25.000000000     0.076899531  0.084528152  0.040000000

  position of ions in fractional coordinates (direct lattice)
     0.421233206  0.499999967  0.832858386
     0.360274704  0.499999961  0.867301041
     0.486270676  0.499999964  0.799637586
     0.750009005  0.625000004  0.183674327
     0.000009005  0.750000004  0.183674327
     0.000009005  0.625000004  0.313714131
     0.750009005  0.750000004  0.313714131
     0.750009005  0.625000004  0.443753935
     0.000009005  0.750000004  0.443753935
     0.000039268  0.625021959  0.571008767
     0.750041367  0.749971392  0.579098488
     0.749740788  0.625029293  0.713111588
     0.999944200  0.750136611  0.698194134
     0.750009005  0.875000004  0.183674327
     0.000009005  0.000000004  0.183674327
     0.000009005  0.875000004  0.313714131
     0.750009005  0.000000004  0.313714131
     0.750009005  0.875000004  0.443753935
     0.000009005  0.000000004  0.443753935
     0.999929708  0.875024128  0.571049285
     0.749958663  0.000000007  0.579107830
     0.749825759  0.875046720  0.713182670
     0.000212581  0.000000005  0.698204043
     0.750009005  0.125000004  0.183674327
     0.000009005  0.250000004  0.183674327
     0.000009005  0.125000004  0.313714131
     0.750009005  0.250000004  0.313714131
     0.750009005  0.125000004  0.443753935
     0.000009005  0.250000004  0.443753935
     0.999929806  0.124975873  0.571049289
     0.750041514  0.250028642  0.579098486
     0.749825774  0.124953283  0.713182667
     0.999944204  0.249863411  0.698194132
     0.750009005  0.375000004  0.183674327
     0.000009005  0.500000004  0.183674327
     0.000009005  0.375000004  0.313714131
     0.750009005  0.500000004  0.313714131
     0.750009005  0.375000004  0.443753935
     0.000009005  0.500000004  0.443753935
     0.000039403  0.374978048  0.571008760
     0.750106312  0.500000004  0.579131674
     0.749740789  0.374970710  0.713111587
     0.999551305  0.500000007  0.698157090
     0.250009005  0.625000004  0.183674327
     0.500009005  0.750000004  0.183674327
     0.500009005  0.625000004  0.313714131
     0.250009005  0.750000004  0.313714131
     0.250009005  0.625000004  0.443753935
     0.500009005  0.750000004  0.443753935
     0.500040642  0.624340844  0.571661438
     0.249957923  0.750119640  0.578928957
     0.249460416  0.625320994  0.712524348
     0.500152263  0.750053206  0.697671829
     0.250009005  0.875000004  0.183674327
     0.500009005  0.000000004  0.183674327
     0.500009005  0.875000004  0.313714131
     0.250009005  0.000000004  0.313714131
     0.250009005  0.875000004  0.443753935
     0.500009005  0.000000004  0.443753935
     0.500114648  0.874698164  0.570607062
[...]
     0.500009005  0.500000004  0.364689499
     0.348008553  0.375000004  0.313714131
     0.652009456  0.375000004  0.313714131
[...]
     0.000000000  0.000000000 25.000000000     0.000000000  0.000000000  0.040000000

  length of vectors
    13.003980404 11.830378115 25.000000000     0.076899531  0.084528152  0.040000000

 FORCES acting on ions
    electron-ion (+dipol)            ewald-force                    non-local-force                 convergence-correction
   -.201E+02 -.208E-04 -.891E+03   0.193E+02 0.192E-04 0.891E+03   0.853E+00 -.133E-05 0.133E+00   -.413E-03 0.183E-05 0.335E-03
   0.166E+03 0.146E-04 -.117E+04   -.210E+03 -.205E-04 0.122E+04   0.448E+02 0.374E-05 -.476E+02   -.205E-03 0.178E-05 -.733E-04
   -.202E+03 0.462E-05 -.152E+04   0.246E+03 -.116E-04 0.148E+04   -.445E+02 0.246E-05 0.385E+02   0.115E-03 0.417E-05 0.252E-03
   -.254E+01 -.114E+01 0.279E+04   0.254E+01 0.114E+01 -.279E+04   -.466E-03 -.867E-03 0.438E+00   0.123E-03 0.212E-03 0.502E-03
   0.155E+01 -.151E+01 0.297E+04   -.155E+01 0.151E+01 -.296E+04   0.133E-04 -.119E-04 -.389E+01   -.139E-03 0.139E-03 -.183E-03
   0.534E+00 -.320E+00 0.143E+04   -.536E+00 0.320E+00 -.143E+04   0.493E-03 -.298E-03 -.443E-01   0.117E-04 -.156E-04 0.111E-03
   -.750E+00 -.410E+00 0.142E+04   0.748E+00 0.411E+00 -.142E+04   0.412E-03 -.528E-04 0.199E+00   -.412E-05 -.185E-04 -.174E-03
   -.128E+01 -.467E+00 -.384E+01   0.127E+01 0.466E+00 0.470E+01   0.221E-02 -.333E-03 -.138E+00   -.228E-04 -.215E-04 -.121E-04
   0.907E+00 -.944E+00 0.715E+01   -.915E+00 0.949E+00 -.824E+01   0.200E-02 -.172E-02 0.353E+00   0.246E-04 -.329E-04 0.828E-05
   0.416E+01 -.269E+01 -.138E+04   -.416E+01 0.269E+01 0.138E+04   0.255E-03 -.318E-02 0.105E-01   0.245E-04 -.260E-04 0.283E-03
   -.808E+01 -.580E+01 -.142E+04   0.808E+01 0.580E+01 0.142E+04   -.232E-02 -.219E-02 -.474E-01   -.221E-04 -.255E-04 0.446E-03
   -.497E+02 -.200E+02 -.272E+04   0.497E+02 0.201E+02 0.272E+04   0.170E-01 -.918E-02 -.173E+00   0.466E-05 -.286E-04 0.187E-02
   0.939E+01 -.103E+02 -.281E+04   -.940E+01 0.103E+02 0.281E+04   0.104E-01 -.372E-02 0.942E+00   -.328E-04 0.468E-04 0.104E-02
   -.201E+01 -.112E+01 0.279E+04   0.201E+01 0.112E+01 -.279E+04   -.267E-03 0.898E-03 0.438E+00   0.942E-04 0.620E-04 0.264E-03
   0.127E+01 -.132E-04 0.297E+04   -.127E+01 -.401E-06 -.297E+04   0.648E-04 0.751E-06 -.389E+01   -.930E-04 0.137E-04 -.347E-03
   0.463E+00 -.320E+00 0.143E+04   -.466E+00 0.320E+00 -.143E+04   0.380E-03 0.339E-03 -.444E-01   0.121E-04 0.181E-04 0.575E-04
   -.748E+00 0.165E-04 0.142E+04   0.745E+00 0.921E-07 -.142E+04   0.572E-03 -.228E-06 0.201E+00   -.308E-05 -.178E-04 -.209E-03
   -.168E+01 -.466E+00 -.469E+01   0.167E+01 0.468E+00 0.554E+01   0.154E-02 0.497E-03 -.138E+00   -.187E-04 -.403E-04 -.131E-04
   0.690E+00 0.414E-05 0.625E+01   -.695E+00 -.490E-05 -.734E+01   0.977E-03 -.220E-06 0.351E+00   0.319E-04 0.653E-06 -.215E-05
   0.219E+01 -.258E+01 -.139E+04   -.218E+01 0.258E+01 0.139E+04   -.236E-02 -.358E-02 0.110E-01   0.320E-04 -.566E-05 0.310E-03
   -.629E+01 -.151E-04 -.142E+04   0.628E+01 0.150E-04 0.142E+04   0.576E-02 0.270E-06 -.430E-01   -.240E-04 0.837E-06 0.473E-03
   -.204E+02 -.143E+02 -.275E+04   0.204E+02 0.143E+02 0.275E+04   0.263E-01 0.154E-02 -.176E+00   0.149E-04 0.152E-03 0.202E-02
   0.610E+01 -.256E-04 -.282E+04   -.611E+01 0.162E-04 0.282E+04   0.623E-02 -.742E-06 0.957E+00   -.297E-04 0.131E-04 0.114E-02
   -.201E+01 0.112E+01 0.279E+04   0.201E+01 -.112E+01 -.279E+04   -.270E-03 -.891E-03 0.438E+00   0.105E-03 -.260E-04 0.160E-03
   0.155E+01 0.151E+01 0.297E+04   -.155E+01 -.151E+01 -.296E+04   0.123E-04 0.117E-04 -.389E+01   -.978E-04 -.179E-03 -.193E-03
   0.463E+00 0.320E+00 0.143E+04   -.466E+00 -.320E+00 -.143E+04   0.380E-03 -.340E-03 -.444E-01   0.232E-04 -.236E-04 0.634E-04
   -.750E+00 0.410E+00 0.142E+04   0.748E+00 -.411E+00 -.142E+04   0.413E-03 0.533E-04 0.199E+00   -.733E-05 0.154E-04 -.141E-03
   -.168E+01 0.466E+00 -.469E+01   0.167E+01 -.468E+00 0.554E+01   0.154E-02 -.498E-03 -.138E+00   -.176E-04 0.359E-04 -.210E-05
   0.907E+00 0.944E+00 0.715E+01   -.915E+00 -.949E+00 -.824E+01   0.200E-02 0.172E-02 0.353E+00   0.261E-04 0.367E-04 0.136E-04
   0.219E+01 0.258E+01 -.139E+04   -.218E+01 -.258E+01 0.139E+04   -.236E-02 0.358E-02 0.110E-01   0.299E-04 0.893E-05 0.307E-03
   -.808E+01 0.580E+01 -.142E+04   0.808E+01 -.580E+01 0.142E+04   -.232E-02 0.219E-02 -.474E-01   -.281E-04 0.251E-04 0.436E-03
   -.204E+02 0.143E+02 -.275E+04   0.204E+02 -.143E+02 0.275E+04   0.263E-01 -.154E-02 -.176E+00   -.675E-05 -.221E-03 0.199E-02
   0.939E+01 0.103E+02 -.281E+04   -.940E+01 -.103E+02 0.281E+04   0.104E-01 0.372E-02 0.942E+00   0.233E-05 -.637E-04 0.104E-02
   -.254E+01 0.114E+01 0.279E+04   0.254E+01 -.114E+01 -.279E+04   -.470E-03 0.860E-03 0.438E+00   0.102E-03 -.242E-03 0.398E-03
   0.185E+01 -.291E-04 0.297E+04   -.185E+01 0.414E-06 -.296E+04   -.642E-04 -.101E-05 -.389E+01   -.681E-04 0.287E-04 -.303E-04
   0.534E+00 0.320E+00 0.143E+04   -.536E+00 -.320E+00 -.143E+04   0.493E-03 0.298E-03 -.443E-01   0.163E-04 0.203E-04 0.124E-03
   -.753E+00 -.194E-04 0.142E+04   0.752E+00 -.646E-07 -.142E+04   0.258E-03 -.130E-06 0.201E+00   -.486E-05 0.214E-04 -.865E-04
   -.128E+01 0.467E+00 -.384E+01   0.127E+01 -.466E+00 0.470E+01   0.221E-02 0.334E-03 -.138E+00   -.158E-04 0.268E-04 -.897E-06
   0.109E+01 -.243E-05 0.805E+01   -.110E+01 0.600E-05 -.914E+01   0.301E-02 -.283E-06 0.352E+00   0.208E-04 -.423E-05 0.137E-04
   0.416E+01 0.269E+01 -.138E+04   -.416E+01 -.269E+01 0.138E+04   0.256E-03 0.318E-02 0.105E-01   0.332E-04 0.224E-04 0.278E-03
   -.103E+02 -.539E-04 -.141E+04   0.103E+02 0.546E-04 0.141E+04   0.195E-02 -.427E-06 -.559E-01   -.200E-04 -.126E-05 0.422E-03
   -.497E+02 0.200E+02 -.272E+04   0.497E+02 -.201E+02 0.272E+04   0.170E-01 0.917E-02 -.173E+00   -.854E-05 0.948E-04 0.182E-02
   0.141E+02 -.728E-05 -.281E+04   -.141E+02 0.274E-05 0.281E+04   -.189E-01 -.361E-07 0.924E+00   0.464E-05 0.388E-05 0.924E-03
   0.266E+01 -.166E+01 0.278E+04   -.266E+01 0.166E+01 -.279E+04   0.492E-03 -.986E-03 0.438E+00   -.124E-03 -.120E-03 0.691E-03
   -.164E+01 -.239E+01 0.297E+04   0.164E+01 0.239E+01 -.296E+04   0.114E-03 -.187E-03 -.389E+01   0.120E-03 0.219E-03 0.788E-04
   -.535E+00 -.319E+00 0.143E+04   0.538E+00 0.326E+00 -.143E+04   -.338E-03 -.165E-02 -.450E-01   -.607E-05 -.129E-04 0.167E-03
   0.751E+00 -.520E+00 0.142E+04   -.749E+00 0.521E+00 -.142E+04   -.337E-03 0.535E-04 0.201E+00   -.117E-05 -.125E-04 -.683E-04
   0.118E+01 -.766E+00 -.186E+01   -.117E+01 0.776E+00 0.267E+01   -.165E-02 -.133E-02 -.132E+00   0.206E-04 -.265E-04 -.198E-04
   -.886E+00 -.505E+00 0.975E+01   0.892E+00 0.477E+00 -.108E+02   -.818E-03 0.175E-01 0.330E+00   -.217E-04 -.388E-04 0.199E-04
   -.378E+01 -.640E+01 -.137E+04   0.378E+01 0.644E+01 0.137E+04   -.121E-02 -.421E-01 0.228E-01   -.226E-04 0.333E-05 0.262E-03
   0.763E+01 -.767E+01 -.141E+04   -.763E+01 0.768E+01 0.141E+04   0.521E-02 -.578E-02 -.566E-01   0.201E-04 -.184E-04 0.427E-03
   0.700E+02 -.361E+02 -.268E+04   -.700E+02 0.360E+02 0.268E+04   -.252E-01 0.249E-01 -.112E+00   0.195E-05 -.841E-04 0.173E-02
   -.169E+02 -.631E+02 -.276E+04   0.168E+02 0.632E+02 0.276E+04   0.293E-01 -.290E-01 0.103E+01   0.230E-04 0.895E-04 0.900E-03
   0.206E+01 -.159E+01 0.279E+04   -.206E+01 0.159E+01 -.279E+04   0.312E-03 0.889E-03 0.438E+00   -.565E-04 0.305E-03 0.443E-03
   -.131E+01 -.131E-04 0.297E+04   0.131E+01 -.474E-06 -.296E+04   0.309E-04 0.152E-05 -.389E+01   0.528E-04 0.163E-04 -.133E-03
   -.464E+00 -.320E+00 0.143E+04   0.466E+00 0.323E+00 -.143E+04   -.226E-03 -.598E-03 -.452E-01   -.100E-04 0.686E-05 0.106E-03
   0.748E+00 -.416E-05 0.142E+04   -.745E+00 -.135E-06 -.142E+04   -.390E-03 0.140E-06 0.202E+00   0.505E-05 0.429E-05 -.130E-03
   0.161E+01 -.827E+00 -.350E+01   -.160E+01 0.850E+00 0.435E+01   -.158E-02 -.955E-03 -.137E+00   0.144E-04 -.154E-04 -.308E-04
   -.665E+00 -.632E-05 0.107E+02   0.668E+00 0.105E-04 -.118E+02   -.124E-03 -.311E-08 0.335E+00   -.279E-04 -.387E-05 0.537E-05
   -.181E+01 -.827E+01 -.137E+04   0.181E+01 0.827E+01 0.137E+04   -.596E-03 -.368E-02 -.570E-01   -.284E-04 -.320E-04 0.327E-03
[...]
   -.531E+02 0.216E+00 0.855E+03   0.571E+02 -.217E+00 -.856E+03   -.355E+01 0.353E-02 0.159E+00   -.697E-04 0.288E-05 -.190E-04
   0.528E+02 0.178E+00 0.856E+03   -.568E+02 -.178E+00 -.856E+03   0.355E+01 0.307E-02 0.155E+00   0.602E-04 0.430E-05 -.286E-04
   0.466E+00 -.165E-06 0.387E+03   -.461E+00 0.752E-06 -.392E+03   -.599E-02 -.310E-06 0.416E+01   0.789E-05 -.444E-06 -.606E-05
   0.116E+01 0.481E-05 -.404E+03   -.115E+01 -.246E-05 0.411E+03   -.121E-01 -.971E-07 -.708E+01   0.106E-04 -.242E-05 -.799E-04
   -.562E+02 0.612E-01 0.469E+01   0.609E+02 -.637E-01 -.492E+01   -.518E+01 0.140E-01 0.321E+00   -.933E-05 0.144E-04 -.693E-05
   0.552E+02 0.161E+00 0.530E+01   -.599E+02 -.165E+00 -.554E+01   0.516E+01 0.164E-01 0.327E+00   -.139E-04 0.113E-04 -.111E-04
   -.134E+01 0.506E-04 -.437E+03   0.133E+01 -.578E-04 0.430E+03   0.152E-01 0.115E-04 0.660E+01   -.131E-04 -.249E-05 0.354E-04
   -.703E+01 -.685E-04 -.116E+04   0.714E+01 0.715E-04 0.116E+04   -.112E+00 -.413E-05 0.172E+01   -.376E-05 0.188E-05 0.121E-03
   -.246E+02 0.413E+01 -.825E+03   0.276E+02 -.419E+01 0.824E+03   -.304E+01 0.578E-01 0.808E+00   0.591E-04 0.111E-04 0.139E-03
   0.214E+02 0.297E+01 -.828E+03   -.244E+02 -.300E+01 0.827E+03   0.302E+01 0.375E-01 0.910E+00   -.601E-04 0.606E-05 0.144E-03
   0.230E+02 -.454E-04 -.131E+04   -.232E+02 0.367E-04 0.131E+04   0.228E+00 -.183E-05 -.218E+01   -.901E-05 0.136E-04 0.718E-04
   0.864E+02 0.345E-04 -.194E+04   -.863E+02 -.582E-04 0.196E+04   -.137E+00 0.735E-05 -.200E+02   -.915E-05 0.213E-04 0.119E-02
   -.653E+02 0.346E+02 -.168E+04   0.712E+02 -.344E+02 0.168E+04   -.587E+01 -.220E+00 -.338E+01   -.605E-04 -.595E-04 0.706E-03
   0.420E+02 0.477E+02 -.164E+04   -.480E+02 -.476E+02 0.165E+04   0.597E+01 -.539E-01 -.276E+01   0.980E-04 -.596E-04 0.656E-03
   -.178E+01 -.562E-04 0.101E+03   -.145E-11 0.888E-12 0.402E-10   0.181E+01 0.630E-04 -.101E+03   -.322E-03 0.694E-05 0.589E-01

 POSITION                                       TOTAL-FORCE (eV/Angst)
      5.47771      5.91519     20.82146        -0.029707     -0.000001      0.094665
      4.68501      5.91519     21.68253         0.197096     -0.000000     -0.193460
      6.32345      5.91519     19.99094        -0.144163     -0.000000      0.134989
      9.75310      7.39399      4.59186         0.001324      0.000200     -3.472829
      0.00012      8.87278      4.59186         0.000219      0.000144      2.750597
      0.00012      7.39399      7.84285        -0.002330      0.000149      0.524929
      9.75310      8.87278      7.84285        -0.001353      0.000630     -0.707187
      9.75310      7.39399     11.09385        -0.009082     -0.001659      0.709752
      0.00012      8.87278     11.09385        -0.006284      0.003449     -0.737018
      0.00051      7.39425     14.27522         0.000777      0.000553      0.088630
      9.75352      8.87245     14.47746        -0.000530      0.000298     -0.045769
      9.74961      7.39433     17.82779         0.009036      0.005770     -0.001031
     13.00325      8.87440     17.45485         0.001176     -0.004846      0.076218
      9.75310     10.35158      4.59186         0.000820      0.001799     -3.473902
      0.00012      0.00000      4.59186        -0.000048      0.000001      2.749929
      0.00012     10.35158      7.84285        -0.002029      0.000367      0.525268
      9.75310      0.00000      7.84285        -0.001642     -0.000002     -0.705806
      9.75310     10.35158     11.09385        -0.005379      0.002042      0.709416
      0.00012      0.00000     11.09385        -0.003999     -0.000000     -0.736243
     13.00307     10.35187     14.27623        -0.000310     -0.000056      0.088845
      9.75245      0.00000     14.47770        -0.000540      0.000001     -0.044964
      9.75072     10.35213     17.82957         0.000967      0.000072     -0.000213
      0.00276      0.00000     17.45510         0.000052      0.000003      0.074162
      9.75310      1.47880      4.59186         0.000817     -0.001796     -3.473907
      0.00012      2.95759      4.59186         0.000220     -0.000144      2.750596
      0.00012      1.47880      7.84285        -0.002028     -0.000369      0.525268
      9.75310      2.95759      7.84285        -0.001353     -0.000630     -0.707184
      9.75310      1.47880     11.09385        -0.005379     -0.002044      0.709417
      0.00012      2.95759     11.09385        -0.006284     -0.003447     -0.737017
     13.00307      1.47851     14.27623        -0.000312      0.000057      0.088844
      9.75353      2.95793     14.47746        -0.000528     -0.000298     -0.045770
      9.75072      1.47824     17.82957         0.000968     -0.000080     -0.000214
     13.00325      2.95598     17.45485         0.001179      0.004843      0.076219
      9.75310      4.43639      4.59186         0.001321     -0.000205     -3.472836
      0.00012      5.91519      4.59186         0.000470     -0.000001      2.749786
      0.00012      4.43639      7.84285        -0.002329     -0.000147      0.524929
      9.75310      5.91519      7.84285        -0.000995      0.000002     -0.705281
      9.75310      4.43639     11.09385        -0.009081      0.001661      0.709752
      0.00012      5.91519     11.09385        -0.008327     -0.000001     -0.738786
      0.00051      4.43613     14.27522         0.000778     -0.000553      0.088630
      9.75437      5.91519     14.47829        -0.002159     -0.000001     -0.045908
      9.74961      4.43605     17.82779         0.009037     -0.005763     -0.001038
     12.99815      5.91519     17.45393        -0.000923     -0.000001      0.076808
      3.25111      7.39399      4.59186        -0.001425     -0.000835     -3.476967
      6.50211      8.87278      4.59186        -0.000417      0.001189      2.756099
      6.50211      7.39399      7.84285         0.002182      0.005072      0.529601
      3.25111      8.87278      7.84285         0.001239      0.001153     -0.715655
      3.25111      7.39399     11.09385         0.009602      0.008471      0.677299
      6.50211      8.87278     11.09385         0.005466     -0.010481     -0.694130
      6.50252      7.38619     14.29154         0.000244     -0.000132      0.081842
      3.25045      8.87420     14.47322         0.001122     -0.002715     -0.044955
      3.24398      7.39778     17.81311        -0.016072      0.009631     -0.006737
      6.50397      8.87341     17.44180         0.003123      0.016997      0.066407
      3.25111     10.35158      4.59186        -0.001005      0.001034     -3.476030
      6.50211      0.00000      4.59186        -0.000138      0.000004      2.754718
      6.50211     10.35158      7.84285         0.001890      0.002328      0.532576
      3.25111      0.00000      7.84285         0.001619      0.000000     -0.712183
      3.25111     10.35158     11.09385         0.005938      0.022096      0.697504
      6.50211      0.00000     11.09385         0.003271      0.000000     -0.762275
      6.50348     10.34801     14.26518         0.000653      0.001009      0.085641
[...]
      6.50211      5.91519      9.11724        -0.000691      0.000001     -0.102455
      4.52550      4.43639      7.84285         0.444238      0.002562      0.056293
      8.47872      4.43639      7.84285        -0.446498      0.002286      0.055245
      3.25111      5.91519      9.81946        -0.001668     -0.000000     -0.117063
      3.25111      5.91519     12.36823         0.001501     -0.000000      0.071277
      7.77649      4.43639     11.09385        -0.478300      0.011406      0.085330
      5.22772      4.43639     11.09385         0.464611      0.012008      0.086506
      6.50159      5.91519     13.09655         0.002330      0.000002     -0.045027
      6.50372      5.91519     15.66579        -0.000872      0.000001     -0.039985
      4.55194      4.43643     14.37281        -0.016289      0.002054     -0.001307
      8.45203      4.43688     14.37144         0.016555      0.001878     -0.001508
      3.23079      5.91519     16.33221         0.002812      0.000003      0.042632
      3.29598      5.91519     18.90392        -0.031760      0.000005      0.037445
      7.72642      4.42656     17.75727        -0.002102     -0.008354      0.049791
      5.26802      4.41716     17.73167         0.005005     -0.020284      0.024867
    total drift:                                0.028961      0.000014     -0.022900

  FREE ENERGIE OF THE ION-ELECTRON SYSTEM (eV)
  free  energy   TOTEN  =     -2176.99986555 eV

  energy  without entropy=    -2176.99986555  energy(sigma->0) =    -2176.99986555

 writing wavefunctions