 vasp.6.3.0 20Jan22 (build Dec 25 2023 18:06:01) gamma-only
 executed on        HPECrayEX_GCC date 2024.11.25  22:02:51

 INCAR:
   SYSTEM = MgO-rocksalt
   ISMEAR = 0
   SIGMA = 0.05
   EDIFF = 1E-4
   ALGO = ALL
   ISTART = 0
   IBRION = -1
   NSW = 0
   ISYM = 0
   DIPOL = 0.5 0.5 0.5
   IDIPOL = 3
   LDIPOL = .TRUE.
   LHFCALC = .TRUE.
   GGA = B5
   AEXX = 0.2
   AGGAX = 0.72
   AGGAC = 0.81
   ALDAC = 0.19
   IVDW = 1
   VDW_S6 = 1.05
   VDW_C6 = 0.14 0.70 0.63 0.70
   VDW_R0 = 1.001 1.342 1.243 1.342
   ENCUT = 520
   PREC = Accurate
   LASPH = .TRUE.
   LREAL = Auto
   ISPIN = 1
   NELM = 50
   NELMIN = 8
   NCORE = 8
   KPAR = 1
   LWAVE = .FALSE.
   LCHARG = .FALSE.

 POTCAR:    PAW_PBE H 15Jun2001
 POTCAR:    PAW_PBE O 08Apr2002
 POTCAR:    PAW_PBE Mg_pv 13Apr2007
 POTCAR:    PAW_PBE O 08Apr2002
 POTCAR:    PAW_PBE H 15Jun2001
   VRHFIN =H: ultrasoft test

   TITEL  = PAW_PBE H 15Jun2001
   POMASS =    1.000; ZVAL   =    1.000    mass and valenz
   ENMAX  =  250.000; ENMIN  =  200.000 eV

   TITEL  = PAW_PBE O 08Apr2002
   POMASS =   16.000; ZVAL   =    6.000    mass and valenz
   ENMAX  =  400.000; ENMIN  =  300.000 eV

   TITEL  = PAW_PBE Mg_pv 13Apr2007
   POMASS =   24.305; ZVAL   =    8.000    mass and valenz
   ENMAX  =  403.929; ENMIN  =  302.947 eV

   TITEL  = PAW_PBE O 08Apr2002
   POMASS =   16.000; ZVAL   =    6.000    mass and valenz
   ENMAX  =  400.000; ENMIN  =  300.000 eV

 Optimization of the real space projectors (new method)

 maximal supplied QI-value         = 34.20
 optimisation between [QCUT,QGAM] = [ 11.63, 23.26] = [ 37.87,151.49] Ry
 Optimized for a Real-space Cutoff    1.21 Angstroem

   l    n(q)    QCUT    max X(q) W(low)/X(q) W(high)/X(q)  e(spline)
   0      8    11.629    19.460    0.17E-03    0.34E-03    0.21E-06
   0      8    11.629    12.209    0.16E-03    0.33E-03    0.21E-06
   1      8    11.629     4.655    0.18E-03    0.16E-03    0.26E-06
 Optimization of the real space projectors (new method)

[...]

   l    n(q)    QCUT    max X(q) W(low)/X(q) W(high)/X(q)  e(spline)
   1      8    11.527     2.974    0.44E-04    0.56E-04    0.12E-06
   1      8    11.527     4.279    0.12E-03    0.12E-03    0.26E-06
   0      9    11.527    16.381    0.46E-04    0.64E-04    0.78E-07
   0      9    11.527     5.611    0.26E-04    0.43E-04    0.55E-07
   2      8    11.527     4.652    0.22E-03    0.72E-04    0.47E-07
 Optimization of the real space projectors (new method)

 maximal supplied QI-value         = 24.76
 optimisation between [QCUT,QGAM] = [ 11.64, 23.27] = [ 37.91,151.63] Ry
 Optimized for a Real-space Cutoff    1.14 Angstroem

   l    n(q)    QCUT    max X(q) W(low)/X(q) W(high)/X(q)  e(spline)
   0      8    11.635    20.381    0.10E-03    0.33E-03    0.24E-06
   0      8    11.635    15.268    0.11E-03    0.35E-03    0.26E-06
   1      7    11.635     5.964    0.24E-03    0.31E-03    0.30E-06
   1      7    11.635     5.382    0.22E-03    0.25E-03    0.26E-06
|               ----> ADVICE to this user running VASP <----                  |
|     You enforced a specific xc type in the INCAR file but a different       |
|     type was found in the POTCAR file.                                      |
|     I HOPE YOU KNOW WHAT YOU ARE DOING!                                     |

  PAW_PBE H 15Jun2001                   :
  PAW_PBE O 08Apr2002                   :
  PAW_PBE Mg_pv 13Apr2007               :
  PAW_PBE O 08Apr2002                   :

 POSCAR:  H  O Mg  O
  positions in direct lattice
  velocities in cartesian coordinates
 exchange correlation table for  LEXCH =       12
   RHO(1)=    0.500       N(1)  =     2000
   RHO(2)=  100.500       N(2)  =     4000

 ion  position               nearest neighbor table
   1  0.455  0.451  0.762-  12 1.03
   2  0.356  0.373  0.787-   9 0.97
   3  0.581  0.331  0.764-  10 1.00
   4  0.674  0.343  0.767-  10 0.97
   5  0.451  0.316  0.761-  11 1.12   9 1.35
   6  0.489  0.228  0.785-  11 0.97
   7  0.618  0.494  0.708- 242 0.98
   8  0.471  0.544  0.771-  12 0.97
   9  0.398  0.377  0.756-   2 0.97   5 1.35  36 2.12
  10  0.626  0.369  0.755-   4 0.97   3 1.00  84 2.17
  11  0.499  0.272  0.757-   6 0.97   5 1.12  91 2.18
  12  0.495  0.496  0.754-   8 0.97   1 1.03 115 2.15
  13  0.000  0.375  0.352- 141 2.11 144 2.11 151 2.11 175 2.11 224 2.11
  14  0.125  0.000  0.352- 142 2.11 143 2.11 152 2.11 159 2.11 176 2.11
  15  0.000  0.000  0.451- 143 2.11 142 2.11 149 2.11 173 2.11 222 2.11 147 2.12
  16  0.125  0.375  0.451- 144 2.11 141 2.11 150 2.11 157 2.11 174 2.11 148 2.12
  17  0.000  0.375  0.550- 148 2.10 155 2.11 179 2.12 228 2.12 141 2.12 145 2.15
  18  0.125  0.000  0.550- 156 2.11 163 2.11 180 2.11 147 2.11 142 2.12 146 2.15
  19  0.000  1.000  0.649- 146 2.10 153 2.11 226 2.11 147 2.11 177 2.11
  20  0.125  0.375  0.649- 161 2.08 148 2.11 154 2.11 145 2.11 178 2.12
  21  0.000  0.125  0.352- 149 2.11 143 2.11 151 2.11 152 2.11 232 2.11
  22  0.125  0.250  0.352- 150 2.11 144 2.11 151 2.11 152 2.11 167 2.11
  23  0.000  0.250  0.451- 151 2.11 149 2.11 150 2.11 141 2.11 230 2.11 155 2.12
  24  0.125  0.125  0.451- 152 2.11 149 2.11 150 2.11 142 2.11 165 2.11 156 2.12
  25  0.000  0.125  0.550- 156 2.10 147 2.11 155 2.11 236 2.11 149 2.12 153 2.15
  26  0.125  0.250  0.550- 171 2.10 148 2.11 156 2.11 155 2.12 150 2.12 154 2.15
  27  0.001  0.250  0.649- 154 2.10 153 2.11 155 2.11 234 2.11 145 2.12
  28  0.125  0.125  0.649- 169 2.10 154 2.11 156 2.11 146 2.11 153 2.11
  29  0.250  0.375  0.352- 157 2.11 144 2.11 160 2.11 167 2.11 191 2.11
  30  0.375  0.000  0.352- 158 2.11 159 2.11 168 2.11 192 2.11 207 2.11
  31  0.250  0.000  0.451- 159 2.11 158 2.11 142 2.11 165 2.11 189 2.11 163 2.12
  32  0.375  0.375  0.451- 160 2.11 157 2.11 166 2.11 190 2.11 205 2.11 164 2.12
  33  0.251  0.375  0.551- 164 2.09 171 2.11 195 2.12 148 2.14 157 2.14 161 2.14
  34  0.375  0.000  0.550- 172 2.10 211 2.11 163 2.11 196 2.12 158 2.12 162 2.15
  35  0.250  0.000  0.649- 169 2.10 162 2.11 163 2.11 146 2.11 193 2.11
  36  0.374  0.374  0.659-   9 2.12 161 2.13 170 2.13 209 2.17 194 2.18
  37  0.250  0.125  0.352- 165 2.11 159 2.11 152 2.11 167 2.11 168 2.11
  38  0.375  0.250  0.352- 166 2.11 160 2.11 167 2.11 168 2.11 215 2.11
  39  0.250  0.250  0.451- 167 2.11 157 2.11 165 2.11 166 2.11 150 2.11 171 2.11
  40  0.375  0.125  0.451- 168 2.11 165 2.11 166 2.11 158 2.11 213 2.11 172 2.11
  41  0.250  0.125  0.550- 171 2.10 172 2.10 156 2.12 163 2.12 165 2.12 169 2.15
  42  0.376  0.251  0.551- 164 2.10 170 2.10 219 2.10 171 2.13 172 2.14 166 2.15
  43  0.250  0.250  0.648- 170 2.08 171 2.11 161 2.11 169 2.12 154 2.12
  44  0.375  0.125  0.648- 170 2.08 172 2.10 217 2.12 169 2.12 162 2.12
  45  0.000  0.875  0.352- 173 2.11 143 2.11 176 2.11 183 2.11 256 2.11
  46  0.125  0.500  0.352- 174 2.11 144 2.11 175 2.11 184 2.11 191 2.11
  47  0.000  0.500  0.451- 175 2.11 174 2.11 141 2.11 181 2.11 254 2.11 179 2.12
  48  0.125  0.875  0.451- 176 2.11 173 2.11 142 2.11 182 2.11 189 2.11 180 2.12
  49  0.000  0.875  0.550- 180 2.11 147 2.11 187 2.11 260 2.11 173 2.12 177 2.15
  50  0.125  0.500  0.550- 195 2.09 148 2.11 179 2.11 188 2.12 174 2.12 178 2.15
  51  0.001  0.500  0.649- 178 2.09 258 2.10 179 2.11 145 2.11 185 2.12
  52  0.125  0.875  0.649- 146 2.10 193 2.11 186 2.11 180 2.11 177 2.11
  53  0.000  0.625  0.352- 181 2.11 175 2.11 183 2.11 184 2.11 264 2.11
  54  0.125  0.750  0.352- 182 2.11 176 2.11 183 2.11 184 2.11 199 2.11
  55  0.000  0.750  0.451- 183 2.11 181 2.11 182 2.11 173 2.11 262 2.11 187 2.12
  56  0.125  0.625  0.451- 184 2.11 181 2.11 182 2.11 174 2.11 197 2.11 188 2.12
  57  0.000  0.625  0.550- 188 2.10 187 2.11 179 2.11 268 2.12 181 2.12 185 2.15
  58  0.125  0.750  0.550- 203 2.11 180 2.11 188 2.11 187 2.11 182 2.12 186 2.15
  59  0.000  0.750  0.649- 186 2.10 177 2.10 187 2.11 185 2.11 266 2.11
  60  0.125  0.625  0.649- 201 2.09 178 2.11 188 2.11 185 2.11 186 2.11
[...]
 254  0.875  0.500  0.451- 126 2.11  96 2.11  47 2.11 127 2.11 136 2.11 130 2.12
 255  0.750  0.500  0.352- 127 2.11 110 2.11 126 2.11  93 2.11 133 2.11
 256  0.875  0.875  0.352- 128 2.11  94 2.11 125 2.11  45 2.11 134 2.11
 257  0.750  0.875  0.651- 139 2.09  99 2.11 132 2.11 116 2.12 129 2.15
 258  0.876  0.500  0.651- 131 2.04  51 2.10 140 2.12 100 2.13 130 2.16
 259  0.748  0.500  0.552- 131 2.08 114 2.10 137 2.11  97 2.12 130 2.15 127 2.16
 260  0.875  0.875  0.550- 138 2.10 129 2.11 132 2.11  49 2.11  98 2.11 128 2.12
 261  0.750  0.625  0.451- 133 2.11 127 2.11 120 2.11 135 2.11 136 2.11 137 2.13
 262  0.875  0.750  0.451- 134 2.11 128 2.11  55 2.11 135 2.11 136 2.11 138 2.12
 263  0.750  0.750  0.352- 135 2.11 125 2.11 133 2.11 134 2.11 118 2.11
 264  0.875  0.625  0.352- 136 2.11 126 2.11 133 2.11 134 2.11  53 2.11
 265  0.750  0.625  0.652- 131 2.12 124 2.12 139 2.13 140 2.13 137 2.15
 266  0.875  0.750  0.651- 140 2.10 139 2.10 132 2.11  59 2.11 138 2.15
 267  0.750  0.750  0.550- 137 2.10 139 2.11 122 2.11 138 2.12 129 2.12 135 2.12
 268  0.875  0.625  0.550- 137 2.10 140 2.11 130 2.11 138 2.12  57 2.12 136 2.12

IMPORTANT INFORMATION: All symmetrisations will be switched off!
NOSYMM: (Re-)initialisation of all symmetry stuff for point group C_1.

                                     Primitive cell

  volume of cell :    6079.2794

  direct lattice vectors                    reciprocal lattice vectors
    16.881969308  0.000000000  0.000000000     0.059234796  0.000000000  0.000000000
     0.000000000 16.881969308  0.000000000     0.000000000  0.059234796  0.000000000
     0.000000000  0.000000000 21.330738491     0.000000000  0.000000000  0.046880702

  length of vectors
    16.881969308 16.881969308 21.330738491     0.059234796  0.059234796  0.046880702

  position of ions in fractional coordinates (direct lattice)
     0.454952297  0.450679083  0.761650957
     0.355532226  0.372815326  0.786579602
     0.581354248  0.331303927  0.763804079
     0.674247474  0.342842760  0.767260901
     0.450504221  0.316371457  0.761263871
     0.488953074  0.228366438  0.785323628
     0.617854620  0.493860564  0.708485981
     0.470725556  0.543685030  0.770815212
     0.398289219  0.376585777  0.756438141
     0.625682443  0.369307491  0.754800651
     0.499441554  0.272002590  0.756970706
     0.494895823  0.495937885  0.754258061
     0.000000000  0.375000000  0.351605267
     0.125000000  0.000000000  0.351605267
     0.000000000  0.000000000  0.450535089
     0.125000000  0.375000000  0.450535089
     0.000473976  0.374839352  0.550038770
     0.125122728  0.000110445  0.550026380
     0.000271183  0.999976755  0.648669490
     0.125276386  0.374687369  0.648673277
     0.000000000  0.125000000  0.351605267
     0.125000000  0.250000000  0.351605267
     0.000000000  0.250000000  0.450535089
     0.125000000  0.125000000  0.450535089
     0.000228269  0.124918322  0.550003507
     0.125355629  0.250049933  0.550026627
     0.000525619  0.249531629  0.648621620
     0.125210776  0.124900046  0.648639180
     0.250000000  0.375000000  0.351605267
     0.375000000  0.000000000  0.351605267
     0.250000000  0.000000000  0.450535089
     0.375000000  0.375000000  0.450535089
[...]
   6.33073849  2.11024616  9.61024616
   4.22522201  2.11533367 11.73223801
   6.34538704  4.24062877 11.76101764
   4.22461022  4.21886870 13.83157321
   6.32713645  2.11341128 13.82886400
   0.00000000 14.77172314  7.50000000
   2.11024616  8.44098465  7.50000000
   0.00000000  8.44098465  9.61024616
   2.11024616 14.77172314  9.61024616
   0.00239630 14.77372090 11.73219952
   2.11429003  8.43723843 11.73059479
   0.01507147  8.44157921 13.83752452
   2.11024377 14.77569251 13.83666830
   0.00000000 10.55123082  7.50000000
   2.11024616 12.66147698  7.50000000
   0.00000000 12.66147698  9.61024616
   2.11024616 10.55123082  9.61024616
   0.00625321 10.55297297 11.73287093
   2.11098733 12.66360800 11.73196628
   0.00701195 12.66864877 13.83655462
   2.11126955 10.55624881 13.83545653
[...]
  14.77172314  8.44098465  9.61024616
  12.66147698  8.44098465  7.50000000
  14.77172314 14.77172314  7.50000000
  12.66847310 14.77321712 13.88441682
  14.79696011  8.44689501 13.88881145
  12.63336716  8.44598375 11.76522190
  14.77178463 14.76904302 11.72718678
  12.66147698 10.55123082  9.61024616
  14.77172314 12.66147698  9.61024616
  12.66147698 12.66147698  7.50000000
  14.77172314 10.55123082  7.50000000
  12.66281943 10.55243016 13.89791811
  14.77469291 12.66454659 13.88417903
  12.65837932 12.65770827 11.73100929
  14.76781333 10.54785846 11.73114508

--------------------------------------- Iteration      FINAL  ---------------------------------------

--------------------OUTCAR has been truncated-------------------------

[...]

--------------------OUTCAR has been truncated-------------------------

  DFT-D2 method for vdW energy calculation

  Parameters of vdW forcefield:
         C6(Jnm^6/mol)     R0(A)
   H        0.140          1.001
   O        0.700          1.342
   Mg       0.630          1.243
   O        0.700          1.342

  vdW correction parametrized for the method   h
      

  IVDW =   1
  VDW_RADIUS =    50.000 A
  VDW_S6 =     1.050
  VDW_SR =     1.000
  VDW_D =    20.000
  LVDW_EWALD = F

  Number of pair interactions contributing to vdW energy: 3130792
  Edisp (eV):  -20.99148

 VOLUME and BASIS-vectors are now :
  energy-cutoff  :      520.00
  volume of cell :     6079.28
      direct lattice vectors                 reciprocal lattice vectors
    16.881969308  0.000000000  0.000000000     0.059234796  0.000000000  0.000000000
     0.000000000 16.881969308  0.000000000     0.000000000  0.059234796  0.000000000
     0.000000000  0.000000000 21.330738491     0.000000000  0.000000000  0.046880702

  length of vectors
    16.881969308 16.881969308 21.330738491     0.059234796  0.059234796  0.046880702

 FORCES acting on ions:
    Electron-Ion                     Ewald-Force                    Non-Local-Force
   0.393E+02 0.149E+02 -.286E+03   -.431E+02 -.195E+02 0.287E+03   0.392E+01 0.469E+01 -.920E+00
   0.884E+02 0.537E+01 -.308E+03   -.944E+02 -.585E+01 0.313E+03   0.603E+01 0.495E+00 -.533E+01
   0.216E+02 0.445E+02 -.288E+03   -.271E+02 -.488E+02 0.289E+03   0.551E+01 0.446E+01 -.132E+01
   -.957E+02 0.403E+02 -.290E+03   0.103E+03 -.438E+02 0.293E+03   -.703E+01 0.359E+01 -.221E+01
   0.310E+02 0.425E+01 -.280E+03   -.331E+02 -.229E+01 0.281E+03   0.222E+01 -.201E+01 -.289E+00
   0.153E+02 0.900E+02 -.305E+03   -.167E+02 -.963E+02 0.310E+03   0.140E+01 0.624E+01 -.504E+01
   -.108E+02 -.123E+02 -.344E+03   0.924E+01 0.110E+02 0.351E+03   0.153E+01 0.136E+01 -.764E+01
   0.363E+02 -.952E+02 -.295E+03   -.396E+02 0.102E+03 0.298E+03   0.329E+01 -.688E+01 -.296E+01
   0.156E+03 -.140E+02 -.165E+04   -.136E+03 0.204E+02 0.162E+04   -.180E+02 -.575E+01 0.190E+02
   -.154E+03 -.510E+02 -.166E+04   0.145E+03 0.898E+02 0.165E+04   0.746E+01 -.349E+02 0.988E+01
   -.316E+02 0.163E+03 -.164E+04   0.515E+02 -.149E+03 0.162E+04   -.179E+02 -.127E+02 0.195E+02
   -.548E+02 -.155E+03 -.166E+04   0.899E+02 0.145E+03 0.165E+04   -.317E+02 0.969E+01 0.109E+02
   0.662E+00 -.431E+00 0.208E+04   -.530E+00 0.372E+00 -.207E+04   -.918E-01 0.402E-01 -.639E+01
   0.316E+01 0.321E+01 0.208E+04   -.311E+01 -.316E+01 -.207E+04   -.391E-01 -.374E-01 -.640E+01
   -.120E+00 0.471E+01 0.703E+03   0.187E+00 -.467E+01 -.703E+03   -.440E-01 -.287E-01 0.429E+00
   0.847E+01 0.255E+00 0.713E+03   -.813E+01 -.304E+00 -.714E+03   -.217E+00 0.320E-01 0.349E+00
   0.348E+01 -.989E+00 -.657E+03   -.298E+01 0.843E+00 0.657E+03   -.452E+00 0.132E+00 -.619E-01
   0.911E+01 0.924E+01 -.667E+03   -.896E+01 -.909E+01 0.667E+03   -.135E+00 -.132E+00 -.823E-01
   -.273E+00 0.108E+02 -.204E+04   0.419E+00 -.107E+02 0.203E+04   -.131E+00 -.838E-01 0.530E+01
   0.522E+02 -.266E+00 -.201E+04   -.512E+02 0.464E-01 0.201E+04   -.931E+00 0.198E+00 0.528E+01
   0.562E-02 0.402E+01 0.208E+04   0.602E-01 -.400E+01 -.207E+04   -.459E-01 -.775E-02 -.640E+01
   0.445E+01 0.302E+01 0.208E+04   -.433E+01 -.302E+01 -.207E+04   -.826E-01 -.153E-02 -.643E+01
   -.143E+00 0.394E+01 0.709E+03   0.300E+00 -.398E+01 -.709E+03   -.104E+00 0.303E-01 0.440E+00
   0.638E+01 0.720E+01 0.708E+03   -.625E+01 -.714E+01 -.708E+03   -.856E-01 -.394E-01 0.389E+00
   -.975E-01 0.104E+02 -.664E+03   0.274E+00 -.104E+02 0.664E+03   -.158E+00 0.951E-02 -.657E-01
   0.215E+02 0.105E+02 -.652E+03   -.210E+02 -.104E+02 0.652E+03   -.477E+00 -.800E-01 -.856E-01
   0.109E+01 0.117E+02 -.203E+04   -.610E+00 -.119E+02 0.202E+04   -.431E+00 0.171E+00 0.532E+01
   0.251E+02 0.231E+02 -.203E+04   -.247E+02 -.229E+02 0.202E+04   -.382E+00 -.169E+00 0.530E+01
   0.645E+01 -.125E-01 0.208E+04   -.638E+01 -.518E-01 -.208E+04   -.437E-01 0.440E-01 -.652E+01
   0.306E+01 0.453E+01 0.208E+04   -.307E+01 -.442E+01 -.207E+04   0.789E-02 -.759E-01 -.642E+01
   0.723E+01 0.648E+01 0.708E+03   -.719E+01 -.636E+01 -.708E+03   -.315E-01 -.824E-01 0.393E+00
   0.693E+01 -.239E+00 0.734E+03   -.697E+01 0.109E-01 -.734E+03   0.415E-01 0.149E+00 -.687E-01
   0.389E+02 0.850E+00 -.628E+03   -.379E+02 -.105E+01 0.629E+03   -.950E+00 0.176E+00 -.490E+00
   0.104E+02 0.217E+02 -.652E+03   -.103E+02 -.212E+02 0.652E+03   -.283E-01 -.443E+00 -.656E-01
   0.227E+02 0.253E+02 -.203E+04   -.225E+02 -.249E+02 0.202E+04   -.123E+00 -.369E+00 0.530E+01
   0.138E+03 0.213E+01 -.183E+04   -.138E+03 -.293E+01 0.183E+04   0.455E-01 0.722E+00 -.411E+00
   0.528E+01 0.528E+01 0.208E+04   -.522E+01 -.521E+01 -.207E+04   -.448E-01 -.515E-01 -.644E+01
   0.420E+01 0.416E+01 0.209E+04   -.422E+01 -.416E+01 -.208E+04   0.149E-01 -.113E-02 -.657E+01
   0.109E+02 0.658E+01 0.720E+03   -.106E+02 -.645E+01 -.720E+03   -.176E+00 -.858E-01 0.234E+00
   0.682E+01 0.107E+02 0.720E+03   -.674E+01 -.104E+02 -.721E+03   -.534E-01 -.188E+00 0.228E+00
   0.229E+02 0.230E+02 -.646E+03   -.226E+02 -.227E+02 0.646E+03   -.271E+00 -.307E+00 -.914E-01
   0.271E+02 0.269E+02 -.603E+03   -.266E+02 -.261E+02 0.605E+03   -.475E+00 -.713E+00 -.146E+01
   0.876E+02 0.461E+02 -.197E+04   -.866E+02 -.460E+02 0.197E+04   -.947E+00 -.168E+00 0.537E+01
   0.455E+02 0.883E+02 -.197E+04   -.455E+02 -.872E+02 0.197E+04   -.415E-01 -.101E+01 0.537E+01
   0.341E+00 0.388E+00 0.208E+04   -.284E+00 -.339E+00 -.207E+04   -.395E-01 -.340E-01 -.639E+01
   0.483E+01 -.318E+01 0.208E+04   -.472E+01 0.311E+01 -.207E+04   -.780E-01 0.438E-01 -.643E+01
   0.195E+01 -.487E+01 0.709E+03   -.163E+01 0.482E+01 -.709E+03   -.220E+00 0.311E-01 0.461E+00
   0.461E+01 -.179E-01 0.703E+03   -.456E+01 0.719E-01 -.703E+03   -.321E-01 -.361E-01 0.427E+00
   0.104E+01 0.108E+01 -.670E+03   -.893E+00 -.951E+00 0.670E+03   -.135E+00 -.118E+00 -.727E-01
   0.233E+02 -.104E+02 -.651E+03   -.228E+02 0.102E+02 0.651E+03   -.500E+00 0.213E+00 -.177E-01
   0.142E+01 -.126E+02 -.203E+04   -.960E+00 0.125E+02 0.202E+04   -.414E+00 0.623E-01 0.528E+01
   0.106E+02 -.322E+00 -.204E+04   -.105E+02 0.432E+00 0.203E+04   -.913E-01 -.980E-01 0.530E+01
   0.106E+01 -.397E+01 0.208E+04   -.942E+00 0.397E+01 -.207E+04   -.820E-01 0.157E-02 -.638E+01
   0.348E+01 -.306E+01 0.208E+04   -.342E+01 0.306E+01 -.207E+04   -.366E-01 -.488E-02 -.639E+01
   0.129E+01 -.378E+01 0.703E+03   -.117E+01 0.382E+01 -.703E+03   -.776E-01 -.318E-01 0.448E+00
   0.767E+01 -.742E+01 0.709E+03   -.757E+01 0.736E+01 -.709E+03   -.701E-01 0.400E-01 0.400E+00
   0.512E+01 -.105E+02 -.664E+03   -.465E+01 0.105E+02 0.664E+03   -.429E+00 -.243E-01 -.866E-01
   0.103E+02 -.928E+01 -.666E+03   -.101E+02 0.928E+01 0.666E+03   -.130E+00 -.114E-02 -.787E-01
   0.258E+01 -.986E+01 -.204E+04   -.218E+01 0.100E+02 0.203E+04   -.365E+00 -.143E+00 0.530E+01
   0.270E+02 -.224E+02 -.203E+04   -.265E+02 0.223E+02 0.202E+04   -.383E+00 0.761E-01 0.529E+01
[...]
   -.460E+01 -.333E+01 0.156E+04   0.464E+01 0.328E+01 -.157E+04   -.504E-01 0.631E-01 0.329E+01
   -.189E+01 0.578E+00 0.156E+04   0.192E+01 -.533E+00 -.156E+04   -.277E-01 -.527E-01 0.315E+01
   -.115E+02 -.972E+00 -.155E+04   0.114E+02 0.124E+01 0.155E+04   0.109E+00 -.245E+00 -.459E+01
   -.372E+02 -.147E+02 -.153E+04   0.386E+02 0.146E+02 0.154E+04   -.129E+01 0.157E+00 -.453E+01
   -.165E+02 -.141E+02 -.484E+03   0.168E+02 0.139E+02 0.483E+03   -.283E+00 0.169E+00 0.759E+00
   -.513E+01 0.814E+00 -.496E+03   0.518E+01 -.699E+00 0.496E+03   -.439E-01 -.105E+00 0.231E+00
   -.581E+01 -.582E+01 0.530E+03   0.595E+01 0.596E+01 -.530E+03   -.173E+00 -.186E+00 0.489E-01
   -.222E+01 -.220E+01 0.527E+03   0.228E+01 0.226E+01 -.527E+03   -.802E-01 -.791E-01 -.986E-02
   -.306E+01 -.192E+01 0.156E+04   0.308E+01 0.198E+01 -.156E+04   -.250E-01 -.750E-01 0.320E+01
   -.193E+01 -.308E+01 0.156E+04   0.200E+01 0.310E+01 -.156E+04   -.774E-01 -.288E-01 0.320E+01
   -.310E+02 -.316E+02 -.153E+04   0.310E+02 0.316E+02 0.153E+04   -.319E-02 -.188E-01 -.459E+01
   -.112E+02 -.112E+02 -.155E+04   0.114E+02 0.114E+02 0.155E+04   -.242E+00 -.235E+00 -.457E+01
   -.929E+01 -.723E+01 -.489E+03   0.937E+01 0.741E+01 0.489E+03   -.715E-01 -.168E+00 0.303E+00
   -.731E+01 -.944E+01 -.489E+03   0.751E+01 0.953E+01 0.489E+03   -.183E+00 -.780E-01 0.305E+00
   0.548E+02 0.409E+02 0.243E+02   -.568E-12 -.341E-12 -.118E-10   -.474E+02 -.354E+02 -.232E+02

 POSITION                                       TOTAL-FORCE (eV/Angst)
      7.68049      7.60835     16.24658         0.285673      0.197036     -0.121836
      6.00208      6.29386     16.77832         0.241491      0.057248     -0.267746
      9.81440      5.59306     16.29251         0.199656      0.284620     -0.125598
     11.38263      5.78786     16.36624        -0.281888      0.221123     -0.118918
      7.60540      5.34097     16.23832         0.240584     -0.083502     -0.135566
      8.25449      3.85528     16.75153         0.100713      0.256406     -0.247407
     10.43060      8.33734     15.11253         0.081804      0.067351     -0.394929
      7.94677      9.17847     16.44206         0.197669     -0.274358     -0.147197
      6.72391      6.35751     16.13538        -0.268192     -0.095740      0.220871
     10.56275      6.23464     16.10046         0.039112     -0.499751      0.102345
      8.43156      4.59194     16.14674        -0.317099     -0.116485      0.238381
      8.35482      8.37241     16.08888        -0.480011      0.043542      0.116792
      0.00000      6.33074      7.50000         0.029414     -0.013824      0.453959
      2.11025      0.00000      7.50000         0.012870      0.012081      0.463634
      0.00000      0.00000      9.61025         0.016959      0.010454      0.028903
      2.11025      6.33074      9.61025         0.090094     -0.012307      0.073578
      0.00800      6.32803     11.73273         0.008008     -0.002081      0.022716
      2.11232      0.00186     11.73247         0.003609      0.002670      0.023037
      0.00458     16.88158     13.83660         0.002397      0.001903     -0.066947
      2.11491      6.32546     13.83668         0.016132     -0.004008     -0.068352
      0.00000      2.11025      7.50000         0.014555      0.002905      0.460983
      2.11025      4.22049      7.50000         0.026581      0.001058      0.472435
      0.00000      4.22049      9.61025         0.041056     -0.011061      0.027139
      2.11025      2.11025      9.61025         0.032271      0.014878      0.042834
      0.00385      2.10887     11.73198         0.003440     -0.000138      0.022810
      2.11625      4.22134     11.73247         0.012103      0.001392      0.022804
      0.00887      4.21259     13.83558         0.007005     -0.001492     -0.068056
      2.11380      2.10856     13.83595         0.007842      0.003024     -0.069227
      4.22049      6.33074      7.50000         0.014894     -0.015053      0.502105
      6.33074      0.00000      7.50000        -0.001939      0.024189      0.471197
      4.22049      0.00000      9.61025         0.011700      0.030943      0.041457
      6.33074      6.33074      9.61025         0.002502     -0.059913      0.177345
      4.24097      6.32712     11.74996         0.017226     -0.004197      0.027271
      6.33069      0.00492     11.73210         0.000116      0.009531      0.022135
      4.21854      0.00297     13.83593         0.002053      0.006738     -0.068382
      6.31928      6.31621     14.05327         0.003776     -0.016658      0.110668
      4.22049      2.11025      7.50000         0.014902      0.017167      0.477936
      6.33074      4.22049      7.50000        -0.004406      0.001139      0.516364
      4.22049      4.22049      9.61025         0.077631      0.036006      0.107140
      6.33074      2.11025      9.61025         0.022859      0.082751      0.104919
      4.22522      2.11533     11.73224         0.004630      0.007648      0.022425
      6.34539      4.24063     11.76102         0.011645      0.012101      0.047114
      4.22461      4.21887     13.83157         0.010277      0.001021     -0.083108
      6.32714      2.11341     13.82886        -0.005116      0.012247     -0.085771
      0.00000     14.77172      7.50000         0.012842      0.010873      0.454471
      2.11025      8.44098      7.50000         0.025277     -0.014784      0.470311
      0.00000      8.44098      9.61025         0.076132     -0.011427      0.018997
      2.11025     14.77172      9.61025         0.011951      0.013865      0.029982
      0.00240     14.77372     11.73220         0.002873      0.002821      0.022549
      2.11429      8.43724     11.73059         0.012215     -0.003709      0.021921
      0.01507      8.44158     13.83752         0.003771     -0.001118     -0.064665
      2.11024     14.77569     13.83667         0.001924      0.003125     -0.067178
      0.00000     10.55123      7.50000         0.026481      0.000045      0.449512
      2.11025     12.66148      7.50000         0.012100      0.001883      0.456858
      0.00000     12.66148      9.61025         0.027832      0.011675      0.023158
      2.11025     10.55123      9.61025         0.023670     -0.014397      0.032979
      0.00625     10.55297     11.73287         0.007736     -0.000491      0.023089
      2.11099     12.66361     11.73197         0.002650     -0.000987      0.022531
      0.00701     12.66865     13.83655         0.005117      0.001109     -0.065362
      2.11127     10.55625     13.83546         0.006774     -0.002028     -0.069207
[...]
     14.77172      8.44098      9.61025        -0.101640      0.022957      0.143308
     12.66148      8.44098      7.50000        -0.016793      0.020643     -0.386049
     14.77172     14.77172      7.50000        -0.006921     -0.015022     -0.425853
     12.66847     14.77322     13.88442         0.005094     -0.005475     -0.112373
     14.79696      8.44690     13.88881        -0.039818      0.006395     -0.109568
     12.63337      8.44598     11.76522         0.001075      0.005472      0.032774
     14.77178     14.76904     11.72719        -0.002051     -0.002518      0.023757
     12.66148     10.55123      9.61025        -0.062333     -0.068282      0.157656
     14.77172     12.66148      9.61025        -0.028665     -0.029781      0.076010
     12.66148     12.66148      7.50000        -0.008164     -0.024480     -0.412203
     14.77172     10.55123      7.50000        -0.023034     -0.011606     -0.410116
     12.66282     10.55243     13.89792         0.002042      0.002056     -0.111152
     14.77469     12.66455     13.88418        -0.006774     -0.007568     -0.114012
     12.65838     12.65771     11.73101        -0.002466     -0.006298      0.026855
     14.76781     10.54786     11.73115        -0.007887     -0.001096      0.027091
    total drift:                               -0.010655     -0.004124     -0.132207

  FREE ENERGIE OF THE ION-ELECTRON SYSTEM (eV)
  free  energy   TOTEN  =     -1825.88470817 eV

  energy  without entropy=    -1825.88470817  energy(sigma->0) =    -1825.88470817