 vasp.6.3.0 20Jan22 (build Apr  1 2022 16:44:48) complex
 executed on        HPECrayEX_GCC date 2022.11.13  08:43:30

 INCAR:
   SYSTEM = MgO-rocksalt
   ISMEAR = 0
   SIGMA = 0.05
   EDIFF = 1E-6
   ALGO = ALL
   ISTART = 0
   IBRION = -1
   NSW = 0
   ISYM = 0
   DIPOL = 0.5 0.5 0.5
   IDIPOL = 3
   LDIPOL = .TRUE.
   LHFCALC = .TRUE.
   GGA = B5
   AEXX = 0.2
   AGGAX = 0.72
   AGGAC = 0.81
   ALDAC = 0.19
   IVDW = 1
   VDW_S6 = 1.05
   VDW_C6 = 0.63 0.70
   VDW_R0 = 1.243 1.342
   ENCUT = 600
   PREC = Accurate
   LASPH = .TRUE.
   LREAL = .FALSE.
   ISPIN = 1
   NELM = 200
   NELMIN = 8
   NCORE = 8
   KPAR = 1
   LWAVE = .FALSE.
   LCHARG = .FALSE.

 POTCAR:    PAW_PBE Mg_pv 13Apr2007
 POTCAR:    PAW_PBE O 08Apr2002
 POTCAR:    PAW_PBE Mg_pv 13Apr2007
   VRHFIN =Mg: p6s2

   TITEL  = PAW_PBE Mg_pv 13Apr2007
   POMASS =   24.305; ZVAL   =    8.000    mass and valenz
   ENMAX  =  403.929; ENMIN  =  302.947 eV

   TITEL  = PAW_PBE O 08Apr2002
   POMASS =   16.000; ZVAL   =    6.000    mass and valenz
   ENMAX  =  400.000; ENMIN  =  300.000 eV

  PAW_PBE Mg_pv 13Apr2007               :
  PAW_PBE O 08Apr2002                   :

 POSCAR: Mg  O
  positions in direct lattice
 exchange correlation table for  LEXCH =       12
   RHO(1)=    0.500       N(1)  =     2000
   RHO(2)=  100.500       N(2)  =     4000

 ion  position               nearest neighbor table
   1  0.250  0.000  0.352-  33 2.11  35 2.11  36 2.11  43 2.11  52 2.11
   2  0.500  0.250  0.352-  34 2.11  35 2.11  36 2.11  44 2.11  51 2.11
   3  0.250  0.250  0.451-  35 2.11  34 2.11  33 2.11  41 2.11  50 2.11  39 2.11
   4  0.500  0.000  0.451-  36 2.11  34 2.11  33 2.11  42 2.11  49 2.11  40 2.11
   5  0.250  1.000  0.550-  40 2.11  47 2.11  56 2.11  39 2.11  33 2.12  37 2.14
   6  0.500  0.250  0.550-  39 2.11  55 2.11  48 2.11  40 2.11  34 2.12  38 2.13
   7  0.250  0.250  0.648-  39 2.10  37 2.11  54 2.11  38 2.11  45 2.11
   8  0.500  0.000  0.648-  38 2.10  40 2.10  37 2.11  53 2.11  46 2.12
   9  0.250  0.500  0.352-  41 2.11  35 2.11  43 2.11  44 2.11  60 2.11
  10  0.500  0.750  0.352-  42 2.11  36 2.11  43 2.11  44 2.11  59 2.11
  11  0.250  0.750  0.451-  43 2.11  41 2.11  42 2.11  33 2.11  58 2.11  47 2.11
  12  0.500  0.500  0.451-  44 2.11  41 2.11  42 2.11  34 2.11  57 2.11  48 2.12
  13  0.250  0.500  0.550-  39 2.11  47 2.11  48 2.11  64 2.11  41 2.12  45 2.13
  14  0.500  0.750  0.550-  48 2.11  63 2.11  47 2.11  40 2.11  42 2.12  46 2.15
  15  0.250  0.750  0.648-  62 2.10  47 2.10  37 2.11  45 2.11  46 2.12
  16  0.498  0.498  0.649-  45 2.10  38 2.10  48 2.11  46 2.13  61 2.13
  17  0.750  0.000  0.352-  49 2.11  36 2.11  51 2.11  52 2.11  59 2.11
  18  0.000  0.250  0.352-  50 2.11  35 2.11  51 2.11  52 2.11  60 2.11
  19  0.750  0.250  0.451-  51 2.11  49 2.11  50 2.11  34 2.11  57 2.11  55 2.11
  20  0.000  0.000  0.451-  52 2.11  49 2.11  50 2.11  33 2.11  58 2.11  56 2.11
  21  0.750  0.000  0.550-  56 2.11  40 2.11  63 2.11  55 2.11  49 2.12  53 2.13
  22  1.000  0.250  0.550-  64 2.11  55 2.11  56 2.11  39 2.11  50 2.12  54 2.14
  23  0.750  0.250  0.648-  53 2.10  55 2.10  54 2.11  38 2.11  61 2.12
  24  0.000  0.000  0.648-  56 2.10  54 2.11  37 2.11  53 2.11  62 2.11
  25  0.750  0.500  0.352-  57 2.11  51 2.11  44 2.11  59 2.11  60 2.11
  26  0.000  0.750  0.352-  58 2.11  52 2.11  43 2.11  59 2.11  60 2.11
  27  0.750  0.750  0.451-  59 2.11  49 2.11  57 2.11  58 2.11  42 2.11  63 2.12
  28  0.000  0.500  0.451-  60 2.11  50 2.11  57 2.11  58 2.11  41 2.11  64 2.11
  29  0.750  0.500  0.550-  48 2.11  63 2.11  55 2.11  64 2.11  57 2.12  61 2.15
  30  0.000  0.750  0.550-  56 2.11  64 2.11  63 2.11  47 2.11  58 2.12  62 2.13
  31  0.752  0.752  0.649-  62 2.10  53 2.10  63 2.11  46 2.13  61 2.13
  32  0.000  0.500  0.648-  45 2.10  64 2.10  54 2.11  62 2.11  61 2.12
  33  0.250  0.000  0.451-   1 2.11   3 2.11   4 2.11  11 2.11  20 2.11   5 2.12
  34  0.500  0.250  0.451-   2 2.11   3 2.11   4 2.11  12 2.11  19 2.11   6 2.12
  35  0.250  0.250  0.352-   3 2.11   2 2.11   1 2.11   9 2.11  18 2.11
  36  0.500  0.000  0.352-   4 2.11   2 2.11   1 2.11  10 2.11  17 2.11
  37  0.250  1.000  0.650-   7 2.11  24 2.11  15 2.11   8 2.11   5 2.14
  38  0.500  0.249  0.650-  16 2.10   8 2.10   7 2.11  23 2.11   6 2.13
  39  0.250  0.250  0.550-   7 2.10  22 2.11   5 2.11  13 2.11   6 2.11   3 2.11
  40  0.500  1.000  0.550-   8 2.10   5 2.11  14 2.11  21 2.11   6 2.11   4 2.11
  41  0.250  0.500  0.451-   9 2.11   3 2.11  11 2.11  12 2.11  28 2.11  13 2.12
  42  0.500  0.750  0.451-  10 2.11   4 2.11  11 2.11  12 2.11  27 2.11  14 2.12
  43  0.250  0.750  0.352-  11 2.11   9 2.11  10 2.11   1 2.11  26 2.11
  44  0.500  0.500  0.352-  12 2.11   9 2.11  10 2.11   2 2.11  25 2.11
  45  0.249  0.500  0.650-  16 2.10  32 2.10   7 2.11  15 2.11  13 2.13
  46  0.500  0.750  0.651-  15 2.12   8 2.12  16 2.13  31 2.13  14 2.15
  47  0.250  0.750  0.550-  15 2.10   5 2.11  14 2.11  13 2.11  30 2.11  11 2.11
  48  0.500  0.500  0.550-  14 2.11  29 2.11  16 2.11  13 2.11   6 2.11  12 2.12
  49  0.750  0.000  0.451-  17 2.11   4 2.11  19 2.11  20 2.11  27 2.11  21 2.12
  50  0.000  0.250  0.451-  18 2.11   3 2.11  19 2.11  20 2.11  28 2.11  22 2.12
  51  0.750  0.250  0.352-  19 2.11  17 2.11  18 2.11   2 2.11  25 2.11
  52  0.000  0.000  0.352-  20 2.11  17 2.11  18 2.11   1 2.11  26 2.11
  53  0.750  0.001  0.650-  31 2.10  23 2.10  24 2.11   8 2.11  21 2.13
  54  1.000  0.250  0.650-   7 2.11  24 2.11  23 2.11  32 2.11  22 2.14
  55  0.750  0.250  0.550-  23 2.10  22 2.11  29 2.11   6 2.11  21 2.11  19 2.11
  56  0.000  0.000  0.550-  24 2.10   5 2.11  22 2.11  30 2.11  21 2.11  20 2.11
  57  0.750  0.500  0.451-  25 2.11  19 2.11  12 2.11  27 2.11  28 2.11  29 2.12
  58  0.000  0.750  0.451-  26 2.11  20 2.11  11 2.11  27 2.11  28 2.11  30 2.12
  59  0.750  0.750  0.352-  27 2.11  17 2.11  25 2.11  26 2.11  10 2.11
  60  0.000  0.500  0.352-  28 2.11  18 2.11  25 2.11  26 2.11   9 2.11
  61  0.750  0.500  0.651-  23 2.12  32 2.12  16 2.13  31 2.13  29 2.15
  62  0.001  0.750  0.650-  31 2.10  15 2.10  24 2.11  32 2.11  30 2.13
  63  0.750  0.750  0.550-  14 2.11  29 2.11  31 2.11  21 2.11  30 2.11  27 2.12
  64  1.000  0.500  0.550-  32 2.10  22 2.11  29 2.11  30 2.11  13 2.11  28 2.11

IMPORTANT INFORMATION: All symmetrisations will be switched off!
NOSYMM: (Re-)initialisation of all symmetry stuff for point group C_1.

                                     Primitive cell

  volume of cell :    1519.6535

  direct lattice vectors                    reciprocal lattice vectors
     8.440582262  0.000000000  0.000000000     0.118475239  0.000000000  0.000000000
     0.000000000  8.440582262  0.000000000     0.000000000  0.118475239  0.000000000
     0.000000000  0.000000000 21.330436697     0.000000000  0.000000000  0.046881366

  length of vectors
     8.440582262  8.440582262 21.330436697     0.118475239  0.118475239  0.046881366

  position of ions in fractional coordinates (direct lattice)
     0.250000000  0.000000000  0.351610242
     0.500000000  0.250000000  0.351610242
     0.250000000  0.250000000  0.450536747
     0.500000000  0.000000000  0.450536747
     0.250102427  0.999897648  0.549871736
     0.499864843  0.249877581  0.549898009
     0.249700409  0.249700413  0.648283272
     0.500101832  0.000341566  0.648161650
     0.250000000  0.500000000  0.351610242
     0.500000000  0.750000000  0.351610242
     0.250000000  0.750000000  0.450536747
     0.500000000  0.500000000  0.450536747
     0.249877575  0.499864841  0.549898010
     0.500299141  0.749700890  0.550139006
     0.249658523  0.749898332  0.648161658
     0.497838470  0.497838475  0.648677241
     0.750000000  0.000000000  0.351610242
     0.000000000  0.250000000  0.351610242
     0.750000000  0.250000000  0.450536747
     0.000000000  0.000000000  0.450536747
     0.750135229  0.000122554  0.549897985
     0.999897646  0.250102427  0.549871734
     0.749898328  0.249658528  0.648161658
     0.000299675  0.000299677  0.648283255
     0.750000000  0.500000000  0.351610242
     0.000000000  0.750000000  0.351610242
     0.750000000  0.750000000  0.450536747
     0.000000000  0.500000000  0.450536747
     0.749700884  0.500299136  0.550139006
     0.000122560  0.750135233  0.549897987
     0.752161712  0.752161712  0.648677129
     0.000341559  0.500101834  0.648161655
     0.250000000  0.000000000  0.450536747
     0.500000000  0.250000000  0.450536747
     0.250000000  0.250000000  0.351610242
     0.500000000  0.000000000  0.351610242
     0.250095394  0.999904744  0.650166575
     0.499758300  0.249289553  0.649649988
     0.249825104  0.249825108  0.549619549
     0.500018107  0.999638612  0.549639521
     0.250000000  0.500000000  0.450536747
     0.500000000  0.750000000  0.450536747
     0.250000000  0.750000000  0.351610242
     0.500000000  0.500000000  0.351610242
     0.249289564  0.499758314  0.649649989
     0.500297233  0.749702823  0.650986592
     0.250361483  0.749981942  0.549639511
     0.500013936  0.500013945  0.549847888
     0.750000000  0.000000000  0.450536747
     0.000000000  0.250000000  0.450536747
     0.750000000  0.250000000  0.351610242
     0.000000000  0.000000000  0.351610242
     0.750241786  0.000710624  0.649649910
     0.999904730  0.250095390  0.650166575
     0.749981942  0.250361492  0.549639508
     0.000174988  0.000174986  0.549619537
     0.750000000  0.500000000  0.450536747
     0.000000000  0.750000000  0.450536747
     0.750000000  0.750000000  0.351610242
     0.000000000  0.500000000  0.351610242
     0.749702825  0.500297229  0.650986591
     0.000710622  0.750241781  0.649649910
     0.749986120  0.749986115  0.549847856
     0.999638610  0.500018109  0.549639518

  ion indices of the primitive-cell ions
   primitive index   ion index
                 1           1
                 2           2
                 3           3
                 4           4
                 5           5
                 6           6
                 7           7
                 8           8
                 9           9
                10          10
                11          11
                12          12
                13          13
                14          14
                15          15
                16          16
                17          17
                18          18
                19          19
                20          20
                21          21
                22          22
                23          23
                24          24
                25          25
                26          26
                27          27
                28          28
                29          29
                30          30
                31          31
                32          32
                33          33
                34          34
                35          35
                36          36
                37          37
                38          38
                39          39
                40          40
                41          41
                42          42
                43          43
                44          44
[...]
   0.50000000  0.75000000  0.45053675
   0.25000000  0.75000000  0.35161024
   0.50000000  0.50000000  0.35161024
   0.24928956  0.49975831  0.64964999
   0.50029723  0.74970282  0.65098659
   0.25036148  0.74998194  0.54963951
   0.50001394  0.50001394  0.54984789
   0.75000000  0.00000000  0.45053675
   0.00000000  0.25000000  0.45053675
   0.75000000  0.25000000  0.35161024
   0.00000000  0.00000000  0.35161024
   0.75024179  0.00071062  0.64964991
   0.99990473  0.25009539  0.65016657
   0.74998194  0.25036149  0.54963951
   0.00017499  0.00017499  0.54961954
   0.75000000  0.50000000  0.45053675
   0.00000000  0.75000000  0.45053675
   0.75000000  0.75000000  0.35161024
   0.00000000  0.50000000  0.35161024
   0.74970282  0.50029723  0.65098659
   0.00071062  0.75024178  0.64964991
   0.74998612  0.74998612  0.54984786
   0.99963861  0.50001811  0.54963952

 position of ions in cartesian coordinates  (Angst):
   2.11014557  0.00000000  7.50000000
   4.22029113  2.11014557  7.50000000
   2.11014557  2.11014557  9.61014557
   4.22029113  0.00000000  9.61014557
   2.11101011  8.43971835 11.72900426
   4.21915032  2.10911228 11.72956467
   2.10761684  2.10761688 13.82816529
   4.22115065  0.00288302 13.82557104
   2.11014557  4.22029113  7.50000000
   4.22029113  6.33043670  7.50000000
   2.11014557  6.33043670  9.61014557
   4.22029113  4.22029113  9.61014557
   2.10911223  4.21915031 11.72956470
   4.22281606  6.32791204 11.73470525
   2.10726330  6.32957856 13.82557121
   4.20204656  4.20204660 13.83656882
   6.33043670  0.00000000  7.50000000
   0.00000000  2.11014557  7.50000000
   6.33043670  2.11014557  9.61014557
   0.00000000  0.00000000  9.61014557
   6.33157811  0.00103443 11.72956417
   8.43971834  2.11101011 11.72900422
   6.32957852  2.10726334 13.82557121
   0.00252943  0.00252944 13.82816493
   6.33043670  4.22029113  7.50000000
   0.00000000  6.33043670  7.50000000
   6.33043670  6.33043670  9.61014557
   0.00000000  4.22029113  9.61014557
   6.32791198  4.22281601 11.73470524
   0.00103447  6.33157814 11.72956420
   6.34868281  6.34868280 13.83656644
   0.00288296  4.22115067 13.82557116
   2.11014557  0.00000000  9.61014557
   4.22029113  2.11014557  9.61014557
   2.11014557  2.11014557  7.50000000
   4.22029113  0.00000000  7.50000000
   2.11095075  8.43977825 13.86833696
   4.21825104  2.10414898 13.85731793
   2.10866934  2.10866937 11.72362500
   4.22044396  8.43753194 11.72405101
   2.11014557  4.22029113  9.61014557
   4.22029113  6.33043670  9.61014557
   2.11014557  6.33043670  7.50000000
   4.22029113  4.22029113  7.50000000
   2.10414907  4.21825116 13.85731797
   4.22279995  6.32792835 13.88582828
   2.11319669  6.33028427 11.72405079
   4.22040876  4.22040883 11.72849556
   6.33043670  0.00000000  9.61014557
   0.00000000  2.11014557  9.61014557
   6.33043670  2.11014557  7.50000000
   0.00000000  0.00000000  7.50000000
   6.33247751  0.00599808 13.85731629
   8.43977813  2.11095072 13.86833696
   6.33028428  2.11319677 11.72405074
   0.00147700  0.00147698 11.72362474
   6.33043670  4.22029113  9.61014557
   0.00000000  6.33043670  9.61014557
   6.33043670  6.33043670  7.50000000
   0.00000000  4.22029113  7.50000000
   6.32792836  4.22279992 13.88582826
   0.00599806  6.33247747 13.85731628
   6.33031954  6.33031950 11.72849488
   8.43753192  4.22044398 11.72405095

--------------------------------------- Iteration      FINAL  ---------------------------------------

--------------------OUTCAR has been truncated-------------------------

[...]

--------------------OUTCAR has been truncated-------------------------

  DFT-D2 method for vdW energy calculation

  Parameters of vdW forcefield:
         C6(Jnm^6/mol)     R0(A)
   Mg       0.630          1.243
   O        0.700          1.342

  vdW correction parametrized for the method Ç¶ÿ      

  IVDW =   1
  VDW_RADIUS =    50.000 A
  VDW_S6 =     1.050
  VDW_SR =     1.000
  VDW_D =    20.000
  LVDW_EWALD = F

  Number of pair interactions contributing to vdW energy:  723252
  Edisp (eV):   -5.08194

 VOLUME and BASIS-vectors are now :
  energy-cutoff  :      600.00
  volume of cell :     1519.65
      direct lattice vectors                 reciprocal lattice vectors
     8.440582262  0.000000000  0.000000000     0.118475239  0.000000000  0.000000000
     0.000000000  8.440582262  0.000000000     0.000000000  0.118475239  0.000000000
     0.000000000  0.000000000 21.330436697     0.000000000  0.000000000  0.046881366

  length of vectors
     8.440582262  8.440582262 21.330436697     0.118475239  0.118475239  0.046881366

 FORCES acting on ions:
    Electron-Ion                     Ewald-Force                    Non-Local-Force
   -.772E-01 0.772E-01 0.207E+04   0.790E-01 -.790E-01 -.206E+04   -.117E-02 0.118E-02 -.639E+01
   -.787E-01 -.916E-01 0.207E+04   0.800E-01 0.931E-01 -.206E+04   -.819E-03 -.990E-03 -.639E+01
   -.278E+00 -.278E+00 0.686E+03   0.262E+00 0.262E+00 -.686E+03   0.109E-01 0.109E-01 0.387E+00
   -.284E+00 0.470E+00 0.685E+03   0.278E+00 -.524E+00 -.686E+03   0.471E-02 0.339E-01 0.386E+00
   -.686E+00 0.686E+00 -.689E+03   0.688E+00 -.688E+00 0.689E+03   -.137E-02 0.137E-02 -.162E+00
   -.845E+00 -.823E+00 -.687E+03   0.859E+00 0.866E+00 0.687E+03   -.449E-02 -.318E-01 -.286E+00
   0.108E+00 0.108E+00 -.206E+04   -.284E+00 -.284E+00 0.205E+04   0.126E+00 0.126E+00 0.565E+01
   -.114E+00 0.384E+01 -.206E+04   -.467E-01 -.394E+01 0.205E+04   0.114E+00 -.952E-04 0.555E+01
   -.916E-01 -.787E-01 0.207E+04   0.931E-01 0.800E-01 -.206E+04   -.990E-03 -.810E-03 -.639E+01
   -.887E-01 0.887E-01 0.207E+04   0.913E-01 -.913E-01 -.206E+04   -.177E-02 0.177E-02 -.641E+01
   -.470E+00 0.284E+00 0.685E+03   0.524E+00 -.279E+00 -.686E+03   -.339E-01 -.470E-02 0.386E+00
   -.474E+00 -.474E+00 0.684E+03   0.504E+00 0.504E+00 -.685E+03   -.203E-01 -.203E-01 0.440E+00
   -.823E+00 -.845E+00 -.687E+03   0.866E+00 0.859E+00 0.687E+03   -.318E-01 -.449E-02 -.286E+00
   -.112E+01 0.112E+01 -.696E+03   0.117E+01 -.117E+01 0.696E+03   -.399E-01 0.399E-01 -.173E+00
   -.384E+01 0.114E+00 -.206E+04   0.394E+01 0.467E-01 0.205E+04   0.918E-04 -.114E+00 0.555E+01
   -.604E+01 -.604E+01 -.206E+04   0.621E+01 0.621E+01 0.205E+04   0.574E-01 0.574E-01 0.557E+01
   0.787E-01 0.916E-01 0.207E+04   -.800E-01 -.931E-01 -.206E+04   0.814E-03 0.996E-03 -.639E+01
   0.772E-01 -.772E-01 0.207E+04   -.790E-01 0.790E-01 -.206E+04   0.117E-02 -.118E-02 -.639E+01
   0.284E+00 -.470E+00 0.685E+03   -.279E+00 0.524E+00 -.686E+03   -.470E-02 -.339E-01 0.386E+00
   0.278E+00 0.278E+00 0.686E+03   -.262E+00 -.262E+00 -.686E+03   -.109E-01 -.109E-01 0.387E+00
   0.845E+00 0.823E+00 -.687E+03   -.860E+00 -.866E+00 0.687E+03   0.449E-02 0.318E-01 -.286E+00
   0.686E+00 -.686E+00 -.689E+03   -.688E+00 0.688E+00 0.689E+03   0.137E-02 -.137E-02 -.162E+00
   0.114E+00 -.384E+01 -.206E+04   0.466E-01 0.394E+01 0.205E+04   -.114E+00 0.733E-04 0.555E+01
   -.108E+00 -.108E+00 -.206E+04   0.284E+00 0.284E+00 0.205E+04   -.126E+00 -.126E+00 0.565E+01
   0.887E-01 -.887E-01 0.207E+04   -.913E-01 0.913E-01 -.206E+04   0.177E-02 -.177E-02 -.641E+01
   0.916E-01 0.787E-01 0.207E+04   -.931E-01 -.800E-01 -.206E+04   0.989E-03 0.812E-03 -.639E+01
   0.474E+00 0.474E+00 0.684E+03   -.504E+00 -.504E+00 -.685E+03   0.203E-01 0.203E-01 0.440E+00
   0.470E+00 -.284E+00 0.685E+03   -.524E+00 0.278E+00 -.686E+03   0.339E-01 0.470E-02 0.386E+00
   0.112E+01 -.112E+01 -.696E+03   -.117E+01 0.117E+01 0.696E+03   0.399E-01 -.399E-01 -.173E+00
   0.823E+00 0.845E+00 -.687E+03   -.866E+00 -.860E+00 0.687E+03   0.318E-01 0.450E-02 -.286E+00
   0.604E+01 0.604E+01 -.206E+04   -.621E+01 -.621E+01 0.205E+04   -.574E-01 -.574E-01 0.557E+01
   0.384E+01 -.114E+00 -.206E+04   -.394E+01 -.467E-01 0.205E+04   -.865E-04 0.114E+00 0.555E+01
   -.224E+00 0.224E+00 0.514E+03   0.222E+00 -.222E+00 -.514E+03   0.199E-02 -.198E-02 -.829E-01
   -.259E+00 -.336E+00 0.514E+03   0.270E+00 0.344E+00 -.514E+03   -.132E-01 -.906E-02 -.627E-01
   -.530E-01 -.529E-01 0.155E+04   0.524E-01 0.524E-01 -.156E+04   0.660E-03 0.657E-03 0.313E+01
   -.540E-01 0.737E-01 0.155E+04   0.531E-01 -.780E-01 -.156E+04   0.110E-02 0.541E-02 0.313E+01
   -.926E+00 0.926E+00 -.156E+04   0.103E+01 -.103E+01 0.157E+04   -.116E+00 0.116E+00 -.443E+01
   -.110E+01 0.316E-02 -.156E+04   0.121E+01 -.138E+00 0.156E+04   -.116E+00 0.142E+00 -.422E+01
   -.897E-01 -.897E-01 -.511E+03   0.766E-01 0.766E-01 0.511E+03   0.195E-01 0.195E-01 0.248E+00
   -.256E+00 0.137E+01 -.512E+03   0.270E+00 -.142E+01 0.511E+03   -.889E-02 0.628E-01 0.304E+00
   -.336E+00 -.259E+00 0.514E+03   0.344E+00 0.270E+00 -.514E+03   -.907E-02 -.132E-01 -.627E-01
   -.291E+00 0.291E+00 0.513E+03   0.271E+00 -.271E+00 -.512E+03   0.234E-01 -.234E-01 -.144E+00
   -.737E-01 0.540E-01 0.155E+04   0.780E-01 -.531E-01 -.156E+04   -.541E-02 -.110E-02 0.313E+01
   -.715E-01 -.715E-01 0.155E+04   0.768E-01 0.768E-01 -.156E+04   -.654E-02 -.654E-02 0.312E+01
   0.319E-02 -.110E+01 -.156E+04   -.138E+00 0.121E+01 0.156E+04   0.142E+00 -.116E+00 -.422E+01
   -.241E+01 0.241E+01 -.157E+04   0.271E+01 -.271E+01 0.157E+04   -.308E+00 0.308E+00 -.462E+01
   -.137E+01 0.256E+00 -.512E+03   0.142E+01 -.270E+00 0.511E+03   -.628E-01 0.889E-02 0.304E+00
   -.152E+01 -.152E+01 -.515E+03   0.155E+01 0.155E+01 0.515E+03   -.506E-01 -.506E-01 0.185E+00
   0.259E+00 0.336E+00 0.514E+03   -.270E+00 -.344E+00 -.514E+03   0.132E-01 0.907E-02 -.626E-01
   0.224E+00 -.224E+00 0.514E+03   -.222E+00 0.222E+00 -.514E+03   -.198E-02 0.199E-02 -.829E-01
   0.540E-01 -.737E-01 0.155E+04   -.531E-01 0.780E-01 -.156E+04   -.110E-02 -.541E-02 0.313E+01
   0.529E-01 0.529E-01 0.155E+04   -.524E-01 -.524E-01 -.156E+04   -.658E-03 -.658E-03 0.313E+01
   0.110E+01 -.300E-02 -.156E+04   -.121E+01 0.138E+00 0.156E+04   0.116E+00 -.142E+00 -.422E+01
   0.926E+00 -.926E+00 -.156E+04   -.103E+01 0.103E+01 0.157E+04   0.116E+00 -.116E+00 -.443E+01
   0.256E+00 -.137E+01 -.512E+03   -.270E+00 0.142E+01 0.511E+03   0.889E-02 -.628E-01 0.304E+00
   0.897E-01 0.897E-01 -.511E+03   -.766E-01 -.766E-01 0.511E+03   -.195E-01 -.195E-01 0.248E+00
   0.291E+00 -.291E+00 0.513E+03   -.271E+00 0.271E+00 -.512E+03   -.234E-01 0.234E-01 -.144E+00
   0.336E+00 0.259E+00 0.514E+03   -.344E+00 -.270E+00 -.514E+03   0.907E-02 0.132E-01 -.626E-01
   0.715E-01 0.715E-01 0.155E+04   -.768E-01 -.768E-01 -.156E+04   0.654E-02 0.654E-02 0.312E+01
   0.737E-01 -.540E-01 0.155E+04   -.780E-01 0.531E-01 -.156E+04   0.541E-02 0.110E-02 0.313E+01
   0.241E+01 -.241E+01 -.157E+04   -.271E+01 0.271E+01 0.157E+04   0.308E+00 -.308E+00 -.462E+01
   -.299E-02 0.110E+01 -.156E+04   0.138E+00 -.121E+01 0.156E+04   -.142E+00 0.116E+00 -.422E+01
   0.152E+01 0.152E+01 -.515E+03   -.155E+01 -.155E+01 0.515E+03   0.506E-01 0.506E-01 0.185E+00
   0.137E+01 -.256E+00 -.512E+03   -.142E+01 0.270E+00 0.511E+03   0.628E-01 -.889E-02 0.304E+00
   0.136E-04 0.349E-04 0.156E+02   0.391E-12 -.176E-12 -.227E-11   -.147E-04 -.214E-04 -.137E+02

 POSITION                                       TOTAL-FORCE (eV/Angst)
      2.11015      0.00000      7.50000         0.000481     -0.000486      0.467433
      4.22029      2.11015      7.50000         0.000378      0.000406      0.465107
      2.11015      2.11015      9.61015        -0.004563     -0.004560      0.024470
      4.22029      0.00000      9.61015        -0.000829     -0.015538      0.031611
      2.11101      8.43972     11.72900         0.000383     -0.000399      0.001947
      4.21915      2.10911     11.72956         0.008973      0.006763     -0.029014
      2.10762      2.10762     13.82817        -0.035457     -0.035450     -0.145998
      4.22115      0.00288     13.82557        -0.033140     -0.093994     -0.089903
      2.11015      4.22029      7.50000         0.000409      0.000383      0.465135
      4.22029      6.33044      7.50000         0.000652     -0.000653      0.470901
      2.11015      6.33044      9.61015         0.015531      0.000826      0.031544
      4.22029      4.22029      9.61015         0.007152      0.007154      0.039046
      2.10911      4.21915     11.72956         0.006767      0.008972     -0.029017
      4.22282      6.32791     11.73471         0.007024     -0.006996      0.044448
      2.10726      6.32958     13.82557         0.094024      0.033122     -0.089845
      4.20205      4.20205     13.83657         0.215455      0.215445     -0.136370
      6.33044      0.00000      7.50000        -0.000384     -0.000409      0.465125
      0.00000      2.11015      7.50000        -0.000487      0.000481      0.467444
      6.33044      2.11015      9.61015         0.000833      0.015533      0.031536
      0.00000      0.00000      9.61015         0.004558      0.004562      0.024545
      6.33158      0.00103     11.72956        -0.008995     -0.006753     -0.029019
      8.43972      2.11101     11.72900        -0.000401      0.000380      0.001952
      6.32958      2.10726     13.82557         0.033126      0.094019     -0.089826
      0.00253      0.00253     13.82816         0.035501      0.035506     -0.146097
      6.33044      4.22029      7.50000        -0.000649      0.000653      0.470899
      0.00000      6.33044      7.50000        -0.000413     -0.000382      0.465123
      6.33044      6.33044      9.61015        -0.007157     -0.007156      0.038969
      0.00000      4.22029      9.61015        -0.015533     -0.000832      0.031608
      6.32791      4.22282     11.73471        -0.006993      0.007027      0.044455
      0.00103      6.33158     11.72956        -0.006756     -0.008995     -0.029026
      6.34868      6.34868     13.83657        -0.215476     -0.215475     -0.136343
      0.00288      4.22115     13.82557        -0.093988     -0.033138     -0.089922
      2.11015      0.00000      9.61015         0.000573     -0.000574      0.036688
      4.22029      2.11015      9.61015        -0.003788     -0.002220      0.047796
      2.11015      2.11015      7.50000         0.000210      0.000212     -0.434344
      4.22029      0.00000      7.50000         0.000375      0.001804     -0.435228
      2.11095      8.43978     13.86834        -0.024223      0.024217     -0.021840
      4.21825      2.10415     13.85732        -0.025348      0.025718      0.067540
      2.10867      2.10867     11.72363         0.009348      0.009354      0.015192
      4.22044      8.43753     11.72405         0.004068      0.023352      0.016636
      2.11015      4.22029      9.61015        -0.002223     -0.003788      0.047797
      4.22029      6.33044      9.61015         0.007336     -0.007340      0.043812
      2.11015      6.33044      7.50000        -0.001811     -0.000377     -0.435223
      4.22029      4.22029      7.50000        -0.002231     -0.002226     -0.436354
      2.10415      4.21825     13.85732         0.025715     -0.025347      0.067538
      4.22280      6.32793     13.88583        -0.042976      0.043012     -0.113722
      2.11320      6.33028     11.72405        -0.023354     -0.004073      0.016609
      4.22041      4.22041     11.72850        -0.022375     -0.022371     -0.004370
      6.33044      0.00000      9.61015         0.003786      0.002216      0.047800
      0.00000      2.11015      9.61015        -0.000574      0.000573      0.036683
      6.33044      2.11015      7.50000        -0.000376     -0.001810     -0.435237
      0.00000      0.00000      7.50000        -0.000219     -0.000218     -0.434348
      6.33248      0.00600     13.85732         0.025357     -0.025726      0.067518
      8.43978      2.11095     13.86834         0.024222     -0.024218     -0.021851
      6.33028      2.11320     11.72405        -0.004068     -0.023360      0.016613
      0.00148      0.00148     11.72362        -0.009362     -0.009362      0.015219
      6.33044      4.22029      9.61015        -0.007338      0.007341      0.043815
      0.00000      6.33044      9.61015         0.002218      0.003784      0.047796
      6.33044      6.33044      7.50000         0.002226      0.002223     -0.436344
      0.00000      4.22029      7.50000         0.001800      0.000372     -0.435220
      6.32793      4.22280     13.88583         0.043007     -0.042982     -0.113712
      0.00600      6.33248     13.85732        -0.025722      0.025359      0.067535
      6.33032      6.33032     11.72849         0.022371      0.022369     -0.004353
      8.43753      4.22044     11.72405         0.023354      0.004068      0.016639
    total drift:                                0.000115      0.000129      0.014054

  FREE ENERGIE OF THE ION-ELECTRON SYSTEM (eV)
  free  energy   TOTEN  =      -438.44227168 eV

  energy  without entropy=     -438.44227168  energy(sigma->0) =     -438.44227168