 vasp.6.3.0 20Jan22 (build Apr  1 2022 16:44:48) complex
 executed on        HPECrayEX_GCC date 2022.10.15  15:56:05

 INCAR:
   SYSTEM = MgO-rocksalt
   ISMEAR = 0
   SIGMA = 0.05
   EDIFF = 1E-7
   ALGO = ALL
   ISTART = 0
   IBRION = 2
   NSW = 1000
   ISYM = 0
   ISIF = 2
   EDIFFG = -0.01
   DIPOL = 0.5 0.5 0.5
   IDIPOL = 3
   LDIPOL = .TRUE.
   GGA = RE
   IVDW = 13
   VDW_S8 = 1.7468
   VDW_A1 = 0.5363
   VDW_A2 = 3.0726
   ENCUT = 600
   PREC = Accurate
   LASPH = .TRUE.
   LREAL = .FALSE.
   ISPIN = 1
   NELM = 200
   NELMIN = 8
   NCORE = 8
   KPAR = 1
   LWAVE = .FALSE.
   LCHARG = .FALSE.

 POTCAR:    PAW_PBE C 08Apr2002
 POTCAR:    PAW_PBE H 15Jun2001
 POTCAR:    PAW_PBE Mg_pv 13Apr2007
 POTCAR:    PAW_PBE O 08Apr2002
 POTCAR:    PAW_PBE C 08Apr2002
   VRHFIN =C: s2p2

   TITEL  = PAW_PBE C 08Apr2002
   POMASS =   12.011; ZVAL   =    4.000    mass and valenz
   ENMAX  =  400.000; ENMIN  =  300.000 eV

   TITEL  = PAW_PBE H 15Jun2001
   POMASS =    1.000; ZVAL   =    1.000    mass and valenz
   ENMAX  =  250.000; ENMIN  =  200.000 eV

   TITEL  = PAW_PBE Mg_pv 13Apr2007
   POMASS =   24.305; ZVAL   =    8.000    mass and valenz
   ENMAX  =  403.929; ENMIN  =  302.947 eV

   TITEL  = PAW_PBE O 08Apr2002
   POMASS =   16.000; ZVAL   =    6.000    mass and valenz
   ENMAX  =  400.000; ENMIN  =  300.000 eV

  PAW_PBE C 08Apr2002                   :
  PAW_PBE H 15Jun2001                   :
  PAW_PBE Mg_pv 13Apr2007               :
  PAW_PBE O 08Apr2002                   :

 POSCAR:  C  H Mg  O
  positions in direct lattice
|           W    W    AA    RRRRR   N    N  II  N    N   GGGG   !!!           |
|           W    W   A  A   R    R  NN   N  II  NN   N  G    G  !!!           |
|           W    W  A    A  R    R  N N  N  II  N N  N  G       !!!           |
|           W WW W  AAAAAA  RRRRR   N  N N  II  N  N N  G  GGG   !            |
|           WW  WW  A    A  R   R   N   NN  II  N   NN  G    G                |
|           W    W  A    A  R    R  N    N  II  N    N   GGGG   !!!           |
|     Specifying the vdW parameters                                           |
|     VDW_S8 = 1.747                                                          |
|     VDW_A1 = 0.536                                                          |
|     VDW_A2 = 3.073                                                          |
|     in the INCAR file will overwrite the defaults for revpbe. Please        |
|     make sure that is what you intended.                                    |

 ion  position               nearest neighbor table
   1  0.500  0.500  0.790-   4 1.10   3 1.10   5 1.10   2 1.53
   2  0.671  0.500  0.815-   7 1.10   8 1.10   6 1.10   1 1.53
   3  0.478  0.399  0.759-   1 1.10
   4  0.473  0.609  0.764-   1 1.10
   5  0.414  0.492  0.829-   1 1.10
   6  0.757  0.508  0.776-   2 1.10
   7  0.697  0.391  0.841-   2 1.10
   8  0.692  0.601  0.847-   2 1.10
   9  0.000  0.750  0.352-  41 2.11  43 2.11  44 2.11  51 2.11  60 2.11
  10  0.250  0.000  0.352-  42 2.11  43 2.11  44 2.11  52 2.11  59 2.11
  11  0.000  0.000  0.451-  43 2.11  42 2.11  41 2.11  49 2.11  58 2.11  47 2.12
  12  0.250  0.750  0.451-  44 2.11  42 2.11  41 2.11  50 2.11  57 2.11  48 2.12
  13  0.000  0.750  0.550-  47 2.11  48 2.11  55 2.11  64 2.11  41 2.13  45 2.15
  14  0.250  0.000  0.550-  47 2.11  48 2.11  56 2.11  63 2.11  42 2.13  46 2.15
  15  0.000  0.000  0.649-  45 2.11  46 2.11  53 2.11  62 2.11  47 2.11
  16  0.250  0.750  0.649-  45 2.11  46 2.11  54 2.11  61 2.11  48 2.11
  17  0.000  0.250  0.352-  49 2.11  43 2.11  51 2.11  52 2.11  68 2.11
  18  0.250  0.500  0.352-  50 2.11  44 2.11  51 2.11  52 2.11  67 2.11
  19  0.000  0.500  0.451-  51 2.11  49 2.11  50 2.11  41 2.11  66 2.11  55 2.12
  20  0.250  0.250  0.451-  52 2.11  49 2.11  50 2.11  42 2.11  65 2.11  56 2.12
  21  0.000  0.250  0.550-  47 2.11  55 2.11  56 2.11  72 2.11  49 2.13  53 2.15
  22  0.250  0.500  0.550-  48 2.11  55 2.11  56 2.11  71 2.11  50 2.13  54 2.15
  23  0.000  0.500  0.649-  45 2.11  53 2.11  54 2.11  70 2.11  55 2.11
  24  0.250  0.250  0.649-  46 2.11  53 2.11  54 2.11  69 2.11  56 2.11
  25  0.500  0.750  0.352-  57 2.11  44 2.11  59 2.11  60 2.11  67 2.11
  26  0.750  0.000  0.352-  58 2.11  43 2.11  59 2.11  60 2.11  68 2.11
  27  0.500  0.000  0.451-  59 2.11  57 2.11  58 2.11  42 2.11  65 2.11  63 2.12
  28  0.750  0.750  0.451-  60 2.11  57 2.11  58 2.11  41 2.11  66 2.11  64 2.12
  29  0.500  0.750  0.550-  48 2.11  63 2.11  64 2.11  71 2.11  57 2.13  61 2.15
  30  0.750  0.000  0.550-  47 2.11  63 2.11  64 2.11  72 2.11  58 2.13  62 2.15
  31  0.500  0.000  0.649-  46 2.11  61 2.11  62 2.11  69 2.11  63 2.11
  32  0.750  0.750  0.649-  45 2.11  61 2.11  62 2.11  70 2.11  64 2.11
  33  0.500  0.250  0.352-  65 2.11  59 2.11  52 2.11  67 2.11  68 2.11
  34  0.750  0.500  0.352-  66 2.11  60 2.11  51 2.11  67 2.11  68 2.11
  35  0.500  0.500  0.451-  67 2.11  57 2.11  65 2.11  66 2.11  50 2.11  71 2.12
  36  0.750  0.250  0.451-  68 2.11  58 2.11  65 2.11  66 2.11  49 2.11  72 2.12
  37  0.500  0.250  0.550-  56 2.11  63 2.11  71 2.11  72 2.11  65 2.13  69 2.15
  38  0.750  0.500  0.550-  55 2.11  64 2.11  71 2.11  72 2.11  66 2.13  70 2.15
  39  0.500  0.500  0.649-  54 2.11  61 2.11  69 2.11  70 2.11  71 2.11
  40  0.750  0.250  0.649-  53 2.11  62 2.11  69 2.11  70 2.11  72 2.11
  41  0.000  0.750  0.451-   9 2.11  11 2.11  12 2.11  19 2.11  28 2.11  13 2.13
  42  0.250  0.000  0.451-  10 2.11  11 2.11  12 2.11  20 2.11  27 2.11  14 2.13
  43  0.000  0.000  0.352-  11 2.11  10 2.11   9 2.11  17 2.11  26 2.11
  44  0.250  0.750  0.352-  12 2.11  10 2.11   9 2.11  18 2.11  25 2.11
  45  0.000  0.750  0.651-  15 2.11  16 2.11  23 2.11  32 2.11  13 2.15
  46  0.250  0.000  0.651-  15 2.11  16 2.11  24 2.11  31 2.11  14 2.15
  47  0.000  0.000  0.550-  13 2.11  14 2.11  21 2.11  30 2.11  15 2.11  11 2.12
  48  0.250  0.750  0.550-  13 2.11  14 2.11  22 2.11  29 2.11  16 2.11  12 2.12
  49  0.000  0.250  0.451-  17 2.11  11 2.11  19 2.11  20 2.11  36 2.11  21 2.13
  50  0.250  0.500  0.451-  18 2.11  12 2.11  19 2.11  20 2.11  35 2.11  22 2.13
  51  0.000  0.500  0.352-  19 2.11  17 2.11  18 2.11   9 2.11  34 2.11
  52  0.250  0.250  0.352-  20 2.11  17 2.11  18 2.11  10 2.11  33 2.11
  53  0.000  0.250  0.651-  15 2.11  23 2.11  24 2.11  40 2.11  21 2.15
  54  0.250  0.500  0.651-  16 2.11  23 2.11  24 2.11  39 2.11  22 2.15
  55  0.000  0.500  0.550-  13 2.11  21 2.11  22 2.11  38 2.11  23 2.11  19 2.12
  56  0.250  0.250  0.550-  14 2.11  21 2.11  22 2.11  37 2.11  24 2.11  20 2.12
  57  0.500  0.750  0.451-  25 2.11  12 2.11  27 2.11  28 2.11  35 2.11  29 2.13
  58  0.750  0.000  0.451-  26 2.11  11 2.11  27 2.11  28 2.11  36 2.11  30 2.13
  59  0.500  0.000  0.352-  27 2.11  25 2.11  26 2.11  10 2.11  33 2.11
  60  0.750  0.750  0.352-  28 2.11  25 2.11  26 2.11   9 2.11  34 2.11
  61  0.500  0.750  0.651-  16 2.11  31 2.11  32 2.11  39 2.11  29 2.15
  62  0.750  0.000  0.651-  15 2.11  31 2.11  32 2.11  40 2.11  30 2.15
  63  0.500  0.000  0.550-  14 2.11  29 2.11  30 2.11  37 2.11  31 2.11  27 2.12
  64  0.750  0.750  0.550-  13 2.11  29 2.11  30 2.11  38 2.11  32 2.11  28 2.12
  65  0.500  0.250  0.451-  33 2.11  27 2.11  20 2.11  35 2.11  36 2.11  37 2.13
  66  0.750  0.500  0.451-  34 2.11  28 2.11  19 2.11  35 2.11  36 2.11  38 2.13
  67  0.500  0.500  0.352-  35 2.11  25 2.11  33 2.11  34 2.11  18 2.11
  68  0.750  0.250  0.352-  36 2.11  26 2.11  33 2.11  34 2.11  17 2.11
  69  0.500  0.250  0.651-  24 2.11  31 2.11  39 2.11  40 2.11  37 2.15
  70  0.750  0.500  0.651-  23 2.11  32 2.11  39 2.11  40 2.11  38 2.15
  71  0.500  0.500  0.550-  22 2.11  29 2.11  37 2.11  38 2.11  39 2.11  35 2.12
  72  0.750  0.250  0.550-  21 2.11  30 2.11  37 2.11  38 2.11  40 2.11  36 2.12

IMPORTANT INFORMATION: All symmetrisations will be switched off!
NOSYMM: (Re-)initialisation of all symmetry stuff for point group C_1.

                                     Primitive cell

  volume of cell :    1519.8199

  direct lattice vectors                    reciprocal lattice vectors
     8.440984654  0.000000000  0.000000000     0.118469591  0.000000000  0.000000000
     0.000000000  8.440984654  0.000000000     0.000000000  0.118469591  0.000000000
     0.000000000  0.000000000 21.330738491     0.000000000  0.000000000  0.046880702

  length of vectors
     8.440984654  8.440984654 21.330738491     0.118469591  0.118469591  0.046880702

  position of ions in fractional coordinates (direct lattice)
     0.500000000  0.500000000  0.790441084
     0.670761897  0.499999999  0.815036167
     0.478456286  0.399404642  0.758799119
     0.473483690  0.608988387  0.764205234
     0.413891636  0.491606141  0.828995360
     0.756869669  0.508393875  0.776481756
     0.697277834  0.391012120  0.841271922
     0.692305546  0.600595433  0.846677914
     0.000000000  0.750000000  0.351605267
     0.250000000  0.000000000  0.351605267
     0.000000000  0.000000000  0.450535089
     0.250000000  0.750000000  0.450535089
     0.000000000  0.750000000  0.550171424
     0.250000000  0.000000000  0.550171424
     0.000000000  0.000000000  0.648861363
     0.250000000  0.750000000  0.648861363
     0.000000000  0.250000000  0.351605267
     0.250000000  0.500000000  0.351605267
     0.000000000  0.500000000  0.450535089
     0.250000000  0.250000000  0.450535089
     0.000000000  0.250000000  0.550171424
     0.250000000  0.500000000  0.550171424
     0.000000000  0.500000000  0.648861363
     0.250000000  0.250000000  0.648861363
     0.500000000  0.750000000  0.351605267
     0.750000000  0.000000000  0.351605267
     0.500000000  0.000000000  0.450535089
     0.750000000  0.750000000  0.450535089
     0.500000000  0.750000000  0.550171424
     0.750000000  0.000000000  0.550171424
     0.500000000  0.000000000  0.648861363
     0.750000000  0.750000000  0.648861363
     0.500000000  0.250000000  0.351605267
     0.750000000  0.500000000  0.351605267
     0.500000000  0.500000000  0.450535089
     0.750000000  0.250000000  0.450535089
     0.500000000  0.250000000  0.550171424
     0.750000000  0.500000000  0.550171424
     0.500000000  0.500000000  0.648861363
     0.750000000  0.250000000  0.648861363
     0.000000000  0.750000000  0.450535089
     0.250000000  0.000000000  0.450535089
     0.000000000  0.000000000  0.351605267
     0.250000000  0.750000000  0.351605267
     0.000000000  0.750000000  0.651006323
     0.250000000  0.000000000  0.651006323
     0.000000000  0.000000000  0.549890244
     0.250000000  0.750000000  0.549890244
     0.000000000  0.250000000  0.450535089
     0.250000000  0.500000000  0.450535089
     0.000000000  0.500000000  0.351605267
     0.250000000  0.250000000  0.351605267
     0.000000000  0.250000000  0.651006323
     0.250000000  0.500000000  0.651006323
     0.000000000  0.500000000  0.549890244
     0.250000000  0.250000000  0.549890244
     0.500000000  0.750000000  0.450535089
     0.750000000  0.000000000  0.450535089
     0.500000000  0.000000000  0.351605267
     0.750000000  0.750000000  0.351605267
     0.500000000  0.750000000  0.651006323
     0.750000000  0.000000000  0.651006323
[...]
   2.11024616  0.00000000 13.88644563
   0.00000000  0.00000000 11.72956500
   2.11024616  6.33073849 11.72956500
   0.00000000  2.11024616  9.61024616
   2.11024616  4.22049233  9.61024616
   0.00000000  4.22049233  7.50000000
   2.11024616  2.11024616  7.50000000
   0.00000000  2.11024616 13.88644563
   2.11024616  4.22049233 13.88644563
   0.00000000  4.22049233 11.72956500
   2.11024616  2.11024616 11.72956500
   4.22049233  6.33073849  9.61024616
   6.33073849  0.00000000  9.61024616
   4.22049233  0.00000000  7.50000000
   6.33073849  6.33073849  7.50000000
   4.22049233  6.33073849 13.88644563
   6.33073849  0.00000000 13.88644563
   4.22049233  0.00000000 11.72956500
   6.33073849  6.33073849 11.72956500
   4.22049233  2.11024616  9.61024616
   6.33073849  4.22049233  9.61024616
   4.22049233  4.22049233  7.50000000
   6.33073849  2.11024616  7.50000000
   4.22049233  2.11024616 13.88644563
   6.33073849  4.22049233 13.88644563
   4.22049233  4.22049233 11.72956500
   6.33073849  2.11024616 11.72956500

--------------------------------------- Iteration      FINAL  ---------------------------------------

--------------------OUTCAR has been truncated-------------------------

[...]

--------------------OUTCAR has been truncated-------------------------

  FORCE on cell =-STRESS in cart. coord.  units (eV):
  Direction    XX          YY          ZZ          XY          YZ          ZX
  Alpha Z   919.54008   919.54008   919.54008
  Ewald  156080.39735155923.67114************     1.29653     0.04928    48.08590
  Hartree166391.04392166267.87023************     0.98735     0.11939    36.23978
  E(xc)   -2514.30216 -2514.38761 -2522.25796     0.00119     0.00066     0.03342
  Local  ************************331947.91495    -2.35246    -0.19649   -86.20444
  n-local -2819.24520 -2820.40249 -2841.44167     0.01123    -0.01130     0.43475
  augment  1046.69990  1046.64376  1037.10178     0.00060    -0.00267     0.01814
  Kinetic  7496.57505  7492.11940  7533.21623     0.05614     0.11193     1.51547
  Fock        0.00000     0.00000     0.00000     0.00000     0.00000     0.00000
  vdW       -21.93017   -21.80538   -17.25474    -0.00133    -0.00003    -0.03635
  Total     -26.48998   -26.50311    -1.87745    -0.00074     0.07078     0.08667
  in kB     -27.92545   -27.93928    -1.97919    -0.00079     0.07462     0.09136

 VOLUME and BASIS-vectors are now :
  energy-cutoff  :      600.00
  volume of cell :     1519.82
      direct lattice vectors                 reciprocal lattice vectors
     8.440984654  0.000000000  0.000000000     0.118469591  0.000000000  0.000000000
     0.000000000  8.440984654  0.000000000     0.000000000  0.118469591  0.000000000
     0.000000000  0.000000000 21.330738491     0.000000000  0.000000000  0.046880702

  length of vectors
     8.440984654  8.440984654 21.330738491     0.118469591  0.118469591  0.046880702

 FORCES acting on ions:
    Electron-Ion                     Ewald-Force                    Non-Local-Force
   0.690E+02 0.734E+00 -.916E+03   -.689E+02 -.748E+00 0.916E+03   -.869E-01 0.175E-01 -.132E+00
   -.691E+02 -.733E+00 -.862E+03   0.695E+02 0.746E+00 0.862E+03   -.348E+00 -.142E-01 0.253E+00
   0.181E+02 0.464E+02 -.231E+03   -.190E+02 -.508E+02 0.228E+03   0.975E+00 0.446E+01 0.302E+01
   0.194E+02 -.467E+02 -.231E+03   -.205E+02 0.512E+02 0.229E+03   0.111E+01 -.450E+01 0.290E+01
   0.456E+02 0.122E+01 -.234E+03   -.492E+02 -.133E+01 0.238E+03   0.366E+01 0.108E+00 -.406E+01
   -.448E+02 -.127E+01 -.211E+03   0.484E+02 0.138E+01 0.207E+03   -.354E+01 -.110E+00 0.425E+01
   -.195E+02 0.463E+02 -.213E+03   0.207E+02 -.507E+02 0.216E+03   -.113E+01 0.442E+01 -.301E+01
   -.181E+02 -.459E+02 -.213E+03   0.191E+02 0.503E+02 0.216E+03   -.993E+00 -.436E+01 -.313E+01
   -.911E-01 -.233E+00 0.208E+04   0.910E-01 0.233E+00 -.207E+04   0.114E-03 0.152E-03 -.716E+01
   0.158E+00 0.373E-02 0.208E+04   -.159E+00 -.390E-02 -.207E+04   0.176E-03 0.135E-03 -.716E+01
   -.291E+00 0.109E-01 0.723E+03   0.290E+00 -.132E-01 -.723E+03   0.537E-03 0.159E-02 0.542E+00
   0.641E+00 -.873E+00 0.724E+03   -.639E+00 0.869E+00 -.724E+03   -.138E-02 0.172E-02 0.530E+00
   -.161E+01 -.412E+01 -.624E+03   0.161E+01 0.411E+01 0.624E+03   0.183E-02 0.608E-02 -.191E+00
   0.282E+01 0.594E-01 -.627E+03   -.282E+01 -.598E-01 0.627E+03   -.262E-02 0.248E-03 -.193E+00
   -.459E+01 0.102E+00 -.198E+04   0.460E+01 -.100E+00 0.198E+04   -.365E-02 -.634E-03 0.610E+01
   0.170E+02 -.197E+02 -.196E+04   -.171E+02 0.197E+02 0.196E+04   0.575E-01 0.179E-01 0.616E+01
   -.912E-01 0.233E+00 0.208E+04   0.911E-01 -.233E+00 -.207E+04   0.115E-03 0.628E-04 -.716E+01
   0.166E+00 -.413E-02 0.208E+04   -.165E+00 0.400E-02 -.207E+04   -.834E-03 0.105E-03 -.716E+01
   -.355E+00 -.251E-01 0.725E+03   0.352E+00 0.228E-01 -.725E+03   0.249E-02 0.152E-02 0.502E+00
   0.636E+00 0.860E+00 0.724E+03   -.634E+00 -.862E+00 -.724E+03   -.975E-03 0.169E-02 0.529E+00
   -.162E+01 0.413E+01 -.624E+03   0.162E+01 -.413E+01 0.624E+03   0.182E-02 -.669E-02 -.193E+00
   0.436E+01 -.566E-01 -.617E+03   -.434E+01 0.572E-01 0.618E+03   -.289E-01 -.436E-03 -.362E+00
   -.113E+02 -.900E-01 -.196E+04   0.114E+02 0.912E-01 0.195E+04   -.896E-01 -.168E-02 0.615E+01
   0.172E+02 0.197E+02 -.196E+04   -.173E+02 -.197E+02 0.196E+04   0.652E-01 -.187E-01 0.617E+01
   0.909E-01 -.241E+00 0.208E+04   -.909E-01 0.239E+00 -.207E+04   -.243E-04 0.118E-02 -.716E+01
   -.159E+00 0.383E-02 0.208E+04   0.159E+00 -.400E-02 -.207E+04   -.925E-04 0.139E-03 -.716E+01
   0.284E+00 0.809E-02 0.724E+03   -.285E+00 -.118E-01 -.724E+03   0.575E-03 0.249E-02 0.514E+00
   -.645E+00 -.938E+00 0.724E+03   0.641E+00 0.932E+00 -.725E+03   0.266E-02 0.386E-02 0.537E+00
   0.163E+01 -.566E+01 -.617E+03   -.163E+01 0.563E+01 0.617E+03   -.157E-02 0.296E-01 -.241E+00
   -.281E+01 0.638E-01 -.624E+03   0.281E+01 -.642E-01 0.625E+03   0.534E-03 0.268E-03 -.189E+00
   0.465E+01 0.330E+00 -.197E+04   -.465E+01 -.328E+00 0.196E+04   0.313E-02 -.157E-02 0.612E+01
   -.172E+02 -.268E+02 -.195E+04   0.172E+02 0.269E+02 0.194E+04   -.517E-01 -.415E-01 0.618E+01
   0.910E-01 0.240E+00 0.208E+04   -.910E-01 -.239E+00 -.207E+04   -.301E-04 -.885E-03 -.716E+01
   -.166E+00 -.427E-02 0.208E+04   0.165E+00 0.413E-02 -.207E+04   0.885E-03 0.113E-03 -.716E+01
   0.352E+00 -.175E-01 0.726E+03   -.350E+00 0.149E-01 -.726E+03   -.178E-02 0.165E-02 0.561E+00
   -.639E+00 0.926E+00 0.725E+03   0.635E+00 -.925E+00 -.725E+03   0.216E-02 -.299E-03 0.536E+00
   0.163E+01 0.564E+01 -.617E+03   -.163E+01 -.561E+01 0.617E+03   -.170E-02 -.294E-01 -.248E+00
   -.440E+01 -.630E-01 -.613E+03   0.437E+01 0.641E-01 0.614E+03   0.312E-01 -.738E-03 -.305E+00
   0.120E+02 -.507E+00 -.189E+04   -.121E+02 0.521E+00 0.189E+04   0.741E-01 -.105E-01 0.599E+01
   -.174E+02 0.269E+02 -.195E+04   0.175E+02 -.269E+02 0.194E+04   -.592E-01 0.406E-01 0.618E+01
   -.239E+00 -.689E+00 0.542E+03   0.241E+00 0.686E+00 -.542E+03   -.295E-02 0.458E-02 -.968E-01
   0.472E+00 0.708E-02 0.542E+03   -.467E+00 -.371E-02 -.542E+03   -.772E-02 -.448E-02 -.102E+00
   -.649E-01 0.322E-02 0.156E+04   0.650E-01 -.314E-02 -.157E+04   -.102E-03 -.132E-03 0.341E+01
   0.122E+00 -.174E+00 0.156E+04   -.121E+00 0.173E+00 -.157E+04   -.721E-03 0.556E-03 0.341E+01
   -.594E+01 -.117E+02 -.150E+04   0.594E+01 0.117E+02 0.150E+04   -.316E-02 0.112E-01 -.493E+01
   0.731E+01 0.147E+00 -.151E+04   -.729E+01 -.150E+00 0.151E+04   -.167E-01 0.375E-02 -.493E+01
   -.964E+00 0.290E-01 -.466E+03   0.966E+00 -.272E-01 0.466E+03   -.532E-03 -.216E-02 0.254E+00
   0.264E+01 -.335E+01 -.461E+03   -.263E+01 0.333E+01 0.461E+03   -.579E-02 0.215E-01 0.276E+00
   -.240E+00 0.681E+00 0.542E+03   0.242E+00 -.672E+00 -.542E+03   -.290E-02 -.124E-01 -.968E-01
   0.518E+00 -.181E-01 0.543E+03   -.528E+00 0.213E-01 -.543E+03   0.132E-01 -.427E-02 -.111E+00
   -.717E-01 -.308E-02 0.156E+04   0.715E-01 0.317E-02 -.157E+04   0.332E-03 -.123E-03 0.341E+01
   0.121E+00 0.174E+00 0.156E+04   -.121E+00 -.173E+00 -.157E+04   -.629E-03 -.844E-03 0.341E+01
   -.595E+01 0.117E+02 -.150E+04   0.595E+01 -.117E+02 0.150E+04   -.404E-02 -.785E-02 -.493E+01
   0.211E+02 -.168E+00 -.148E+04   -.210E+02 0.166E+00 0.148E+04   -.102E+00 0.243E-02 -.503E+01
   -.144E+01 -.446E-01 -.459E+03   0.144E+01 0.447E-01 0.459E+03   -.852E-02 0.140E-03 0.276E+00
   0.264E+01 0.335E+01 -.461E+03   -.263E+01 -.333E+01 0.461E+03   -.485E-02 -.204E-01 0.277E+00
   0.235E+00 -.737E+00 0.543E+03   -.234E+00 0.750E+00 -.543E+03   -.372E-03 -.170E-01 -.107E+00
   -.474E+00 0.737E-02 0.542E+03   0.471E+00 -.386E-02 -.542E+03   0.478E-02 -.466E-02 -.102E+00
   0.650E-01 0.297E-02 0.156E+04   -.650E-01 -.290E-02 -.157E+04   0.332E-05 -.108E-03 0.341E+01
   -.121E+00 -.180E+00 0.156E+04   0.121E+00 0.180E+00 -.157E+04   0.598E-03 0.951E-03 0.341E+01
   0.603E+01 -.259E+02 -.147E+04   -.603E+01 0.259E+02 0.148E+04   0.236E-04 0.858E-01 -.491E+01
   -.736E+01 0.161E+00 -.150E+04   0.735E+01 -.165E+00 0.151E+04   0.140E-01 0.443E-02 -.493E+01
   0.957E+00 0.621E-01 -.461E+03   -.960E+00 -.644E-01 0.461E+03   0.286E-02 0.311E-02 0.293E+00
   -.264E+01 -.385E+01 -.459E+03   0.264E+01 0.383E+01 0.459E+03   0.508E-02 0.151E-01 0.279E+00
   0.236E+00 0.721E+00 0.543E+03   -.236E+00 -.725E+00 -.543E+03   -.218E-03 0.612E-02 -.106E+00
   -.520E+00 -.193E-01 0.544E+03   0.531E+00 0.228E-01 -.543E+03   -.147E-01 -.452E-02 -.116E+00
   0.717E-01 -.253E-02 0.156E+04   -.715E-01 0.272E-02 -.157E+04   -.368E-03 -.269E-03 0.341E+01
   -.121E+00 0.181E+00 0.156E+04   0.121E+00 -.180E+00 -.157E+04   0.516E-03 -.126E-02 0.341E+01
   0.606E+01 0.261E+02 -.147E+04   -.606E+01 -.260E+02 0.148E+04   0.666E-03 -.782E-01 -.490E+01
   -.216E+02 -.179E+00 -.145E+04   0.216E+02 0.176E+00 0.146E+04   0.739E-01 0.420E-02 -.495E+01
   0.146E+01 -.339E-01 -.455E+03   -.147E+01 0.307E-01 0.454E+03   0.645E-02 0.300E-02 0.965E-01
   -.265E+01 0.385E+01 -.459E+03   0.264E+01 -.384E+01 0.458E+03   0.453E-02 -.127E-01 0.280E+00
   0.401E+00 -.988E-02 0.169E+02   -.114E-12 -.171E-12 -.227E-11   -.403E+00 0.839E-02 -.169E+02

 POSITION                                       TOTAL-FORCE (eV/Angst)
      4.25793      4.20000     16.91917        -0.002506      0.004152     -0.002023
      5.70121      4.21492     17.43265         0.002300     -0.001353     -0.000191
      4.06804      3.31080     16.29628         0.003966     -0.001567      0.003243
      4.04156      5.09931     16.31984         0.004130     -0.001694      0.002017
      3.52708      4.17829     17.74100         0.003711      0.000460     -0.001651
      6.40800      4.23739     16.59029        -0.003625      0.000362      0.008788
      5.92111      3.32213     18.03645         0.003516     -0.000983     -0.001853
      5.89344      5.09607     18.06238         0.005722      0.001468     -0.003694
      0.00000      6.33074      7.50000        -0.000014     -0.000083      0.338020
      2.11025      0.00000      7.50000        -0.000021     -0.000013      0.338246
      0.00000      0.00000      9.61025        -0.000224     -0.000735      0.078066
      2.11025      6.33074      9.61025         0.000593     -0.001282      0.079741
     -0.00026      6.33017     11.73496         0.000132     -0.001887      0.000459
      2.11007     -0.00057     11.73519         0.000707     -0.000146     -0.001294
     -0.00013     -0.00102     13.84111        -0.001011      0.001035     -0.001390
      2.10911      6.32917     13.83863        -0.000111     -0.004906      0.000809
      0.00000      2.11025      7.50000        -0.000013      0.000072      0.338047
      2.11025      4.22049      7.50000         0.000270     -0.000005      0.338406
      0.00000      4.22049      9.61025        -0.000728     -0.000699      0.082282
      2.11025      2.11025      9.61025         0.000488     -0.000374      0.079575
     -0.00026      2.10982     11.73490         0.000266      0.001050      0.000829
      2.11126      4.21992     11.73629        -0.000825      0.000148      0.004554
      0.00116      4.21958     13.83714         0.002902     -0.000394      0.002182
      2.10908      2.10975     13.83851        -0.001391      0.006383      0.001034
      4.22049      6.33074      7.50000         0.000038     -0.000346      0.338304
      6.33074      0.00000      7.50000         0.000036     -0.000015      0.338124
      4.22049      0.00000      9.61025        -0.000274     -0.001203      0.081763
      6.33074      6.33074      9.61025        -0.001280     -0.002092      0.079785
      4.22035      6.32892     11.73616        -0.000286      0.000475      0.003205
      6.33056     -0.00059     11.73533        -0.000698     -0.000068     -0.000751
      4.22010     -0.00113     13.83766         0.000434     -0.000055      0.004445
      6.33104      6.32983     13.83944        -0.001713     -0.001440      0.002055
      4.22049      2.11025      7.50000         0.000039      0.000310      0.338246
      6.33074      4.22049      7.50000        -0.000224     -0.000006      0.338554
      4.22049      4.22049      9.61025         0.000607     -0.000950      0.085493
      6.33074      2.11025      9.61025        -0.001132      0.000338      0.079579
      4.22037      2.11068     11.73615        -0.000317      0.000954      0.002185
      6.32950      4.21990     11.73675         0.000240      0.000410      0.002380
      4.21911      4.21938     13.85365        -0.004181      0.003099      0.000852
      6.33117      2.10905     13.83930        -0.000399      0.003335      0.001920
      0.00000      6.33074      9.61025        -0.000758      0.001548      0.080836
      2.11025      0.00000      9.61025        -0.002145     -0.001097      0.080185
      0.00000      0.00000      7.50000        -0.000008     -0.000021     -0.500108
      2.11025      6.33074      7.50000        -0.000189      0.000172     -0.500249
     -0.00054      6.32952     13.88698        -0.002251      0.003016      0.000485
      2.10973     -0.00101     13.88705        -0.000186      0.000943      0.000215
     -0.00031     -0.00053     11.73025         0.000885     -0.000307     -0.000844
      2.10989      6.33082     11.72973         0.000101      0.001552     -0.003180
      0.00000      2.11025      9.61025        -0.000743     -0.003449      0.080539
      2.11025      4.22049      9.61025         0.003518     -0.001019      0.083603
      0.00000      4.22049      7.50000         0.000117     -0.000019     -0.500260
      2.11025      2.11025      7.50000        -0.000164     -0.000223     -0.500240
     -0.00052      2.10952     13.88682        -0.002241     -0.001821      0.000744
      2.10781      4.21948     13.88157        -0.000822      0.000280     -0.008537
     -0.00031      4.21998     11.72868        -0.001900      0.000260     -0.004123
      2.10982      2.10904     11.72965         0.001068     -0.001307     -0.002875
      4.22049      6.33074      9.61025        -0.000025     -0.004294      0.083925
      6.33074      0.00000      9.61025         0.001463     -0.001138      0.081160
      4.22049      0.00000      7.50000         0.000017     -0.000016     -0.500149
      6.33074      6.33074      7.50000         0.000194      0.000288     -0.500284
      4.22034      6.33233     13.88613         0.000437      0.003660     -0.001458
      6.33073     -0.00103     13.88762        -0.000061      0.001128     -0.000581
      4.22040     -0.00071     11.72907         0.000092      0.000804      0.000760
      6.33072      6.33073     11.73011        -0.000271     -0.000396     -0.001693
      4.22049      2.11025      9.61025         0.000014      0.001672      0.084174
      6.33074      4.22049      9.61025        -0.003851     -0.001080      0.084272
      4.22049      4.22049      7.50000        -0.000091     -0.000062     -0.500739
      6.33074      2.11025      7.50000         0.000172     -0.000344     -0.500276
      4.22040      2.10623     13.88554         0.000470     -0.001695     -0.001297
      6.33242      4.21947     13.88436        -0.001946      0.000481     -0.006681
      4.22056      4.21990     11.73288         0.001120     -0.000173     -0.006187
      6.33080      2.10908     11.73003        -0.001139      0.000904     -0.001478
    total drift:                               -0.001513     -0.001494      0.008116

  FREE ENERGIE OF THE ION-ELECTRON SYSTEM (eV)
  free  energy   TOTEN  =      -412.15446122 eV

  energy  without entropy=     -412.15446122  energy(sigma->0) =     -412.15446122

 d Force = 0.1279240E-04[ 0.660E-05, 0.190E-04]  d Energy = 0.1391225E-04-0.112E-05
 d Force =-0.3577625E+01[-0.358E+01,-0.358E+01]  d Ewald  =-0.3577625E+01 0.165E-07

 reached required accuracy - stopping structural energy minimisation