 vasp.6.3.0 20Jan22 (build Aug 21 2024 11:13:42) complex
 executed on        HPECrayEX_GCC date 2024.11.26  21:21:14

 INCAR:
   SYSTEM = TiO2
   ISMEAR = 0
   SIGMA = 0.05
   EDIFF = 1E-4
   ALGO = ALL
   ISTART = 0
   IBRION = -1
   NSW = 0
   ISYM = 0
   ISIF = 2
   EDIFFG = -0.01
   DIPOL = 0.5 0.5 0.5
   IDIPOL = 3
   LDIPOL = .TRUE.
   GGA = PE
   IVDW = 21
   ENCUT = 600
   PREC = Accurate
   LASPH = .TRUE.
   LREAL = .FALSE.
   ISPIN = 1
   NELM = 200
   NELMIN = 8
   NCORE = 16
   KPAR = 1
   LWAVE = .FALSE.
   LCHARG = .FALSE.

 POTCAR:    PAW_PBE C 08Apr2002
 POTCAR:    PAW_PBE H 15Jun2001
 POTCAR:    PAW_PBE Ti_pv 07Sep2000
 POTCAR:    PAW_PBE O 08Apr2002
 POTCAR:    PAW_PBE C 08Apr2002
   VRHFIN =C: s2p2

   TITEL  = PAW_PBE C 08Apr2002
   POMASS =   12.011; ZVAL   =    4.000    mass and valenz
   ENMAX  =  400.000; ENMIN  =  300.000 eV

   TITEL  = PAW_PBE H 15Jun2001
   POMASS =    1.000; ZVAL   =    1.000    mass and valenz
   ENMAX  =  250.000; ENMIN  =  200.000 eV

   TITEL  = PAW_PBE Ti_pv 07Sep2000
   POMASS =   47.880; ZVAL   =   10.000    mass and valenz
   ENMAX  =  222.335; ENMIN  =  166.751 eV

   TITEL  = PAW_PBE O 08Apr2002
   POMASS =   16.000; ZVAL   =    6.000    mass and valenz
   ENMAX  =  400.000; ENMIN  =  300.000 eV

  PAW_PBE C 08Apr2002                   :
  PAW_PBE H 15Jun2001                   :
  PAW_PBE Ti_pv 07Sep2000               :
  PAW_PBE O 08Apr2002                   :

 POSCAR:  C  H Ti  O
  positions in direct lattice
 exchange correlation table for  LEXCH =        8
   RHO(1)=    0.500       N(1)  =     2000
   RHO(2)=  100.500       N(2)  =     4000

 ion  position               nearest neighbor table
   1  0.500  0.500  0.812-   3 1.10   2 1.10   5 1.10   4 1.10
   2  0.496  0.576  0.832-   1 1.10
   3  0.504  0.424  0.832-   1 1.10
   4  0.571  0.504  0.792-   1 1.10
   5  0.429  0.496  0.792-   1 1.10
   6  0.750  0.625  0.287-  86 1.95 146 1.95  87 1.95 147 1.95 168 1.98  89 1.98  16 2.96  36 2.96

   7  0.000  0.750  0.287-  89 1.95 109 1.95 108 1.95  88 1.95  90 1.98  37 2.96  17 2.96
   8  0.000  0.625  0.394-  90 1.95 150 1.95  91 1.95 151 1.95  92 1.98  93 1.98  18 2.96  38 2.96

[...]

  85  0.500  0.500  0.709- 239 1.82 244 1.95 185 1.95 184 1.95 245 1.95  55 2.96  75 2.96
  86  0.750  0.750  0.245-   6 1.95  16 1.95
  87  0.750  0.750  0.329-   6 1.95  16 1.95   9 1.98
  88  0.098  0.625  0.287-   7 1.95  37 1.95  46 1.98
  89  0.902  0.625  0.287-   7 1.95  37 1.95   6 1.98
  90  0.000  0.750  0.352-   8 1.95  18 1.95   7 1.98
  91  0.000  0.750  0.435-   8 1.95  18 1.95  11 1.98
  92  0.848  0.625  0.394-   9 1.95  39 1.95   8 1.98
  93  0.152  0.625  0.394-  49 1.95  79 1.95   8 1.98
  94  0.750  0.750  0.458-  10 1.95  20 1.95   9 1.98
  95  0.750  0.750  0.542-  10 1.95  20 1.95  13 2.11
  96  0.098  0.625  0.500-  11 1.95  41 1.95  50 1.98
  97  0.902  0.625  0.500-  11 1.95  41 1.95  10 1.98
  98  0.000  0.750  0.565-  22 1.90  12 1.90  11 2.00
  99  0.000  0.750  0.649-  15 1.81  12 2.02  22 2.02
 100  0.850  0.625  0.607-  12 1.95  13 1.97  43 1.97
 101  0.150  0.625  0.607-  12 1.95  53 1.97  83 1.97
 102  0.750  0.750  0.672-  13 1.86  14 2.10  24 2.10
 103  0.750  0.750  0.756-  14 1.83  24 1.83
 104  0.094  0.625  0.719-  45 1.95  15 1.95  54 2.03
 105  0.906  0.625  0.719-  45 1.95  15 1.95  14 2.03
 106  0.750  0.000  0.245-  16 1.95  26 1.95
 107  0.750  0.000  0.329-  16 1.95  26 1.95  19 1.98
 108  0.098  0.875  0.287-   7 1.95  17 1.95  56 1.98
 109  0.902  0.875  0.287-   7 1.95  17 1.95  16 1.98
 110  0.000  0.000  0.352-  18 1.95  28 1.95  17 1.98
 111  0.000  0.000  0.435-  18 1.95  28 1.95  21 1.98
 112  0.848  0.875  0.394-   9 1.95  19 1.95  18 1.98
 113  0.152  0.875  0.394-  49 1.95  59 1.95  18 1.98
 114  0.750  0.000  0.458-  20 1.95  30 1.95  19 1.98
 115  0.750  0.000  0.542-  20 1.95  30 1.95  23 2.11
 116  0.098  0.875  0.500-  11 1.95  21 1.95  60 1.98
 117  0.902  0.875  0.500-  11 1.95  21 1.95  20 1.98
 118  0.000  1.000  0.565-  32 1.89  22 1.89  21 2.00
 119  1.000  0.000  0.649-  25 1.81  32 2.02  22 2.02
 120  0.850  0.875  0.607-  22 1.95  23 1.97  13 1.97
 121  0.150  0.875  0.607-  22 1.95  53 1.97  63 1.97
 122  0.750  0.000  0.672-  23 1.86  24 2.10  34 2.10
 123  0.750  0.000  0.756-  24 1.83  34 1.83
 124  0.094  0.875  0.719-  15 1.95  25 1.95  64 2.03
 125  0.906  0.875  0.719-  15 1.95  25 1.95  24 2.03
 126  0.750  0.250  0.245-  26 1.95  36 1.95
 127  0.750  0.250  0.329-  26 1.95  36 1.95  29 1.98
 128  0.098  0.125  0.287-  17 1.95  27 1.95  66 1.98
 129  0.902  0.125  0.287-  17 1.95  27 1.95  26 1.98
 130  0.000  0.250  0.352-  28 1.95  38 1.95  27 1.98
 131  0.000  0.250  0.435-  28 1.95  38 1.95  31 1.98
 132  0.848  0.125  0.394-  19 1.95  29 1.95  28 1.98
 133  0.152  0.125  0.394-  59 1.95  69 1.95  28 1.98
 134  0.750  0.250  0.458-  30 1.95  40 1.95  29 1.98
 135  0.750  0.250  0.542-  30 1.95  40 1.95  33 2.11
 136  0.098  0.125  0.500-  21 1.95  31 1.95  70 1.98
 137  0.902  0.125  0.500-  21 1.95  31 1.95  30 1.98
 138  0.000  0.250  0.565-  32 1.90  42 1.90  31 2.00
 139  1.000  0.250  0.649-  35 1.81  42 2.02  32 2.02
 140  0.850  0.125  0.607-  32 1.95  33 1.97  23 1.97
 141  0.150  0.125  0.607-  32 1.95  63 1.97  73 1.97
 142  0.750  0.250  0.672-  33 1.86  44 2.10  34 2.10
 143  0.750  0.250  0.756-  44 1.83  34 1.83
 144  0.094  0.125  0.719-  35 1.95  25 1.95  74 2.03
[...]
 231  0.500  0.500  0.435-  48 1.95  78 1.95  81 1.98
 232  0.348  0.375  0.394-  69 1.95  79 1.95  78 1.98
 233  0.652  0.375  0.394-  29 1.95  39 1.95  78 1.98
 234  0.250  0.500  0.458-  50 1.95  80 1.95  79 1.98
 235  0.250  0.500  0.542-  50 1.95  80 1.95  83 2.11
 236  0.598  0.375  0.500-  71 1.95  81 1.95  40 1.98
 237  0.402  0.375  0.500-  71 1.95  81 1.95  80 1.98
 238  0.500  0.500  0.565-  82 1.90  52 1.90  81 2.00
 239  0.500  0.500  0.649-  85 1.82  82 2.02  52 2.02
 240  0.350  0.375  0.607-  82 1.95  83 1.97  73 1.97
 241  0.650  0.375  0.607-  82 1.95  43 1.97  33 1.97
 242  0.249  0.500  0.672-  83 1.86  84 2.10  54 2.10
 243  0.251  0.500  0.756-  54 1.84  84 1.84
 244  0.594  0.374  0.718-  75 1.94  85 1.95  44 2.03
 245  0.406  0.374  0.718-  75 1.94  85 1.95  84 2.03

IMPORTANT INFORMATION: All symmetrisations will be switched off!
NOSYMM: (Re-)initialisation of all symmetry stuff for point group C_1.

                                     Primitive cell

  volume of cell :    4700.2642

  direct lattice vectors                    reciprocal lattice vectors
    13.003962940  0.000000000  0.000000000     0.076899635  0.000000000  0.000000000
     0.000000000 11.830322230  0.000000000     0.000000000  0.084528551  0.000000000
     0.000000000  0.000000000 30.552726600     0.000000000  0.000000000  0.032730303

  length of vectors
    13.003962940 11.830322230 30.552726600     0.076899635  0.084528551  0.032730303

  position of ions in fractional coordinates (direct lattice)
     0.500054181  0.499991615  0.811837592
     0.496254990  0.575800755  0.832419822
     0.503869532  0.424210026  0.832421078
     0.570623675  0.504129207  0.792162233
     0.429483306  0.495863185  0.792169603
     0.750000000  0.625000000  0.287188176
     0.000000000  0.750000000  0.287188176
     0.000000000  0.625000000  0.393594088
     0.750000000  0.750000000  0.393594088
     0.750000000  0.625000000  0.500000000
     0.000000000  0.750000000  0.500000000
     0.999998837  0.625017872  0.604126421
     0.750022868  0.750042355  0.610708306
     0.750126498  0.625141223  0.720263330
     0.000025167  0.750090308  0.708155069
     0.750000000  0.875000000  0.287188176
     0.000000000  0.000000000  0.287188176
     0.000000000  0.875000000  0.393594088
     0.750000000  0.000000000  0.393594088
     0.750000000  0.875000000  0.500000000
     0.000000000  0.000000000  0.500000000
     0.999995626  0.875021439  0.604143759
     0.749958937  0.000003686  0.610770040
     0.749863857  0.875037753  0.720477321
     0.999999844  0.999999993  0.708164464
     0.750000000  0.125000000  0.287188176
     0.000000000  0.250000000  0.287188176
     0.000000000  0.125000000  0.393594088
     0.750000000  0.250000000  0.393594088
     0.750000000  0.125000000  0.500000000
     0.000000000  0.250000000  0.500000000
     0.000004466  0.124978555  0.604143757
     0.750022192  0.249960079  0.610719754
     0.749844529  0.124980119  0.720481821
     0.999975771  0.249909689  0.708155064
     0.750000000  0.375000000  0.287188176
     0.000000000  0.500000000  0.287188176
     0.000000000  0.375000000  0.393594088
     0.750000000  0.500000000  0.393594088
     0.750000000  0.375000000  0.500000000
     0.000000000  0.500000000  0.500000000
     0.000001085  0.374982132  0.604126418
     0.750048746  0.499996788  0.610710147
     0.750070715  0.374901721  0.720299353
     0.000000646  0.500000004  0.708135902
     0.250000000  0.625000000  0.287188176
     0.500000000  0.750000000  0.287188176
     0.500000000  0.625000000  0.393594088
     0.250000000  0.750000000  0.393594088
     0.250000000  0.625000000  0.500000000
     0.500000000  0.750000000  0.500000000
     0.499998992  0.624678786  0.604435867
     0.249977873  0.750039752  0.610719962
     0.249930964  0.625097786  0.720300091
     0.500006915  0.749980500  0.708009809
     0.250000000  0.875000000  0.287188176
     0.500000000  0.000000000  0.287188176
     0.500000000  0.875000000  0.393594088
     0.250000000  0.000000000  0.393594088
     0.250000000  0.875000000  0.500000000
[...]
     0.500000000  0.500000000  0.435304992
     0.347999497  0.375000000  0.393594088
     0.652000503  0.375000000  0.393594088
     0.250000000  0.500000000  0.458289097
     0.250000000  0.500000000  0.541710903
     0.597999497  0.375000000  0.500000000
     0.402000503  0.375000000  0.500000000
     0.500000020  0.499999991  0.565487275
     0.499999753  0.500000003  0.649405262
     0.350130245  0.374995664  0.607234684
     0.649870524  0.375002822  0.607229364
     0.249455521  0.500024046  0.671576992
     0.250884930  0.499952723  0.755784681
     0.594300946  0.374401960  0.718241168
     0.405623704  0.374356559  0.718135013

  ion indices of the primitive-cell ions
   primitive index   ion index
                 1           1
                 2           2
                 3           3
                 4           4
                 5           5
                 6           6
                 7           7
                 8           8
                 9           9
                10          10
                11          11
                12          12
                13          13
                14          14
                15          15
                16          16
                17          17
                18          18
                19          19
                20          20
                21          21
                22          22
                23          23
                24          24
                25          25
                26          26
                27          27
                28          28
                29          29
                30          30
                31          31
[...]
   O          53.577          3.923         10.007          1.85320862
   O          53.577          3.923         10.007          1.85321452
   O          53.332          3.920          9.984          1.84896966
   O          53.967          3.928         10.044          1.85995227
   O          53.563          3.923         10.006          1.85296323
   O          53.565          3.923         10.006          1.85300672
   O          53.608          3.923         10.010          1.85375693
   O          36.619          3.682          8.273          1.53210664
   O          51.878          3.902          9.847          1.82359137
   O          51.988          3.903          9.858          1.82551680

  vdW correction parametrized for the method pbe

  IVDW =  21
  VDW_RADIUS =    50.000 A
  VDW_IDAMPF =  0
  VDW_S6 =     1.000
  VDW_SR =     0.950
  VDW_D =    20.000
  LVDW_ONECELL = F F F
  LVDW_SAMETYPE T T T T
  LVDW_EWALD = F

  Number of pair interactions contributing to vdW energy: 3395109
  Edisp (eV):  -35.17068

  FORCE on cell =-STRESS in cart. coord.  units (eV):
  Direction    XX          YY          ZZ          XY          YZ          ZX
  Alpha Z  4686.78064  4686.78064  4686.78064
  Ewald  975510.59677993102.69012************    -0.35144    -0.01141    -0.03883
  Hartree************************************    -0.22815    -0.00004    -0.04036
  E(xc)   -8621.72699 -8603.70096 -8631.12315    -0.00096    -0.00000    -0.00004
  Local  ************************************     0.60327     0.00712     0.08208
  n-local -5415.90355 -5340.84283 -5462.14300    -0.00236     0.00028     0.00004
  augment  5220.47168  5202.04948  5223.88924    -0.00219     0.00011     0.00003
  Kinetic 28717.95419 28247.45173 28768.71329    -0.00204     0.00059    -0.00199
  Fock        0.00000     0.00000     0.00000     0.00000     0.00000     0.00000
  vdW       -50.86893   -29.18461   -43.31246    -0.00190    -0.00001     0.00011
  Total      37.98466     8.96954    -6.49495     0.01422    -0.00336     0.00105
  in kB      12.94782     3.05745    -2.21393     0.00485    -0.00115     0.00036

 VOLUME and BASIS-vectors are now :
  energy-cutoff  :      600.00
  volume of cell :     4700.26
      direct lattice vectors                 reciprocal lattice vectors
    13.003962940  0.000000000  0.000000000     0.076899635  0.000000000  0.000000000
     0.000000000 11.830322230  0.000000000     0.000000000  0.084528551  0.000000000
     0.000000000  0.000000000 30.552726600     0.000000000  0.000000000  0.032730303

  length of vectors
    13.003962940 11.830322230 30.552726600     0.076899635  0.084528551  0.032730303

 FORCES acting on ions:
    Electron-Ion                     Ewald-Force                    Non-Local-Force
   0.172E-01 -.400E-02 -.153E+04   -.144E-01 0.694E-02 0.153E+04   0.224E-03 0.394E-02 -.678E+00
   0.218E+01 -.435E+02 -.374E+03   -.242E+01 0.480E+02 0.377E+03   0.252E+00 -.452E+01 -.320E+01
   -.218E+01 0.435E+02 -.374E+03   0.243E+01 -.480E+02 0.377E+03   -.253E+00 0.452E+01 -.320E+01
   -.354E+02 -.235E+01 -.390E+03   0.402E+02 0.260E+01 0.387E+03   -.474E+01 -.248E+00 0.281E+01
   0.355E+02 0.235E+01 -.390E+03   -.402E+02 -.259E+01 0.387E+03   0.474E+01 0.247E+00 0.281E+01
   -.113E+00 -.361E-01 0.379E+04   0.113E+00 0.362E-01 -.380E+04   0.432E-04 -.522E-04 0.436E+00
   -.811E-04 -.490E-01 0.398E+04   0.142E-03 0.491E-01 -.397E+04   -.346E-05 -.194E-06 -.389E+01
   -.788E-03 -.564E-01 0.194E+04   0.854E-03 0.565E-01 -.193E+04   -.128E-05 0.118E-04 -.443E-01
   -.149E+00 -.644E-01 0.193E+04   0.148E+00 0.648E-01 -.193E+04   0.746E-04 -.800E-05 0.202E+00
   -.539E+00 -.265E+00 -.337E+01   0.535E+00 0.266E+00 0.421E+01   0.582E-03 -.819E-04 -.137E+00
   -.117E-01 -.424E+00 0.769E+01   0.120E-01 0.427E+00 -.877E+01   -.699E-04 -.937E-03 0.347E+00
   -.317E-01 -.131E+01 -.187E+04   0.319E-01 0.131E+01 0.187E+04   -.704E-04 -.105E-02 0.632E-02
   -.437E+01 -.339E+01 -.194E+04   0.437E+01 0.339E+01 0.194E+04   -.269E-02 -.228E-02 -.481E-01
   -.345E+02 -.141E+02 -.375E+04   0.345E+02 0.141E+02 0.375E+04   0.323E-03 0.381E-02 -.164E+00
   -.546E-01 -.472E+01 -.379E+04   0.540E-01 0.472E+01 0.379E+04   0.632E-03 -.108E-02 0.954E+00
   -.111E+00 -.362E-01 0.380E+04   0.111E+00 0.363E-01 -.380E+04   0.664E-04 -.126E-04 0.436E+00
   0.715E-05 0.311E-04 0.398E+04   0.585E-04 -.142E-05 -.397E+04   -.850E-05 0.122E-04 -.389E+01
   -.797E-03 -.569E-01 0.194E+04   0.868E-03 0.570E-01 -.193E+04   0.102E-04 0.771E-05 -.443E-01
   -.167E+00 -.101E-02 0.193E+04   0.166E+00 0.103E-02 -.193E+04   0.155E-03 -.430E-05 0.202E+00
   -.754E+00 -.303E+00 -.401E+01   0.752E+00 0.312E+00 0.485E+01   0.383E-03 -.474E-03 -.138E+00
   -.490E-03 0.179E-04 0.723E+01   0.498E-03 -.169E-04 -.832E+01   -.108E-04 0.522E-05 0.347E+00
   -.523E-01 -.124E+01 -.187E+04   0.525E-01 0.124E+01 0.187E+04   -.124E-03 -.151E-02 0.517E-02
   -.332E+01 -.847E-03 -.194E+04   0.332E+01 0.905E-03 0.194E+04   0.137E-03 -.929E-04 -.443E-01
   -.127E+02 -.999E+01 -.377E+04   0.127E+02 0.999E+01 0.377E+04   0.129E-01 0.137E-03 -.178E+00
   -.314E-02 0.789E-04 -.379E+04   0.323E-02 -.932E-04 0.379E+04   0.228E-04 0.866E-05 0.962E+00
   -.111E+00 0.361E-01 0.380E+04   0.111E+00 -.362E-01 -.380E+04   -.258E-04 -.967E-06 0.436E+00
   0.243E-04 0.490E-01 0.398E+04   -.177E-04 -.491E-01 -.397E+04   0.267E-05 0.789E-05 -.389E+01
   0.601E-03 0.568E-01 0.194E+04   -.561E-03 -.570E-01 -.193E+04   0.157E-04 -.320E-05 -.444E-01
   -.149E+00 0.644E-01 0.193E+04   0.148E+00 -.649E-01 -.193E+04   0.994E-04 0.356E-05 0.202E+00
   -.759E+00 0.288E+00 -.403E+01   0.757E+00 -.295E+00 0.488E+01   0.450E-03 0.382E-03 -.138E+00
   0.102E-01 0.424E+00 0.769E+01   -.104E-01 -.427E+00 -.877E+01   0.594E-04 0.936E-03 0.347E+00
   0.487E-01 0.124E+01 -.187E+04   -.489E-01 -.124E+01 0.187E+04   0.107E-03 0.151E-02 0.517E-02
   -.441E+01 0.339E+01 -.194E+04   0.441E+01 -.339E+01 0.194E+04   -.256E-02 0.154E-02 -.481E-01
   -.127E+02 0.992E+01 -.377E+04   0.127E+02 -.992E+01 0.377E+04   0.135E-01 0.106E-03 -.178E+00
   0.426E-01 0.472E+01 -.379E+04   -.421E-01 -.472E+01 0.379E+04   -.655E-03 0.109E-02 0.954E+00
   -.113E+00 0.362E-01 0.379E+04   0.113E+00 -.363E-01 -.380E+04   -.172E-05 0.260E-04 0.436E+00
   -.566E-04 0.251E-04 0.398E+04   0.652E-04 0.142E-05 -.397E+04   0.807E-05 -.102E-05 -.389E+01
   0.493E-03 0.564E-01 0.194E+04   -.486E-03 -.565E-01 -.193E+04   0.301E-05 -.115E-04 -.443E-01
   -.130E+00 0.940E-03 0.193E+04   0.130E+00 -.955E-03 -.193E+04   -.149E-04 -.864E-05 0.202E+00
   -.542E+00 0.280E+00 -.338E+01   0.539E+00 -.283E+00 0.422E+01   0.614E-03 0.181E-03 -.137E+00
   -.943E-03 -.217E-04 0.815E+01   0.976E-03 0.179E-04 -.923E+01   0.439E-06 0.902E-05 0.347E+00
   0.248E-01 0.131E+01 -.187E+04   -.249E-01 -.131E+01 0.187E+04   0.478E-04 0.105E-02 0.632E-02
   -.566E+01 0.184E-02 -.193E+04   0.566E+01 -.248E-02 0.193E+04   -.304E-02 0.760E-03 -.506E-01
   -.343E+02 0.142E+02 -.375E+04   0.343E+02 -.142E+02 0.375E+04   -.371E-03 -.346E-02 -.166E+00
   -.830E-02 -.124E-03 -.378E+04   0.831E-02 0.103E-03 0.378E+04   0.821E-05 -.458E-05 0.947E+00
   0.113E+00 -.361E-01 0.379E+04   -.113E+00 0.363E-01 -.380E+04   -.320E-05 -.404E-04 0.436E+00
   0.113E-03 -.531E-01 0.398E+04   -.137E-03 0.532E-01 -.397E+04   -.158E-04 -.505E-04 -.389E+01
   0.713E-03 -.234E-01 0.194E+04   -.752E-03 0.270E-01 -.193E+04   0.108E-04 -.751E-03 -.444E-01
   0.149E+00 -.644E-01 0.193E+04   -.148E+00 0.649E-01 -.193E+04   -.858E-04 -.292E-05 0.202E+00
   0.543E+00 -.280E+00 -.338E+01   -.539E+00 0.282E+00 0.422E+01   -.620E-03 -.204E-03 -.137E+00
   0.794E-02 -.203E+00 0.890E+01   -.820E-02 0.188E+00 -.995E+01   0.296E-04 0.931E-02 0.339E+00
   0.936E-02 -.318E+01 -.186E+04   -.934E-02 0.321E+01 0.186E+04   -.180E-04 -.224E-01 0.146E-01
   0.441E+01 -.339E+01 -.194E+04   -.441E+01 0.339E+01 0.194E+04   0.255E-02 -.152E-02 -.481E-01
   0.343E+02 -.142E+02 -.375E+04   -.343E+02 0.142E+02 0.375E+04   0.383E-03 0.348E-02 -.166E+00
   0.209E+00 -.346E+02 -.375E+04   -.207E+00 0.346E+02 0.375E+04   -.247E-02 -.198E-01 0.100E+01
   0.111E+00 -.361E-01 0.380E+04   -.111E+00 0.362E-01 -.380E+04   -.555E-04 0.164E-06 0.436E+00
   -.175E-05 -.134E-04 0.398E+04   -.584E-04 -.161E-05 -.397E+04   0.546E-07 -.882E-05 -.389E+01
   0.696E-03 -.256E-01 0.194E+04   -.750E-03 0.274E-01 -.193E+04   0.113E-06 -.525E-03 -.445E-01
   0.167E+00 0.995E-03 0.193E+04   -.166E+00 -.104E-02 -.193E+04   -.160E-03 -.108E-04 0.202E+00
   0.759E+00 -.288E+00 -.403E+01   -.758E+00 0.294E+00 0.488E+01   -.439E-03 -.360E-03 -.138E+00
[...]
   -.533E+02 0.208E-01 0.116E+04   0.572E+02 -.212E-01 -.116E+04   -.355E+01 0.688E-03 0.157E+00
   0.533E+02 0.215E-01 0.116E+04   -.572E+02 -.219E-01 -.116E+04   0.355E+01 0.762E-03 0.157E+00
   0.168E+00 -.195E-02 0.505E+03   -.167E+00 0.220E-02 -.510E+03   -.213E-02 -.523E-03 0.414E+01
   0.627E+00 -.608E-02 -.525E+03   -.622E+00 0.626E-02 0.532E+03   -.315E-02 -.445E-03 -.717E+01
   -.555E+02 0.220E-01 0.455E+01   0.602E+02 -.237E-01 -.480E+01   -.518E+01 0.911E-02 0.345E+00
   0.555E+02 0.174E-01 0.455E+01   -.602E+02 -.189E-01 -.480E+01   0.518E+01 0.883E-02 0.345E+00
   0.108E-02 -.595E-04 -.626E+03   -.108E-02 0.705E-04 0.619E+03   0.269E-06 0.125E-05 0.650E+01
   0.716E-02 -.138E-03 -.159E+04   -.747E-02 0.141E-03 0.159E+04   0.304E-03 0.248E-04 0.237E+01
   -.247E+02 0.183E+01 -.113E+04   0.277E+02 -.185E+01 0.113E+04   -.298E+01 0.229E-01 0.869E+00
   0.247E+02 0.186E+01 -.113E+04   -.277E+02 -.189E+01 0.113E+04   0.298E+01 0.253E-01 0.875E+00
   0.116E+02 -.133E+00 -.181E+04   -.116E+02 0.139E+00 0.181E+04   0.740E-01 -.650E-02 -.225E+01
   0.397E+02 -.891E-02 -.271E+04   -.397E+02 0.593E-02 0.273E+04   0.366E-01 0.278E-02 -.207E+02
   -.397E+02 0.220E+02 -.231E+04   0.456E+02 -.220E+02 0.231E+04   -.590E+01 -.292E-01 -.351E+01
   0.397E+02 0.218E+02 -.231E+04   -.456E+02 -.218E+02 0.231E+04   0.591E+01 -.366E-01 -.342E+01
   -.723E-03 -.528E-02 0.952E+02   0.338E-11 0.242E-11 -.400E-10   0.680E-03 0.546E-02 -.951E+02

 POSITION                                       TOTAL-FORCE (eV/Angst)
      6.50269      5.91506     24.80385         0.003040      0.006835      0.089875
      6.45328      6.81191     25.43270         0.002974     -0.023307     -0.019978
      6.55230      5.01854     25.43273        -0.003043      0.017209     -0.016142
      7.42037      5.96401     24.20272         0.033904     -0.000392      0.020707
      5.58498      5.86622     24.20294        -0.037125     -0.000298      0.018937
      9.75297      7.39395      8.77438         0.000180      0.000046     -3.468015
      0.00000      8.87274      8.77438         0.000057      0.000061      2.763022
      0.00000      7.39395     12.02537         0.000066      0.000134      0.526562
      9.75297      8.87274     12.02537        -0.000354      0.000463     -0.709918
      9.75297      7.39395     15.27636        -0.003156      0.000799      0.698798
      0.00000      8.87274     15.27636         0.000213      0.001958     -0.743244
     13.00395      7.39416     18.45771         0.000005     -0.000553      0.085887
      9.75327      8.87324     18.65880         0.001356     -0.004205     -0.045785
      9.75462      7.39562     22.00601         0.003653      0.004505     -0.008639
      0.00033      8.87381     21.63607         0.000064     -0.003048      0.064786
      9.75297     10.35153      8.77438        -0.000085      0.000059     -3.467634
      0.00000      0.00000      8.77438         0.000057      0.000041      2.763250
      0.00000     10.35153     12.02537         0.000082      0.000112      0.526785
      9.75297      0.00000     12.02537        -0.000522      0.000014     -0.709288
      9.75297     10.35153     15.27636        -0.001350      0.007787      0.704020
      0.00000      0.00000     15.27636        -0.000003      0.000005     -0.742800
     13.00391     10.35179     18.45824        -0.000080     -0.000921      0.085778
      9.75244      0.00004     18.66069         0.003675      0.000057     -0.045843
      9.75120     10.35198     22.01255         0.000507      0.001251     -0.006421
     13.00396     11.83032     21.63636         0.000117     -0.000006      0.064361
      9.75297      1.47879      8.77438        -0.000209     -0.000103     -3.467877
      0.00000      2.95758      8.77438         0.000009     -0.000050      2.763069
      0.00000      1.47879     12.02537         0.000055     -0.000128      0.526794
      9.75297      2.95758     12.02537        -0.000321     -0.000481     -0.709728
      9.75297      1.47879     15.27636        -0.001296     -0.006321      0.704953
      0.00000      2.95758     15.27636        -0.000172     -0.001951     -0.743210
      0.00006      1.47854     18.45824         0.000063      0.000943      0.085777
      9.75326      2.95711     18.65915         0.001394      0.004087     -0.045760
      9.75095      1.47856     22.01268         0.000157     -0.000741     -0.006497
     13.00365      2.95651     21.63607        -0.000222      0.003084      0.064979
      9.75297      4.43637      8.77438        -0.000046     -0.000133     -3.467728
      0.00000      5.91516      8.77438         0.000017      0.000025      2.763184
      0.00000      4.43637     12.02537         0.000010     -0.000093      0.526607
      9.75297      5.91516     12.02537        -0.000153     -0.000024     -0.710268
      9.75297      4.43637     15.27636        -0.003140     -0.002275      0.699737
      0.00000      5.91516     15.27636         0.000034      0.000004     -0.743913
      0.00001      4.43616     18.45771        -0.000057      0.000504      0.085896
      9.75361      5.91512     18.65886        -0.001067      0.000116     -0.046689
      9.75389      4.43521     22.00711         0.003409     -0.004739     -0.008846
      0.00001      5.91516     21.63548         0.000022     -0.000027      0.066066
      3.25099      7.39395      8.77438         0.000021      0.000162     -3.467624
      6.50198      8.87274      8.77438        -0.000041      0.000119      2.763489
      6.50198      7.39395     12.02537        -0.000028      0.002892      0.526845
      3.25099      8.87274     12.02537         0.000324      0.000479     -0.709708
      3.25099      7.39395     15.27636         0.003125      0.002234      0.699761
      6.50198      8.87274     15.27636        -0.000228     -0.005124     -0.718164
      6.50197      7.39015     18.46716        -0.000082      0.002564      0.084092
      3.25070      8.87321     18.65916        -0.001418     -0.004086     -0.045810
      3.25009      7.39511     22.00713        -0.003467      0.004708     -0.008883
      6.50207      8.87251     21.63163        -0.000119      0.011811      0.070970
      3.25099     10.35153      8.77438         0.000046      0.000066     -3.467731
      6.50198      0.00000      8.77438        -0.000060     -0.000024      2.763726
      6.50198     10.35153     12.02537        -0.000053      0.001313      0.528828
      3.25099      0.00000     12.02537         0.000548     -0.000055     -0.709249
      3.25099     10.35153     15.27636         0.001344      0.006323      0.704952
[...]
      6.50198      5.91516     13.29975         0.000008     -0.000026     -0.091780
      4.52537      4.43637     12.02537         0.447122      0.000268      0.055876
      8.47859      4.43637     12.02537        -0.447130      0.000302      0.055861
      3.25099      5.91516     14.00198        -0.000685     -0.000280     -0.126549
      3.25099      5.91516     16.55075         0.001292     -0.000258      0.064843
      7.77636      4.43637     15.27636        -0.473599      0.007325      0.089993
      5.22760      4.43637     15.27636         0.473297      0.007244      0.090051
      6.50198      5.91516     17.27718        -0.000002      0.000012     -0.044990
      6.50198      5.91516     19.84110        -0.000003      0.000028     -0.045453
      4.55308      4.43632     18.55268        -0.013527     -0.000473     -0.007229
      8.45089      4.43640     18.55251         0.013574     -0.000558     -0.007360
      3.24391      5.91545     20.51851         0.001293      0.000089      0.048470
      3.26250      5.91460     23.09128        -0.013597     -0.000124      0.044086
      7.72827      4.42930     21.94423        -0.002060     -0.016796      0.029846
      5.27472      4.42876     21.94098         0.003009     -0.015440      0.031109
    total drift:                               -0.000043      0.000182      0.039629

  FREE ENERGIE OF THE ION-ELECTRON SYSTEM (eV)
  free  energy   TOTEN  =     -2179.09524679 eV

  energy  without entropy=    -2179.09524679  energy(sigma->0) =    -2179.09524679