 vasp.6.4.2 20Jul23 (build Nov 17 2023 15:39:20) complex
 executed on              LinuxNV date 2024.02.27  22:58:28
 OpenACC runtime initialized ...    4 GPUs detected

 INCAR:
   SYSTEM = Oxide-Surface
   ISMEAR = 0
   SIGMA = 0.05
   EDIFF = 1E-4
   ALGO = Normal
   ISTART = 2
   IBRION = -1
   NSW = 0
   ISYM = 0
   DIPOL = 0.5 0.5 0.5
   IDIPOL = 3
   LDIPOL = .TRUE.
   LHFCALC = .TRUE.
   GGA = PE
   IVDW = 21
   VDW_SR = 0.96
   ENCUT = 450
   PREC = Normal
   LASPH = .TRUE.
   LREAL = Auto
   ISPIN = 1
   NELM = 200
   NELMIN = 8
   NCORE = 1
   KPAR = 1
   LWAVE = .FALSE.
   LCHARG = .FALSE.

 POTCAR:    PAW_PBE Mg_pv 13Apr2007
 POTCAR:    PAW_PBE O 08Apr2002
 POTCAR:    PAW_PBE Mg_pv 13Apr2007
   VRHFIN =Mg: p6s2

   TITEL  = PAW_PBE Mg_pv 13Apr2007
   POMASS =   24.305; ZVAL   =    8.000    mass and valenz
   ENMAX  =  403.929; ENMIN  =  302.947 eV

   TITEL  = PAW_PBE O 08Apr2002
   POMASS =   16.000; ZVAL   =    6.000    mass and valenz
   ENMAX  =  400.000; ENMIN  =  300.000 eV

 Optimization of the real space projectors (new method)

 maximal supplied QI-value         = 18.90
 optimisation between [QCUT,QGAM] = [ 10.77, 21.73] = [ 32.49,132.25] Ry
 Optimized for a Real-space Cutoff    1.23 Angstroem

   l    n(q)    QCUT    max X(q) W(low)/X(q) W(high)/X(q)  e(spline)
   1      7    10.771     2.974    0.18E-03    0.56E-05    0.13E-06
   1      7    10.771     4.279    0.39E-03    0.94E-04    0.28E-06
   0      8    10.771    16.381    0.27E-03    0.38E-03    0.44E-07
   0      8    10.771     5.611    0.18E-03    0.26E-03    0.32E-07
   2      7    10.771     4.652    0.12E-03    0.23E-03    0.45E-07
 Optimization of the real space projectors (new method)

 maximal supplied QI-value         = 24.76
 optimisation between [QCUT,QGAM] = [ 10.64, 21.54] = [ 31.73,129.89] Ry
 Optimized for a Real-space Cutoff    1.23 Angstroem

   l    n(q)    QCUT    max X(q) W(low)/X(q) W(high)/X(q)  e(spline)
   0      8    10.645    20.381    0.38E-03    0.60E-03    0.15E-06
   0      8    10.645    15.268    0.40E-03    0.65E-03    0.17E-06
   1      7    10.645     5.964    0.30E-03    0.63E-03    0.18E-06
   1      7    10.645     5.382    0.24E-03    0.53E-03    0.16E-06
  PAW_PBE Mg_pv 13Apr2007               :
  PAW_PBE O 08Apr2002                   :

 POSCAR: Mg  O
  positions in direct lattice
 exchange correlation table for  LEXCH =        8
   RHO(1)=    0.500       N(1)  =     2000
   RHO(2)=  100.500       N(2)  =     4000

 ion  position               nearest neighbor table
   1  0.000  0.750  0.352-  33 2.11  35 2.11  36 2.11  43 2.11  52 2.11
   2  0.250  0.000  0.352-  34 2.11  35 2.11  36 2.11  44 2.11  51 2.11
   3  0.000  0.000  0.451-  35 2.11  34 2.11  33 2.11  41 2.11  50 2.11  39 2.12
   4  0.250  0.750  0.451-  36 2.11  34 2.11  33 2.11  42 2.11  49 2.11  40 2.12
   5  0.000  0.750  0.550-  47 2.11  39 2.11  56 2.11  40 2.11  33 2.12  37 2.14
   6  0.250  1.000  0.550-  48 2.11  39 2.11  55 2.11  40 2.11  34 2.12  38 2.15
   7  0.000  0.000  0.649-  45 2.11  38 2.11  37 2.11  54 2.11  39 2.11
   8  0.250  0.750  0.649-  37 2.10  40 2.11  46 2.11  38 2.11  53 2.12
   9  0.000  0.250  0.352-  41 2.11  35 2.11  43 2.11  44 2.11  60 2.11
  10  0.250  0.500  0.352-  42 2.11  36 2.11  43 2.11  44 2.11  59 2.11
  11  0.000  0.500  0.451-  43 2.11  41 2.11  42 2.11  33 2.11  58 2.11  47 2.12
  12  0.250  0.250  0.451-  44 2.11  41 2.11  42 2.11  34 2.11  57 2.11  48 2.12
  13  1.000  0.250  0.550-  48 2.11  39 2.11  64 2.11  47 2.11  41 2.12  45 2.15
  14  0.250  0.500  0.550-  40 2.11  48 2.11  63 2.11  47 2.11  42 2.12  46 2.14
  15  0.000  0.500  0.649-  46 2.10  47 2.11  37 2.11  45 2.11  62 2.12
  16  0.250  0.250  0.649-  38 2.11  45 2.11  61 2.11  46 2.11  48 2.11
  17  0.500  0.750  0.352-  49 2.11  36 2.11  51 2.11  52 2.11  59 2.11
  18  0.750  0.000  0.352-  50 2.11  35 2.11  51 2.11  52 2.11  60 2.11
  19  0.500  0.000  0.451-  51 2.11  49 2.11  50 2.11  34 2.11  57 2.11  55 2.12
  20  0.750  0.750  0.451-  52 2.11  49 2.11  50 2.11  33 2.11  58 2.11  56 2.12
  21  0.500  0.750  0.550-  63 2.11  56 2.11  40 2.11  55 2.11  49 2.13  53 2.16
  22  0.750  0.000  0.550-  55 2.11  39 2.11  56 2.11  64 2.11  50 2.12  54 2.14
  23  0.500  0.000  0.649-  61 2.10  55 2.11  54 2.11  38 2.11  53 2.12
  24  0.752  0.752  0.649-  54 2.10  37 2.10  56 2.11  53 2.12  62 2.12
  25  0.500  0.250  0.352-  57 2.11  51 2.11  44 2.11  59 2.11  60 2.11
  26  0.750  0.500  0.352-  58 2.11  52 2.11  43 2.11  59 2.11  60 2.11
  27  0.500  0.500  0.451-  59 2.11  49 2.11  57 2.11  58 2.11  42 2.11  63 2.12
  28  0.750  0.250  0.451-  60 2.11  50 2.11  57 2.11  58 2.11  41 2.11  64 2.12
  29  0.500  0.250  0.550-  64 2.11  48 2.11  63 2.11  55 2.11  57 2.12  61 2.14
  30  0.750  0.500  0.550-  63 2.11  56 2.11  64 2.11  47 2.11  58 2.13  62 2.16
  31  0.498  0.498  0.649-  61 2.10  46 2.10  63 2.11  53 2.12  62 2.12
  32  0.750  0.250  0.649-  54 2.10  64 2.11  61 2.11  45 2.11  62 2.12
  33  0.000  0.750  0.451-   1 2.11   3 2.11   4 2.11  11 2.11  20 2.11   5 2.12
  34  0.250  0.000  0.451-   2 2.11   3 2.11   4 2.11  12 2.11  19 2.11   6 2.12
  35  0.000  0.000  0.352-   3 2.11   2 2.11   1 2.11   9 2.11  18 2.11
  36  0.250  0.750  0.352-   4 2.11   2 2.11   1 2.11  10 2.11  17 2.11
  37  0.001  0.750  0.651-  24 2.10   8 2.10  15 2.11   7 2.11   5 2.14
  38  0.250  1.000  0.651-   7 2.11  16 2.11   8 2.11  23 2.11   6 2.15
  39  0.000  0.000  0.550-  13 2.11   6 2.11   5 2.11  22 2.11   7 2.11   3 2.12
  40  0.250  0.750  0.550-  21 2.11   8 2.11   6 2.11  14 2.11   5 2.11   4 2.12
  41  0.000  0.250  0.451-   9 2.11   3 2.11  11 2.11  12 2.11  28 2.11  13 2.12
  42  0.250  0.500  0.451-  10 2.11   4 2.11  11 2.11  12 2.11  27 2.11  14 2.12
  43  0.000  0.500  0.352-  11 2.11   9 2.11  10 2.11   1 2.11  26 2.11
  44  0.250  0.250  0.352-  12 2.11   9 2.11  10 2.11   2 2.11  25 2.11
  45  1.000  0.250  0.651-   7 2.11  16 2.11  32 2.11  15 2.11  13 2.15
  46  0.249  0.500  0.651-  31 2.10  15 2.10   8 2.11  16 2.11  14 2.14
  47  1.000  0.500  0.550-  30 2.11  15 2.11  13 2.11   5 2.11  14 2.11  11 2.12
  48  0.250  0.250  0.550-   6 2.11  13 2.11  14 2.11  29 2.11  16 2.11  12 2.12
  49  0.500  0.750  0.451-  17 2.11   4 2.11  19 2.11  20 2.11  27 2.11  21 2.13
  50  0.750  0.000  0.451-  18 2.11   3 2.11  19 2.11  20 2.11  28 2.11  22 2.12
  51  0.500  0.000  0.352-  19 2.11  17 2.11  18 2.11   2 2.11  25 2.11
  52  0.750  0.750  0.352-  20 2.11  17 2.11  18 2.11   1 2.11  26 2.11
  53  0.500  0.750  0.652-   8 2.12  23 2.12  31 2.12  24 2.12  21 2.16
  54  0.750  0.001  0.651-  24 2.10  32 2.10  23 2.11   7 2.11  22 2.14
  55  0.500  1.000  0.550-  21 2.11  23 2.11   6 2.11  22 2.11  29 2.11  19 2.12
  56  0.750  0.750  0.550-  30 2.11  21 2.11   5 2.11  22 2.11  24 2.11  20 2.12
  57  0.500  0.250  0.451-  25 2.11  19 2.11  12 2.11  27 2.11  28 2.11  29 2.12
  58  0.750  0.500  0.451-  26 2.11  20 2.11  11 2.11  27 2.11  28 2.11  30 2.13
  59  0.500  0.500  0.352-  27 2.11  17 2.11  25 2.11  26 2.11  10 2.11
  60  0.750  0.250  0.352-  28 2.11  18 2.11  25 2.11  26 2.11   9 2.11
  61  0.500  0.249  0.651-  31 2.10  23 2.10  32 2.11  16 2.11  29 2.14
  62  0.750  0.500  0.652-  32 2.12  15 2.12  31 2.12  24 2.12  30 2.16
  63  0.500  0.500  0.550-  30 2.11  21 2.11  14 2.11  29 2.11  31 2.11  27 2.12
  64  0.750  0.250  0.550-  30 2.11  32 2.11  13 2.11  29 2.11  22 2.11  28 2.12

IMPORTANT INFORMATION: All symmetrisations will be switched off!
NOSYMM: (Re-)initialisation of all symmetry stuff for point group C_1.

                                     Primitive cell

  volume of cell :    1519.8199

  direct lattice vectors                    reciprocal lattice vectors
     8.440984654  0.000000000  0.000000000     0.118469591  0.000000000  0.000000000
     0.000000000  8.440984654  0.000000000     0.000000000  0.118469591  0.000000000
     0.000000000  0.000000000 21.330738491     0.000000000  0.000000000  0.046880702

  length of vectors
     8.440984654  8.440984654 21.330738491     0.118469591  0.118469591  0.046880702

  position of ions in fractional coordinates (direct lattice)
     0.000000000  0.750000000  0.351605267
     0.250000000  0.000000000  0.351605267
     0.000000000  0.000000000  0.450535089
     0.250000000  0.750000000  0.450535089
     0.000170472  0.750065529  0.550134920
     0.250061573  0.999938530  0.550145492
     0.000200186  0.000200186  0.648841524
     0.249828182  0.749789003  0.648754906
     0.000000000  0.250000000  0.351605267
     0.250000000  0.500000000  0.351605267
     0.000000000  0.500000000  0.450535089
     0.250000000  0.250000000  0.450535089
     0.999938525  0.250061567  0.550145489
     0.249829706  0.499934572  0.550134937
     0.000171958  0.500211139  0.648754903
     0.249799949  0.249799949  0.648841577
     0.500000000  0.750000000  0.351605267
     0.750000000  0.000000000  0.351605267
     0.500000000  0.000000000  0.450535089
     0.750000000  0.750000000  0.450535089
     0.500270350  0.749729670  0.550330173
     0.750065521  0.000170473  0.550134923
     0.500211148  0.000171955  0.648754900
     0.751918702  0.751918715  0.649114650
     0.500000000  0.250000000  0.351605267
     0.750000000  0.500000000  0.351605267
     0.500000000  0.500000000  0.450535089
     0.750000000  0.250000000  0.450535089
     0.499934575  0.249829699  0.550134936
     0.749729660  0.500270350  0.550330171
     0.498081444  0.498081442  0.649114742
     0.749788996  0.249828183  0.648754905
     0.000000000  0.750000000  0.450535089
     0.250000000  0.000000000  0.450535089
     0.000000000  0.000000000  0.351605267
     0.250000000  0.750000000  0.351605267
     0.000660961  0.750176837  0.650529582
     0.250168661  0.999831464  0.651058193
     0.000114890  0.000114892  0.549832723
     0.250404141  0.749981448  0.549877119
     0.000000000  0.250000000  0.450535089
     0.250000000  0.500000000  0.450535089
     0.000000000  0.500000000  0.351605267
     0.250000000  0.250000000  0.351605267
     0.999831464  0.250168659  0.651058194
     0.249339233  0.499823327  0.650529652
     0.999595943  0.500018646  0.549877121
     0.249885200  0.249885199  0.549832736
     0.500000000  0.750000000  0.450535089
     0.750000000  0.000000000  0.450535089
     0.500000000  0.000000000  0.351605267
     0.750000000  0.750000000  0.351605267
     0.500320192  0.749679842  0.651810825
     0.750176827  0.000660961  0.650529580
     0.500018644  0.999595957  0.549877121
     0.749970659  0.749970656  0.550040631
     0.500000000  0.250000000  0.450535089
     0.750000000  0.500000000  0.450535089
     0.500000000  0.500000000  0.351605267
     0.750000000  0.250000000  0.351605267
     0.499823327  0.249339232  0.650529649
     0.749679851  0.500320189  0.651810830
     0.500029444  0.500029444  0.550040659
     0.749981448  0.250404145  0.549877121

  ion indices of the primitive-cell ions
   primitive index   ion index
                 1           1
                 2           2
                 3           3
                 4           4
                 5           5
                 6           6
                 7           7
[...]
   O         195.530          4.867         19.118          3.54032609
   O         195.528          4.867         19.118          3.54031016
   O         191.157          4.849         18.903          3.50051027
   O         191.298          4.850         18.910          3.50179913
   O         241.958          5.043         21.267          3.93827962
   O         242.327          5.045         21.283          3.94127754
   O         238.535          5.031         21.116          3.91031701
   O         238.809          5.032         21.128          3.91256547
   O         195.530          4.867         19.118          3.54032636
   O         195.559          4.868         19.119          3.54058420
   O         191.029          4.849         18.896          3.49933860
   O         191.298          4.850         18.910          3.50180209
   O         241.958          5.043         21.267          3.93827970
   O         241.133          5.041         21.230          3.93155807
   O         238.809          5.032         21.128          3.91256672
   O         238.535          5.031         21.116          3.91031700
   O         195.554          4.868         19.119          3.54054313
   O         195.540          4.867         19.118          3.54041552
   O         191.298          4.850         18.910          3.50179909
   O         191.029          4.849         18.896          3.49933832
   O         241.133          5.041         21.230          3.93155729
   O         241.958          5.043         21.267          3.93827997

  vdW correction parametrized for the method ÿ6    þ

  IVDW =  21
  VDW_RADIUS =    50.000 A
  VDW_IDAMPF =  0
  VDW_S6 =     1.000
  VDW_SR =     0.960
  VDW_D =    20.000
  LVDW_ONECELL = F F F
  LVDW_SAMETYPE T T
  LVDW_EWALD = F

  Number of pair interactions contributing to vdW energy:  723324
  Edisp (eV):   -3.83983

 VOLUME and BASIS-vectors are now :
  energy-cutoff  :      450.00
  volume of cell :     1519.82
      direct lattice vectors                 reciprocal lattice vectors
     8.440984654  0.000000000  0.000000000     0.118469591  0.000000000  0.000000000
     0.000000000  8.440984654  0.000000000     0.000000000  0.118469591  0.000000000
     0.000000000  0.000000000 21.330738491     0.000000000  0.000000000  0.046880702

  length of vectors
     8.440984654  8.440984654 21.330738491     0.118469591  0.118469591  0.046880702

 FORCES acting on ions
    electron-ion (+dipol)            ewald-force                    non-local-force                 convergence-correction
   0.680E-01 0.552E-01 0.207E+04   -.689E-01 -.562E-01 -.206E+04   0.568E-03 0.637E-03 -.674E+01   0.541E-05 0.102E-05 -.232E+00
   -.553E-01 0.553E-01 0.207E+04   0.567E-01 -.567E-01 -.206E+04   -.864E-03 0.866E-03 -.675E+01   -.369E-05 0.158E-05 -.232E+00
   0.182E+00 0.182E+00 0.683E+03   -.166E+00 -.166E+00 -.684E+03   -.103E-01 -.103E-01 0.481E+00   0.462E-05 0.274E-05 -.973E-01
   -.338E+00 0.162E+00 0.683E+03   0.389E+00 -.152E+00 -.683E+03   -.305E-01 -.677E-02 0.489E+00   -.121E-05 0.288E-05 -.973E-01
   0.623E+00 0.456E+00 -.688E+03   -.662E+00 -.468E+00 0.688E+03   0.262E-01 0.667E-02 -.246E+00   0.142E-04 0.156E-05 0.709E-01
   -.441E+00 0.441E+00 -.690E+03   0.453E+00 -.453E+00 0.690E+03   -.634E-02 0.633E-02 -.140E+00   0.276E-05 -.284E-07 0.709E-01
   -.494E+00 -.494E+00 -.205E+04   0.640E+00 0.640E+00 0.205E+04   -.941E-01 -.941E-01 0.579E+01   0.478E-04 0.478E-04 0.214E+00
   -.305E+01 -.324E+00 -.205E+04   0.316E+01 0.465E+00 0.204E+04   -.199E-01 -.878E-01 0.570E+01   -.867E-05 0.451E-04 0.214E+00
   0.553E-01 -.553E-01 0.207E+04   -.566E-01 0.567E-01 -.206E+04   0.865E-03 -.866E-03 -.675E+01   0.374E-05 -.125E-05 -.232E+00
   -.680E-01 -.552E-01 0.207E+04   0.689E-01 0.562E-01 -.206E+04   -.567E-03 -.637E-03 -.674E+01   -.583E-05 -.116E-05 -.232E+00
   0.338E+00 -.162E+00 0.683E+03   -.389E+00 0.152E+00 -.683E+03   0.305E-01 0.677E-02 0.489E+00   0.397E-05 -.262E-05 -.973E-01
   -.182E+00 -.182E+00 0.683E+03   0.166E+00 0.166E+00 -.684E+03   0.103E-01 0.103E-01 0.481E+00   -.216E-05 -.306E-05 -.973E-01
   0.441E+00 -.441E+00 -.690E+03   -.453E+00 0.453E+00 0.690E+03   0.634E-02 -.634E-02 -.140E+00   -.346E-06 -.106E-06 0.709E-01
   -.623E+00 -.456E+00 -.688E+03   0.662E+00 0.467E+00 0.688E+03   -.262E-01 -.666E-02 -.246E+00   -.132E-04 -.169E-05 0.709E-01
   0.305E+01 0.324E+00 -.205E+04   -.316E+01 -.465E+00 0.204E+04   0.199E-01 0.878E-01 0.570E+01   0.119E-04 -.449E-04 0.214E+00
   0.494E+00 0.494E+00 -.205E+04   -.640E+00 -.640E+00 0.205E+04   0.941E-01 0.941E-01 0.579E+01   -.448E-04 -.483E-04 0.214E+00
   -.644E-01 0.644E-01 0.207E+04   0.666E-01 -.666E-01 -.206E+04   -.140E-02 0.140E-02 -.676E+01   -.577E-05 0.309E-05 -.232E+00
   0.552E-01 0.680E-01 0.207E+04   -.562E-01 -.689E-01 -.206E+04   0.635E-03 0.568E-03 -.674E+01   0.326E-05 0.290E-05 -.232E+00
   -.162E+00 0.338E+00 0.683E+03   0.152E+00 -.389E+00 -.683E+03   0.677E-02 0.305E-01 0.489E+00   -.423E-05 0.216E-05 -.973E-01
   0.336E+00 0.336E+00 0.682E+03   -.362E+00 -.362E+00 -.683E+03   0.174E-01 0.174E-01 0.529E+00   -.118E-05 -.274E-06 -.973E-01
   -.912E+00 0.912E+00 -.696E+03   0.945E+00 -.945E+00 0.696E+03   -.258E-01 0.258E-01 -.120E+00   -.771E-05 0.863E-05 0.712E-01
   0.456E+00 0.623E+00 -.688E+03   -.467E+00 -.662E+00 0.688E+03   0.667E-02 0.262E-01 -.246E+00   -.922E-06 0.144E-04 0.709E-01
   0.324E+00 0.305E+01 -.205E+04   -.465E+00 -.316E+01 0.204E+04   0.878E-01 0.199E-01 0.570E+01   -.444E-04 0.119E-04 0.214E+00
   0.514E+01 0.514E+01 -.205E+04   -.531E+01 -.531E+01 0.205E+04   -.442E-01 -.442E-01 0.571E+01   0.140E-04 0.171E-04 0.215E+00
   -.552E-01 -.680E-01 0.207E+04   0.562E-01 0.689E-01 -.206E+04   -.635E-03 -.569E-03 -.674E+01   -.407E-05 -.345E-05 -.232E+00
   0.644E-01 -.644E-01 0.207E+04   -.666E-01 0.666E-01 -.206E+04   0.140E-02 -.140E-02 -.676E+01   0.530E-05 -.331E-05 -.232E+00
   -.336E+00 -.336E+00 0.682E+03   0.362E+00 0.362E+00 -.683E+03   -.174E-01 -.174E-01 0.529E+00   -.916E-06 0.593E-06 -.973E-01
   0.162E+00 -.338E+00 0.683E+03   -.152E+00 0.389E+00 -.683E+03   -.677E-02 -.305E-01 0.489E+00   0.197E-05 -.182E-05 -.973E-01
   -.456E+00 -.623E+00 -.688E+03   0.467E+00 0.662E+00 0.688E+03   -.666E-02 -.262E-01 -.246E+00   -.182E-05 -.158E-04 0.709E-01
   0.912E+00 -.912E+00 -.696E+03   -.945E+00 0.945E+00 0.696E+03   0.258E-01 -.258E-01 -.120E+00   0.628E-05 -.757E-05 0.712E-01
   -.514E+01 -.514E+01 -.205E+04   0.531E+01 0.531E+01 0.205E+04   0.442E-01 0.442E-01 0.571E+01   -.162E-04 -.167E-04 0.215E+00
   -.324E+00 -.305E+01 -.205E+04   0.465E+00 0.316E+01 0.204E+04   -.878E-01 -.199E-01 0.570E+01   0.420E-04 -.119E-04 0.214E+00
   0.264E+00 0.172E+00 0.512E+03   -.275E+00 -.178E+00 -.512E+03   0.124E-01 0.659E-02 -.555E-01   0.348E-05 -.565E-06 -.708E-01
   -.167E+00 0.167E+00 0.512E+03   0.166E+00 -.166E+00 -.512E+03   0.155E-02 -.154E-02 -.801E-01   0.110E-05 -.146E-05 -.708E-01
   0.367E-01 0.367E-01 0.155E+04   -.357E-01 -.357E-01 -.156E+04   -.118E-02 -.118E-02 0.309E+01   0.277E-06 -.170E-05 -.174E+00
   -.547E-01 0.366E-01 0.155E+04   0.586E-01 -.354E-01 -.156E+04   -.458E-02 -.141E-02 0.309E+01   -.493E-05 -.845E-07 -.174E+00
   -.163E+00 0.626E+00 -.156E+04   0.305E+00 -.710E+00 0.156E+04   -.147E+00 0.913E-01 -.435E+01   0.359E-04 0.154E-04 0.163E+00
   -.509E+00 0.509E+00 -.156E+04   0.606E+00 -.605E+00 0.156E+04   -.108E+00 0.108E+00 -.455E+01   -.153E-04 0.176E-04 0.163E+00
   -.271E-01 -.271E-01 -.511E+03   0.264E-01 0.264E-01 0.511E+03   -.200E-02 -.200E-02 0.240E+00   0.684E-05 0.671E-05 0.520E-01
   -.105E+01 -.379E-01 -.512E+03   0.109E+01 0.438E-01 0.511E+03   -.569E-01 -.878E-02 0.270E+00   0.340E-05 0.100E-04 0.521E-01
   0.167E+00 -.167E+00 0.512E+03   -.166E+00 0.166E+00 -.512E+03   -.154E-02 0.155E-02 -.801E-01   -.120E-05 0.583E-06 -.708E-01
   -.264E+00 -.172E+00 0.512E+03   0.275E+00 0.178E+00 -.512E+03   -.124E-01 -.658E-02 -.555E-01   -.288E-05 0.438E-06 -.708E-01
   0.547E-01 -.365E-01 0.155E+04   -.586E-01 0.354E-01 -.156E+04   0.458E-02 0.141E-02 0.309E+01   0.529E-05 -.342E-06 -.174E+00
   -.367E-01 -.367E-01 0.155E+04   0.357E-01 0.357E-01 -.156E+04   0.118E-02 0.118E-02 0.309E+01   0.676E-06 0.108E-05 -.174E+00
   0.509E+00 -.509E+00 -.156E+04   -.605E+00 0.606E+00 0.156E+04   0.108E+00 -.108E+00 -.455E+01   0.175E-04 -.173E-04 0.163E+00
   0.164E+00 -.626E+00 -.156E+04   -.306E+00 0.710E+00 0.156E+04   0.147E+00 -.913E-01 -.435E+01   -.350E-04 -.162E-04 0.163E+00
   0.105E+01 0.379E-01 -.512E+03   -.109E+01 -.438E-01 0.511E+03   0.569E-01 0.877E-02 0.270E+00   -.169E-05 -.961E-05 0.521E-01
   0.271E-01 0.271E-01 -.511E+03   -.264E-01 -.264E-01 0.511E+03   0.200E-02 0.201E-02 0.240E+00   -.496E-05 -.716E-05 0.520E-01
   -.213E+00 0.213E+00 0.511E+03   0.195E+00 -.195E+00 -.511E+03   0.209E-01 -.209E-01 -.126E+00   0.305E-07 -.120E-05 -.708E-01
   0.172E+00 0.264E+00 0.512E+03   -.178E+00 -.275E+00 -.512E+03   0.659E-02 0.124E-01 -.555E-01   -.166E-05 0.289E-05 -.708E-01
   -.365E-01 0.547E-01 0.155E+04   0.354E-01 -.586E-01 -.156E+04   0.141E-02 0.458E-02 0.309E+01   -.152E-05 0.406E-05 -.174E+00
   0.521E-01 0.521E-01 0.155E+04   -.569E-01 -.569E-01 -.156E+04   0.584E-02 0.584E-02 0.309E+01   0.482E-05 0.482E-05 -.174E+00
   -.211E+01 0.211E+01 -.156E+04   0.239E+01 -.239E+01 0.157E+04   -.269E+00 0.269E+00 -.473E+01   -.276E-04 0.279E-04 0.164E+00
   0.626E+00 -.163E+00 -.156E+04   -.710E+00 0.305E+00 0.156E+04   0.913E-01 -.147E+00 -.435E+01   0.134E-04 0.366E-04 0.163E+00
   0.380E-01 0.105E+01 -.512E+03   -.438E-01 -.109E+01 0.511E+03   0.877E-02 0.569E-01 0.270E+00   -.898E-05 -.148E-05 0.521E-01
   0.115E+01 0.115E+01 -.514E+03   -.117E+01 -.117E+01 0.514E+03   0.349E-01 0.349E-01 0.199E+00   -.105E-04 -.853E-05 0.522E-01
   -.172E+00 -.264E+00 0.512E+03   0.178E+00 0.275E+00 -.512E+03   -.658E-02 -.124E-01 -.555E-01   0.366E-06 -.308E-05 -.708E-01
   0.213E+00 -.213E+00 0.511E+03   -.195E+00 0.195E+00 -.511E+03   -.209E-01 0.209E-01 -.126E+00   -.201E-05 0.125E-05 -.708E-01
   -.521E-01 -.521E-01 0.155E+04   0.569E-01 0.569E-01 -.156E+04   -.584E-02 -.584E-02 0.309E+01   -.479E-05 -.365E-05 -.174E+00
   0.365E-01 -.547E-01 0.155E+04   -.354E-01 0.586E-01 -.156E+04   -.141E-02 -.459E-02 0.309E+01   0.123E-05 -.347E-05 -.174E+00
   -.626E+00 0.164E+00 -.156E+04   0.710E+00 -.306E+00 0.156E+04   -.913E-01 0.147E+00 -.435E+01   -.160E-04 -.375E-04 0.163E+00
   0.211E+01 -.211E+01 -.156E+04   -.239E+01 0.239E+01 0.157E+04   0.269E+00 -.269E+00 -.473E+01   0.259E-04 -.274E-04 0.164E+00
   -.115E+01 -.115E+01 -.514E+03   0.117E+01 0.117E+01 0.514E+03   -.350E-01 -.349E-01 0.199E+00   0.103E-04 0.974E-05 0.522E-01
   -.380E-01 -.105E+01 -.512E+03   0.439E-01 0.109E+01 0.511E+03   -.878E-02 -.569E-01 0.270E+00   0.874E-05 0.227E-05 0.521E-01
   0.277E-04 0.256E-04 0.191E+02   0.473E-13 0.666E-15 -.409E-11   -.371E-04 -.377E-04 -.156E+02   0.455E-06 0.379E-06 -.586E+00

 POSITION                                       TOTAL-FORCE (eV/Angst)
      0.00000      6.33074      7.50000        -0.000266     -0.000315      0.500719
      2.11025      0.00000      7.50000         0.000346     -0.000345      0.503159
      0.00000      0.00000      9.61025         0.004209      0.004209      0.022620
      2.11025      6.33074      9.61025         0.014737      0.002347      0.028010
      0.00144      6.33129     11.73478        -0.008499     -0.003215      0.022140
      2.11077      8.44047     11.73501         0.005126     -0.005125      0.047866
      0.00169      0.00169     13.84027         0.036940      0.036941     -0.156475
      2.10880      6.32896     13.83842         0.080283      0.039239     -0.110341
      0.00000      2.11025      7.50000        -0.000345      0.000346      0.503160
      2.11025      4.22049      7.50000         0.000266      0.000315      0.500718
      0.00000      4.22049      9.61025        -0.014734     -0.002345      0.028009
      2.11025      2.11025      9.61025        -0.004207     -0.004207      0.022621
      8.44047      2.11077     11.73501        -0.005125      0.005127      0.047866
      2.10881      4.21994     11.73478         0.008491      0.003211      0.022154
      0.00145      4.22227     13.83842        -0.080284     -0.039240     -0.110362
      2.10856      2.10856     13.84027        -0.036940     -0.036941     -0.156458
      4.22049      6.33074      7.50000         0.000550     -0.000550      0.506142
      6.33074      0.00000      7.50000        -0.000315     -0.000266      0.500719
      4.22049      0.00000      9.61025        -0.002345     -0.014735      0.028009
      6.33074      6.33074      9.61025        -0.005842     -0.005842      0.035121
      4.22277      6.32846     11.73895         0.004701     -0.004696      0.089041
      6.33129      0.00144     11.73478        -0.003214     -0.008499      0.022139
      4.22227      0.00145     13.83842        -0.039241     -0.080283     -0.110362
      6.34693      6.34693     13.84609        -0.199617     -0.199619     -0.143029
      4.22049      2.11025      7.50000         0.000315      0.000266      0.500719
      6.33074      4.22049      7.50000        -0.000550      0.000551      0.506139
      4.22049      4.22049      9.61025         0.005844      0.005844      0.035120
      6.33074      2.11025      9.61025         0.002347      0.014737      0.028009
      4.21994      2.10881     11.73478         0.003211      0.008492      0.022154
      6.32846      4.22277     11.73895        -0.004695      0.004702      0.089041
      4.20430      4.20430     13.84610         0.199618      0.199618     -0.142843
      6.32896      2.10880     13.83842         0.039239      0.080283     -0.110341
      0.00000      6.33074      9.61025         0.003195      0.001837      0.090117
      2.11025      0.00000      9.61025         0.000676     -0.000674      0.081790
      0.00000      0.00000      7.50000        -0.000459     -0.000461     -0.423599
      2.11025      6.33074      7.50000        -0.001566     -0.000563     -0.424197
      0.00558      6.33223     13.87628        -0.029148      0.024281     -0.057565
      2.11167      8.43956     13.88755        -0.030063      0.030063     -0.139928
      0.00097      0.00097     11.72834        -0.003603     -0.003603      0.017101
      2.11366      6.33058     11.72929        -0.021676     -0.004782      0.011250
      0.00000      2.11025      9.61025        -0.000676      0.000678      0.081789
      2.11025      4.22049      9.61025        -0.003193     -0.001833      0.090120
      0.00000      4.22049      7.50000         0.001570      0.000564     -0.424201
      2.11025      2.11025      7.50000         0.000464      0.000462     -0.423587
      8.43956      2.11167     13.88755         0.030062     -0.030063     -0.139927
      2.10467      4.21900     13.87628         0.029137     -0.024286     -0.057569
      8.43757      4.22065     11.72929         0.021677      0.004779      0.011253
      2.10928      2.10928     11.72834         0.003604      0.003604      0.017105
      4.22049      6.33074      9.61025         0.006553     -0.006552      0.084202
      6.33074      0.00000      9.61025         0.001837      0.003194      0.090114
      4.22049      0.00000      7.50000         0.000563      0.001569     -0.424196
      6.33074      6.33074      7.50000         0.002050      0.002051     -0.425184
      4.22320      6.32804     13.90361        -0.034308      0.034317     -0.219807
      6.33223      0.00558     13.87628         0.024281     -0.029148     -0.057568
      4.22065      8.43757     11.72929         0.004778      0.021676      0.011253
      6.33049      6.33049     11.73277         0.021988      0.021988      0.000626
      4.22049      2.11025      9.61025        -0.001833     -0.003191      0.090120
      6.33074      4.22049      9.61025        -0.006551      0.006550      0.084198
      4.22049      4.22049      7.50000        -0.002052     -0.002050     -0.425184
      6.33074      2.11025      7.50000        -0.000564     -0.001568     -0.424199
      4.21900      2.10467     13.87628        -0.024287      0.029138     -0.057570
      6.32804      4.22320     13.90361         0.034316     -0.034308     -0.219809
      4.22074      4.22074     11.73277        -0.021994     -0.021993      0.000619
      6.33058      2.11366     11.72929        -0.004782     -0.021677      0.011248
    total drift:                               -0.000008     -0.000010      0.100224

  FREE ENERGIE OF THE ION-ELECTRON SYSTEM (eV)
  free  energy   TOTEN  =      -467.77464188 eV

  energy  without entropy=     -467.77464188  energy(sigma->0) =     -467.77464188