 vasp.6.3.0 20Jan22 (build Apr  1 2022 16:44:48) complex
 executed on        HPECrayEX_GCC date 2023.02.28  19:32:18

 INCAR:
   SYSTEM = MgO-rocksalt
   ISMEAR = 0
   SIGMA = 0.05
   EDIFF = 1E-7
   ALGO = ALL
   ISTART = 0
   IBRION = 2
   NSW = 1000
   ISYM = 0
   ISIF = 2
   EDIFFG = -0.02
   DIPOL = 0.5 0.5 0.5
   IDIPOL = 3
   LDIPOL = .TRUE.
   LHFCALC = .TRUE.
   GGA = B5
   AEXX = 0.2
   AGGAX = 0.72
   AGGAC = 0.81
   ALDAC = 0.19
   IVDW = 1
   VDW_S6 = 1.05
   VDW_C6 = 1.23 0.70 0.63 0.70
   VDW_R0 = 1.397 1.342 1.243 1.342
   ENCUT = 600
   PREC = Accurate
   LASPH = .TRUE.
   LREAL = .FALSE.
   ISPIN = 1
   NELM = 200
   NELMIN = 8
   NCORE = 8
   KPAR = 1
   LWAVE = .FALSE.
   LCHARG = .FALSE.

 POTCAR:    PAW_PBE N 08Apr2002
 POTCAR:    PAW_PBE O 08Apr2002
 POTCAR:    PAW_PBE Mg_pv 13Apr2007
 POTCAR:    PAW_PBE O 08Apr2002
 POTCAR:    PAW_PBE N 08Apr2002
   VRHFIN =N: s2p3

   TITEL  = PAW_PBE N 08Apr2002
   POMASS =   14.001; ZVAL   =    5.000    mass and valenz
   ENMAX  =  400.000; ENMIN  =  300.000 eV

[...]

   TITEL  = PAW_PBE Mg_pv 13Apr2007
   POMASS =   24.305; ZVAL   =    8.000    mass and valenz
   ENMAX  =  403.929; ENMIN  =  302.947 eV

   TITEL  = PAW_PBE O 08Apr2002
   POMASS =   16.000; ZVAL   =    6.000    mass and valenz
   ENMAX  =  400.000; ENMIN  =  300.000 eV

  PAW_PBE N 08Apr2002                   :
  PAW_PBE O 08Apr2002                   :
  PAW_PBE Mg_pv 13Apr2007               :
  PAW_PBE O 08Apr2002                   :

 POSCAR:  N  O Mg  O
  positions in direct lattice
  velocities in cartesian coordinates
 exchange correlation table for  LEXCH =       12
   RHO(1)=    0.500       N(1)  =     2000
   RHO(2)=  100.500       N(2)  =     4000

 ion  position               nearest neighbor table
   1  0.495  0.517  0.771-   2 1.13
   2  0.471  0.596  0.813-   1 1.13   3 1.19
   3  0.446  0.679  0.857-   2 1.19
   4  0.250  0.000  0.352-  38 2.10  39 2.10  46 2.10  55 2.10  36 2.10
   5  0.500  0.250  0.352-  38 2.10  39 2.10  47 2.10  54 2.10  37 2.10
   6  0.250  0.250  0.451-  36 2.10  37 2.10  44 2.10  53 2.10  38 2.10  42 2.10
   7  0.500  0.000  0.451-  36 2.10  37 2.10  45 2.10  52 2.10  39 2.10  43 2.10
   8  0.250  0.000  0.550-  42 2.10  43 2.10  50 2.10  59 2.10  36 2.11  40 2.13
   9  0.500  0.250  0.550-  51 2.10  58 2.10  42 2.10  43 2.11  37 2.11  41 2.12
  10  0.250  0.250  0.647-  42 2.09  40 2.10  41 2.10  57 2.10  48 2.10
  11  0.500  0.000  0.647-  43 2.09  41 2.09  49 2.10  56 2.10  40 2.10
  12  0.250  0.500  0.352-  38 2.10  46 2.10  47 2.10  63 2.10  44 2.10
  13  0.500  0.750  0.352-  39 2.10  46 2.10  47 2.10  62 2.10  45 2.10
  14  0.250  0.750  0.451-  36 2.10  44 2.10  45 2.10  61 2.10  46 2.10  50 2.10
  15  0.500  0.500  0.451-  37 2.10  44 2.10  45 2.10  60 2.10  47 2.10  51 2.11
  16  0.250  0.500  0.550-  51 2.10  42 2.10  50 2.10  67 2.10  44 2.11  48 2.13
  17  0.500  0.749  0.550-  51 2.10  66 2.10  50 2.10  43 2.10  45 2.11  49 2.13
  18  0.250  0.750  0.647-  50 2.08  65 2.10  40 2.10  48 2.10  49 2.10
  19  0.500  0.499  0.649-  41 2.10  64 2.11  48 2.11  49 2.11  51 2.12
  20  0.750  0.000  0.352-  39 2.10  54 2.10  55 2.10  62 2.10  52 2.10
  21  0.000  0.250  0.352-  38 2.10  54 2.10  55 2.10  63 2.10  53 2.10
  22  0.750  0.250  0.451-  37 2.10  52 2.10  53 2.10  60 2.10  54 2.10  58 2.10
  23  0.000  0.000  0.451-  36 2.10  52 2.10  53 2.10  61 2.10  55 2.10  59 2.10
  24  0.750  0.000  0.550-  58 2.10  43 2.10  66 2.10  59 2.10  52 2.11  56 2.13
  25  1.000  0.250  0.550-  58 2.10  42 2.10  67 2.10  59 2.10  53 2.11  57 2.13
  26  0.750  0.250  0.648-  58 2.09  56 2.10  57 2.10  41 2.10  64 2.10
  27  1.000  1.000  0.647-  59 2.09  57 2.10  56 2.10  40 2.10  65 2.10
  28  0.750  0.500  0.352-  47 2.10  54 2.10  62 2.10  63 2.10  60 2.10
  29  0.000  0.750  0.352-  46 2.10  55 2.10  62 2.10  63 2.10  61 2.10
  30  0.750  0.750  0.451-  45 2.10  52 2.10  60 2.10  61 2.10  62 2.10  66 2.10
  31  0.000  0.500  0.451-  44 2.10  53 2.10  60 2.10  61 2.10  63 2.10  67 2.10
  32  0.750  0.500  0.550-  51 2.10  58 2.10  66 2.10  67 2.11  60 2.11  64 2.12
  33  1.000  0.750  0.550-  67 2.10  66 2.10  50 2.10  59 2.10  61 2.11  65 2.13
  34  0.750  0.750  0.647-  66 2.08  65 2.10  56 2.10  64 2.10  49 2.11
  35  1.000  0.500  0.647-  67 2.09  64 2.10  48 2.10  57 2.10  65 2.10
  36  0.250  0.000  0.451-   6 2.10   7 2.10  14 2.10  23 2.10   4 2.10   8 2.11
  37  0.500  0.250  0.451-   6 2.10   7 2.10  15 2.10  22 2.10   5 2.10   9 2.11
  38  0.250  0.250  0.352-   4 2.10   5 2.10  12 2.10  21 2.10   6 2.10
  39  0.500  0.000  0.352-   4 2.10   5 2.10  13 2.10  20 2.10   7 2.10
  40  0.250  1.000  0.650-  18 2.10  27 2.10  10 2.10  11 2.10   8 2.13
  41  0.500  0.249  0.649-  11 2.09  19 2.10  10 2.10  26 2.10   9 2.12
  42  0.250  0.250  0.549-  10 2.09   8 2.10  25 2.10  16 2.10   9 2.10   6 2.10
  43  0.500  1.000  0.549-  11 2.09   8 2.10  24 2.10   7 2.10  17 2.10   9 2.11
  44  0.250  0.500  0.451-   6 2.10  14 2.10  15 2.10  31 2.10  12 2.10  16 2.11
  45  0.500  0.750  0.451-   7 2.10  14 2.10  15 2.10  30 2.10  13 2.10  17 2.11
  46  0.250  0.750  0.352-   4 2.10  12 2.10  13 2.10  29 2.10  14 2.10
  47  0.500  0.500  0.352-   5 2.10  12 2.10  13 2.10  28 2.10  15 2.10
  48  0.249  0.500  0.650-  35 2.10  18 2.10  10 2.10  19 2.11  16 2.13
  49  0.500  0.751  0.650-  11 2.10  18 2.10  34 2.11  19 2.11  17 2.13
  50  0.250  0.750  0.549-  18 2.08  17 2.10  33 2.10   8 2.10  16 2.10  14 2.10
  51  0.500  0.500  0.550-  17 2.10  16 2.10  32 2.10   9 2.10  15 2.11  19 2.12
  52  0.750  0.000  0.451-   7 2.10  22 2.10  23 2.10  30 2.10  20 2.10  24 2.11
  53  0.000  0.250  0.451-   6 2.10  22 2.10  23 2.10  31 2.10  21 2.10  25 2.11
  54  0.750  0.250  0.352-   5 2.10  20 2.10  21 2.10  28 2.10  22 2.10
  55  0.000  0.000  0.352-   4 2.10  20 2.10  21 2.10  29 2.10  23 2.10
  56  0.750  1.000  0.650-  27 2.10  34 2.10  26 2.10  11 2.10  24 2.13
  57  1.000  0.250  0.650-  27 2.10  26 2.10  10 2.10  35 2.10  25 2.13
  58  0.750  0.250  0.549-  26 2.09  24 2.10  25 2.10  32 2.10   9 2.10  22 2.10
  59  0.000  1.000  0.549-  27 2.09  33 2.10   8 2.10  24 2.10  25 2.10  23 2.10
  60  0.750  0.500  0.451-  15 2.10  22 2.10  30 2.10  31 2.10  28 2.10  32 2.11
  61  0.000  0.750  0.451-  14 2.10  23 2.10  30 2.10  31 2.10  29 2.10  33 2.11
  62  0.750  0.750  0.352-  13 2.10  20 2.10  28 2.10  29 2.10  30 2.10
  63  0.000  0.500  0.352-  12 2.10  21 2.10  28 2.10  29 2.10  31 2.10
  64  0.751  0.500  0.650-  35 2.10  34 2.10  26 2.10  19 2.11  32 2.12
  65  1.000  0.750  0.650-  18 2.10  34 2.10  27 2.10  35 2.10  33 2.13
  66  0.750  0.750  0.549-  34 2.08  17 2.10  33 2.10  24 2.10  32 2.10  30 2.10
  67  0.000  0.500  0.549-  35 2.09  33 2.10  25 2.10  31 2.10  16 2.10  32 2.11

IMPORTANT INFORMATION: All symmetrisations will be switched off!
NOSYMM: (Re-)initialisation of all symmetry stuff for point group C_1.

                                     Primitive cell

  volume of cell :    1504.9259

  direct lattice vectors                    reciprocal lattice vectors
     8.404861995  0.000000000  0.000000000     0.118978753  0.000000000  0.000000000
     0.000000000  8.404861995  0.000000000     0.000000000  0.118978753  0.000000000
     0.000000000  0.000000000 21.303646496     0.000000000  0.000000000  0.046940321

  length of vectors
     8.404861995  8.404861995 21.303646496     0.118978753  0.118978753  0.046940321

  position of ions in fractional coordinates (direct lattice)
     0.494675446  0.516952456  0.771000262
     0.471137557  0.595501945  0.812777697
     0.446114783  0.678802223  0.856969312
     0.250000000  0.000000000  0.352052406
     0.500000000  0.250000000  0.352052406
     0.250000000  0.250000000  0.450684135
     0.500000000  0.000000000  0.450684135
     0.250112624  0.000091216  0.549646615
     0.500012846  0.250336283  0.549920024
     0.249995088  0.249772390  0.647499241
     0.499992295  0.000171223  0.647416313
     0.250000000  0.500000000  0.352052406
     0.500000000  0.750000000  0.352052406
     0.250000000  0.750000000  0.450684135
     0.500000000  0.500000000  0.450684135
     0.250464007  0.499845527  0.549915437
     0.500026863  0.749444717  0.549924954
     0.249628995  0.750142309  0.647166046
     0.500212008  0.499142298  0.649402884
     0.750000000  0.000000000  0.352052406
     0.000000000  0.250000000  0.352052406
     0.750000000  0.250000000  0.450684135
     0.000000000  0.000000000  0.450684135
     0.749881524  0.000061366  0.549674949
     0.999966047  0.250045825  0.549694074
     0.750002810  0.249829856  0.647532430
     0.999978044  0.999980334  0.647433402
     0.750000000  0.500000000  0.352052406
     0.000000000  0.750000000  0.352052406
     0.750000000  0.750000000  0.450684135
     0.000000000  0.500000000  0.450684135
     0.749560239  0.499860608  0.549916990
     0.999936807  0.749819103  0.549611068
     0.750276097  0.749993780  0.647316490
     0.999918798  0.499852255  0.647394096
     0.250000000  0.000000000  0.450684135
     0.500000000  0.250000000  0.450684135
     0.250000000  0.250000000  0.352052406
     0.500000000  0.000000000  0.352052406
     0.249821759  0.999903378  0.649647660
     0.499984832  0.249116096  0.649332336
     0.249859431  0.249915245  0.549407489
     0.499987548  0.999710424  0.549383300
     0.250000000  0.500000000  0.450684135
     0.500000000  0.750000000  0.450684135
     0.250000000  0.750000000  0.352052406
     0.500000000  0.500000000  0.352052406
     0.249343413  0.500031190  0.649749976
     0.499920739  0.750514884  0.650093427
     0.249999934  0.750016361  0.549456784
     0.499954851  0.500101653  0.549780231
     0.750000000  0.000000000  0.450684135
     0.000000000  0.250000000  0.450684135
     0.750000000  0.250000000  0.352052406
     0.000000000  0.000000000  0.352052406
     0.750145753  0.999892334  0.649668168
     0.999999180  0.249782968  0.649647206
     0.750126388  0.249859912  0.549383283
     0.000002349  0.999893916  0.549460568
     0.750000000  0.500000000  0.450684135
     0.000000000  0.750000000  0.450684135
     0.750000000  0.750000000  0.352052406
     0.000000000  0.500000000  0.352052406
     0.750703944  0.499975195  0.649541632
     0.999992843  0.750070614  0.649672940
     0.749967586  0.750054016  0.549458892
     0.000060735  0.499989964  0.549367661

  ion indices of the primitive-cell ions
   primitive index   ion index
                 1           1
                 2           2
                 3           3
                 4           4
                 5           5
                 6           6
                 7           7
                 8           8
                 9           9
                10          10
                11          11
                12          12
                13          13
                14          14
                15          15
                16          16
                17          17
                18          18
                19          19
                20          20
                21          21
                22          22
                23          23
                24          24
[...]
   6.30364650  6.30364650  9.60121550
   0.00000000  4.20243100  9.60121550
   6.29995037  4.20125942 11.71523715
   8.40433087  6.30212608 11.70871991
   6.30596705  6.30359421 13.79020167
   8.40417950  4.20118922 13.79185497
   2.10121550  0.00000000  9.60121550
   4.20243100  2.10121550  9.60121550
   2.10121550  2.10121550  7.50000000
   4.20243100  0.00000000  7.50000000
   2.09971740  8.40404990 13.83986409
   4.20230352  2.09378641 13.83314655
   2.10003403  2.10050315 11.70438293
   4.20232634  8.40242815 11.70386762
   2.10121550  4.20243100  9.60121550
   4.20243100  6.30364650  9.60121550
   2.10121550  6.30364650  7.50000000
   4.20243100  4.20243100  7.50000000
   2.09569698  4.20269314 13.84204379
   4.20176482  6.30797403 13.84936056
   2.10121494  6.30378401 11.70543309
   4.20205153  4.20328538 11.71232369
   6.30364650  0.00000000  9.60121550
   0.00000000  2.10121550  9.60121550
   6.30364650  2.10121550  7.50000000
   0.00000000  0.00000000  7.50000000
   6.30487153  8.40395707 13.84030099
   8.40485510  2.09939137 13.83985441
   6.30470877  2.10003808 11.70386725
   0.00001975  8.40397037 11.70551370
   6.30364650  4.20243100  9.60121550
   0.00000000  6.30364650  9.60121550
   6.30364650  6.30364650  7.50000000
   0.00000000  4.20243100  7.50000000
   6.30956305  4.20222252 13.83760531
   8.40480184  6.30424000 13.84040266
   6.30337406  6.30410049 11.70547800
   0.00051047  4.20234665 11.70353446

--------------------------------------- Iteration      FINAL  ---------------------------------------

--------------------OUTCAR has been truncated-------------------------

[...]

--------------------OUTCAR has been truncated-------------------------

  Number of pair interactions contributing to vdW energy:  799737
  Edisp (eV):   -5.28576

  FORCE on cell =-STRESS in cart. coord.  units (eV):
  Direction    XX          YY          ZZ          XY          YZ          ZX
  Alpha Z   935.91873   935.91873   935.91873
  Ewald  156614.16755156894.18939************   -86.64815   395.01628  -119.12560
  Hartree167295.94974167430.11984************   -38.47833   177.94057   -54.05642
  E(xc)   -2061.53613 -2060.73681 -2063.22366    -0.26322     1.18268    -0.35504
  Local  ************************333189.83390   116.02866  -532.30529   161.01488
  n-local -1209.62765 -1211.37970 -1235.14913     0.57453    -2.59521     0.77573
  augment   905.47925   904.51448   893.48776     0.32004    -1.40425     0.41892
  Kinetic  7689.00810  7664.26987  7678.58509     8.19357   -36.56714    10.97692
  Fock    -2016.35637 -2017.14825 -2014.67969     0.25949    -1.18702     0.35609
  vdW        -7.67929    -7.67039    -6.38790    -0.00336     0.02196    -0.00649
  Total     -30.61228   -30.61694    -2.06381    -0.01677     0.10259    -0.00102
  in kB     -32.59051   -32.59547    -2.19717    -0.01785     0.10921    -0.00109

 VOLUME and BASIS-vectors are now :
  energy-cutoff  :      600.00
  volume of cell :     1504.93
      direct lattice vectors                 reciprocal lattice vectors
     8.404861995  0.000000000  0.000000000     0.118978753  0.000000000  0.000000000
     0.000000000  8.404861995  0.000000000     0.000000000  0.118978753  0.000000000
     0.000000000  0.000000000 21.303646496     0.000000000  0.000000000  0.046940321

  length of vectors
     8.404861995  8.404861995 21.303646496     0.118978753  0.118978753  0.046940321

 FORCES acting on ions:
    Electron-Ion                     Ewald-Force                    Non-Local-Force
   -.531E+02 0.176E+03 -.106E+04   0.623E+02 -.207E+03 0.102E+04   -.853E+01 0.285E+02 0.380E+02
   -.387E+01 0.126E+02 -.106E+04   0.343E+01 -.111E+02 0.106E+04   0.395E+00 -.138E+01 -.140E+01
   0.542E+02 -.180E+03 -.124E+04   -.662E+02 0.220E+03 0.130E+04   0.106E+02 -.355E+02 -.476E+02
   0.197E+00 -.128E+00 0.210E+04   -.194E+00 0.129E+00 -.210E+04   -.176E-02 -.291E-03 -.641E+01
   -.446E-01 0.152E+00 0.210E+04   0.447E-01 -.149E+00 -.210E+04   -.416E-04 -.228E-02 -.642E+01
   0.602E+00 0.498E+00 0.737E+03   -.594E+00 -.477E+00 -.737E+03   -.492E-02 -.135E-01 0.380E+00
   -.144E+00 -.437E+00 0.737E+03   0.148E+00 0.420E+00 -.737E+03   -.233E-02 0.114E-01 0.352E+00
   0.390E+01 -.179E+01 -.624E+03   -.387E+01 0.182E+01 0.624E+03   -.266E-01 -.288E-01 -.150E+00
   -.522E+00 0.496E+01 -.618E+03   0.528E+00 -.486E+01 0.618E+03   -.556E-02 -.100E+00 -.451E+00
   0.205E+02 0.200E+02 -.198E+04   -.205E+02 -.201E+02 0.197E+04   -.527E-02 0.491E-01 0.555E+01
   -.237E+01 -.105E+02 -.198E+04   0.237E+01 0.106E+02 0.197E+04   -.458E-02 -.122E+00 0.551E+01
   0.205E+00 0.129E+00 0.210E+04   -.201E+00 -.129E+00 -.210E+04   -.281E-02 0.386E-03 -.642E+01
   -.496E-01 -.154E+00 0.210E+04   0.497E-01 0.150E+00 -.210E+04   -.699E-04 0.267E-02 -.642E+01
   0.662E+00 -.515E+00 0.737E+03   -.630E+00 0.492E+00 -.738E+03   -.202E-01 0.149E-01 0.402E+00
   -.155E+00 0.431E+00 0.738E+03   0.153E+00 -.425E+00 -.738E+03   0.188E-02 -.519E-02 0.450E+00
   0.573E+01 0.188E+01 -.617E+03   -.561E+01 -.191E+01 0.617E+03   -.106E+00 0.285E-01 -.274E+00
   -.754E+00 -.505E+01 -.616E+03   0.765E+00 0.493E+01 0.616E+03   -.104E-01 0.104E+00 -.145E+00
   0.274E+02 -.217E+02 -.196E+04   -.275E+02 0.217E+02 0.195E+04   0.884E-01 -.469E-01 0.558E+01
   -.491E+01 0.155E+02 -.190E+04   0.496E+01 -.157E+02 0.190E+04   -.465E-01 0.168E+00 0.507E+01
   -.197E+00 -.124E+00 0.210E+04   0.194E+00 0.124E+00 -.210E+04   0.179E-02 -.214E-03 -.641E+01
   0.444E-01 0.145E+00 0.210E+04   -.445E-01 -.142E+00 -.210E+04   0.610E-04 -.138E-02 -.641E+01
   -.600E+00 0.486E+00 0.737E+03   0.591E+00 -.472E+00 -.737E+03   0.524E-02 -.825E-02 0.371E+00
   0.140E+00 -.377E+00 0.735E+03   -.144E+00 0.386E+00 -.736E+03   0.265E-02 -.579E-02 0.382E+00
   -.388E+01 -.158E+01 -.625E+03   0.385E+01 0.160E+01 0.625E+03   0.266E-01 -.231E-01 -.153E+00
   0.493E+00 0.318E+01 -.627E+03   -.498E+00 -.315E+01 0.627E+03   0.542E-02 -.256E-01 -.163E+00
   -.202E+02 0.187E+02 -.198E+04   0.202E+02 -.187E+02 0.198E+04   0.355E-02 0.210E-01 0.555E+01
   0.213E+01 -.533E+01 -.200E+04   -.213E+01 0.536E+01 0.199E+04   0.402E-02 -.255E-01 0.551E+01
   -.205E+00 0.124E+00 0.210E+04   0.200E+00 -.124E+00 -.210E+04   0.275E-02 0.344E-03 -.642E+01
   0.492E-01 -.145E+00 0.210E+04   -.494E-01 0.143E+00 -.210E+04   0.128E-03 0.155E-02 -.640E+01
   -.660E+00 -.504E+00 0.737E+03   0.626E+00 0.487E+00 -.737E+03   0.213E-01 0.104E-01 0.401E+00
   0.152E+00 0.376E+00 0.737E+03   -.148E+00 -.389E+00 -.737E+03   -.273E-02 0.859E-02 0.347E+00
   -.569E+01 0.165E+01 -.618E+03   0.558E+01 -.168E+01 0.618E+03   0.105E+00 0.233E-01 -.361E+00
   0.707E+00 -.323E+01 -.623E+03   -.719E+00 0.320E+01 0.623E+03   0.108E-01 0.258E-01 -.127E+00
   -.264E+02 -.200E+02 -.197E+04   0.265E+02 0.200E+02 0.196E+04   -.877E-01 -.157E-01 0.557E+01
   0.317E+01 0.567E+01 -.198E+04   -.321E+01 -.570E+01 0.198E+04   0.348E-01 0.274E-01 0.551E+01
   0.530E+00 -.254E+00 0.552E+03   -.522E+00 0.256E+00 -.552E+03   -.981E-02 -.283E-02 -.551E-01
   -.859E-01 0.479E+00 0.552E+03   0.872E-01 -.492E+00 -.552E+03   -.169E-02 0.159E-01 -.102E+00
   0.145E+00 0.110E+00 0.158E+04   -.143E+00 -.107E+00 -.158E+04   -.273E-02 -.418E-02 0.312E+01
   -.350E-01 -.990E-01 0.158E+04   0.355E-01 0.984E-01 -.158E+04   -.604E-03 0.710E-03 0.312E+01
   0.109E+02 -.697E+01 -.151E+04   -.108E+02 0.699E+01 0.152E+04   -.416E-01 -.155E-01 -.457E+01
   -.187E+01 0.246E+02 -.149E+04   0.187E+01 -.245E+02 0.149E+04   0.515E-03 -.123E+00 -.461E+01
   0.327E+01 0.290E+01 -.461E+03   -.326E+01 -.289E+01 0.460E+03   -.153E-01 -.960E-02 0.309E+00
   -.457E+00 -.144E+01 -.460E+03   0.459E+00 0.146E+01 0.459E+03   -.157E-02 -.173E-01 0.320E+00
   0.591E+00 0.253E+00 0.552E+03   -.612E+00 -.252E+00 -.552E+03   0.247E-01 -.360E-03 -.109E+00
   -.108E+00 -.503E+00 0.553E+03   0.108E+00 0.529E+00 -.553E+03   -.558E-03 -.306E-01 -.115E+00
   0.152E+00 -.111E+00 0.158E+04   -.148E+00 0.107E+00 -.158E+04   -.567E-02 0.413E-02 0.312E+01
   -.363E-01 0.999E-01 0.158E+04   0.360E-01 -.990E-01 -.158E+04   0.337E-03 -.119E-02 0.311E+01
   0.293E+02 0.835E+01 -.148E+04   -.291E+02 -.836E+01 0.148E+04   -.169E+00 0.581E-02 -.456E+01
   -.358E+01 -.280E+02 -.147E+04   0.359E+01 0.278E+02 0.147E+04   -.342E-02 0.196E+00 -.450E+01
   0.360E+01 -.297E+01 -.457E+03   -.360E+01 0.296E+01 0.457E+03   0.268E-03 0.632E-02 0.414E+00
   -.514E+00 0.153E+01 -.458E+03   0.520E+00 -.155E+01 0.458E+03   -.534E-02 0.211E-01 -.114E+00
   -.529E+00 -.234E+00 0.552E+03   0.522E+00 0.238E+00 -.552E+03   0.908E-02 -.568E-02 -.642E-01
   0.827E-01 0.426E+00 0.552E+03   -.832E-01 -.415E+00 -.551E+03   0.850E-03 -.132E-01 -.717E-01
   -.145E+00 0.109E+00 0.158E+04   0.143E+00 -.106E+00 -.158E+04   0.270E-02 -.331E-02 0.312E+01
   0.349E-01 -.921E-01 0.158E+04   -.354E-01 0.938E-01 -.158E+04   0.588E-03 -.206E-02 0.312E+01
   -.107E+02 -.576E+01 -.151E+04   0.106E+02 0.577E+01 0.152E+04   0.417E-01 -.869E-02 -.456E+01
   0.160E+01 0.814E+01 -.152E+04   -.160E+01 -.810E+01 0.152E+04   0.170E-02 -.352E-01 -.456E+01
   -.325E+01 0.285E+01 -.461E+03   0.323E+01 -.283E+01 0.461E+03   0.181E-01 -.151E-01 0.295E+00
   0.438E+00 -.116E+01 -.466E+03   -.439E+00 0.116E+01 0.465E+03   0.299E-03 -.294E-02 0.282E+00
   -.586E+00 0.231E+00 0.552E+03   0.605E+00 -.232E+00 -.552E+03   -.227E-01 0.825E-03 -.106E+00
   0.102E+00 -.441E+00 0.552E+03   -.100E+00 0.436E+00 -.552E+03   -.201E-02 0.646E-02 -.436E-01
   -.152E+00 -.109E+00 0.158E+04   0.148E+00 0.107E+00 -.158E+04   0.558E-02 0.320E-02 0.312E+01
   0.360E-01 0.926E-01 0.158E+04   -.358E-01 -.941E-01 -.158E+04   -.261E-03 0.185E-02 0.312E+01
   -.281E+02 0.678E+01 -.148E+04   0.279E+02 -.678E+01 0.149E+04   0.149E+00 0.362E-02 -.459E+01
   0.275E+01 -.838E+01 -.151E+04   -.276E+01 0.834E+01 0.152E+04   0.973E-02 0.391E-01 -.456E+01
   -.356E+01 -.292E+01 -.459E+03   0.356E+01 0.290E+01 0.458E+03   0.139E-02 0.107E-01 0.373E+00
   0.477E+00 0.121E+01 -.461E+03   -.482E+00 -.122E+01 0.460E+03   0.465E-02 0.966E-02 0.320E+00
   -.316E+01 0.105E+02 0.325E+02   0.196E-12 0.121E-12 -.296E-11   0.248E+01 -.826E+01 -.272E+02

 POSITION                                       TOTAL-FORCE (eV/Angst)
      4.15762      4.34531     16.42597         0.000189      0.002064      0.007972
      3.95978      5.00543     17.31568        -0.001705      0.008503      0.012968
      3.74952      5.70550     18.25674        -0.000254      0.003966      0.002757
      2.10122      0.00000      7.50000         0.000762      0.000141      0.404052
      4.20243      2.10122      7.50000         0.000023      0.000937      0.406316
      2.10122      2.10122      9.60122         0.002962      0.006371      0.027689
      4.20243      0.00000      9.60122         0.000992     -0.004609      0.035755
      2.10208      0.00063     11.70937        -0.001682     -0.001226      0.006984
      4.20256      2.10380     11.71458         0.000040     -0.000914      0.003609
      2.10119      2.09954     13.79385         0.002208      0.002337      0.003157
      4.20241      0.00138     13.79239         0.000105      0.001322      0.006916
      2.10122      4.20243      7.50000         0.001072     -0.000034      0.407025
      4.20243      6.30365      7.50000         0.000004     -0.000910      0.407276
      2.10122      6.30365      9.60122         0.008804     -0.006745      0.026976
      4.20243      4.20243      9.60122        -0.000499      0.001068      0.042527
      2.10485      4.20118     11.71463        -0.000943      0.000793      0.002924
      4.20264      6.29930     11.71495        -0.000242      0.001158      0.002721
      2.09844      6.30464     13.78706         0.002391     -0.002224      0.005608
      4.20419      4.19532     13.83444         0.000342     -0.000816      0.000909
      6.30365      0.00000      7.50000        -0.000761      0.000141      0.404859
      0.00000      2.10122      7.50000        -0.000034      0.000641      0.405677
      6.30365      2.10122      9.60122        -0.003199      0.004287      0.028257
      0.00000      0.00000      9.60122        -0.001136      0.002406      0.023852
      6.30268      0.00037     11.70985         0.001355     -0.001326      0.005786
      8.40463      2.10163     11.71012         0.000524     -0.000702      0.004746
      6.30365      2.09993     13.79449        -0.001958      0.002231      0.002678
      8.40463      0.00001     13.79347        -0.000118      0.000677      0.011958
      6.30365      4.20243      7.50000        -0.001053     -0.000057      0.406710
      0.00000      6.30365      7.50000        -0.000032     -0.000589      0.403271
      6.30365      6.30365      9.60122        -0.009478     -0.005080      0.027516
      0.00000      4.20243      9.60122         0.001073     -0.003869      0.034971
      6.30019      4.20128     11.71459         0.000969      0.000522      0.003124
      8.40437      6.30229     11.70880         0.000426      0.002176      0.008482
      6.30563      6.30349     13.79013        -0.002166     -0.002207      0.004558
      8.40421      4.20106     13.79194        -0.000287     -0.000032      0.006974
      2.10122      0.00000      9.60122        -0.003569     -0.001455      0.039670
      4.20243      2.10122      9.60122        -0.000676      0.004637      0.051139
      2.10122      2.10122      7.50000        -0.000913     -0.001356     -0.494576
      4.20243      0.00000      7.50000        -0.000206      0.000284     -0.494174
      2.09975      8.40385     13.84031        -0.000551     -0.002200      0.002275
      4.20231      2.09378     13.83365        -0.000145     -0.000281      0.003113
      2.10027      2.10055     11.70532         0.000531      0.000254      0.000260
      4.20229      8.40262     11.70468         0.000073      0.000586     -0.000452
      2.10122      4.20243      9.60122         0.007246      0.000606      0.048195
      4.20243      6.30365      9.60122        -0.000326     -0.008919      0.047556
      2.10122      6.30365      7.50000        -0.001902      0.001433     -0.493786
      4.20243      4.20243      7.50000         0.000112     -0.000357     -0.496096
      2.09569      4.20277     13.84239         0.000148      0.001284      0.001019
      4.20175      6.30800     13.84964        -0.000259      0.000133     -0.000074
      2.10120      6.30368     11.70580         0.000599     -0.000651     -0.003084
      4.20212      4.20306     11.71284         0.000253     -0.000807     -0.002999
      6.30365      0.00000      9.60122         0.003341     -0.002319      0.038869
      0.00000      2.10122      9.60122         0.000441     -0.004534      0.037552
      6.30365      2.10122      7.50000         0.000897     -0.001062     -0.494813
      0.00000      0.00000      7.50000         0.000195     -0.000644     -0.492760
      6.30485      8.40376     13.84078         0.000700     -0.002289      0.002565
      0.00005      2.09943     13.84044         0.000737     -0.000615      0.003763
      6.30451      2.10015     11.70499        -0.000111      0.000112      0.001317
      0.00003      8.40397     11.70527        -0.000226      0.001090     -0.005187
      6.30365      4.20243      9.60122        -0.006636      0.000970      0.049518
      0.00000      6.30365      9.60122        -0.000430      0.002700      0.040835
      6.30365      6.30365      7.50000         0.001867      0.001124     -0.494032
      0.00000      4.20243      7.50000        -0.000089      0.000666     -0.494302
      6.30957      4.20228     13.83800         0.000028      0.001189      0.001707
      8.40486      6.30421     13.84078         0.000635      0.000802      0.001923
      6.30342      6.30391     11.70597        -0.000395     -0.000703     -0.002446
      0.00046      4.20248     11.70439        -0.000065     -0.000079     -0.000052
    total drift:                                0.000101     -0.003410     -0.000785

  FREE ENERGIE OF THE ION-ELECTRON SYSTEM (eV)
  free  energy   TOTEN  =      -465.21034495 eV

  energy  without entropy=     -465.21034495  energy(sigma->0) =     -465.21034495

 d Force = 0.4365485E-04[ 0.149E-04, 0.724E-04]  d Energy = 0.4098593E-04 0.267E-05
 d Force = 0.4103193E+01[ 0.410E+01, 0.410E+01]  d Ewald  = 0.4103191E+01 0.278E-05

 Conjugate gradient step on ions:
 trial-energy change:   -0.000041  1 .order   -0.000044   -0.000072   -0.000015
  (g-gl).g = 0.208E-03      g.g   = 0.237E-03  gl.gl    = 0.414E-03
 g(Force)  = 0.237E-03   g(Stress)= 0.000E+00 ortho     = 0.246E-04
 gamma     =   0.50322
 trial     =   0.28998
 opt step  =   0.41458  (harmonic =   0.36500) maximal distance =0.00080231
 next E    =  -465.210348   (d E  =  -0.00004)

 reached required accuracy - stopping structural energy minimisation