 vasp.6.3.0 20Jan22 (build Apr  1 2022 16:44:48) complex
 executed on        HPECrayEX_GCC date 2022.11.13  08:27:17

 INCAR:
   SYSTEM = MgO-rocksalt
   ISMEAR = 0
   SIGMA = 0.05
   EDIFF = 1E-6
   ALGO = ALL
   ISTART = 0
   IBRION = -1
   NSW = 0
   ISYM = 0
   DIPOL = 0.5 0.5 0.5
   IDIPOL = 3
   LDIPOL = .TRUE.
   LHFCALC = .TRUE.
   GGA = B5
   AEXX = 0.2
   AGGAX = 0.72
   AGGAC = 0.81
   ALDAC = 0.19
   IVDW = 1
   VDW_S6 = 1.05
   VDW_C6 = 0.63 0.70
   VDW_R0 = 1.243 1.342
   ENCUT = 600
   PREC = Accurate
   LASPH = .TRUE.
   LREAL = .FALSE.
   ISPIN = 1
   NELM = 200
   NELMIN = 8
   NCORE = 8
   KPAR = 1
   LWAVE = .FALSE.
   LCHARG = .FALSE.

 POTCAR:    PAW_PBE Mg_pv 13Apr2007
 POTCAR:    PAW_PBE O 08Apr2002
 POTCAR:    PAW_PBE Mg_pv 13Apr2007
   VRHFIN =Mg: p6s2

   TITEL  = PAW_PBE Mg_pv 13Apr2007
   POMASS =   24.305; ZVAL   =    8.000    mass and valenz
   ENMAX  =  403.929; ENMIN  =  302.947 eV

   TITEL  = PAW_PBE O 08Apr2002
   POMASS =   16.000; ZVAL   =    6.000    mass and valenz
   ENMAX  =  400.000; ENMIN  =  300.000 eV

  PAW_PBE Mg_pv 13Apr2007               :
  PAW_PBE O 08Apr2002                   :

 POSCAR: Mg  O
  positions in direct lattice
 exchange correlation table for  LEXCH =       12
   RHO(1)=    0.500       N(1)  =     2000
   RHO(2)=  100.500       N(2)  =     4000

 ion  position               nearest neighbor table
   1  0.250  0.000  0.351-  33 2.12  35 2.12  36 2.12  43 2.12  52 2.12
   2  0.500  0.250  0.351-  34 2.12  35 2.12  36 2.12  44 2.12  51 2.12
   3  0.250  0.250  0.450-  35 2.12  34 2.12  33 2.12  41 2.12  50 2.12  39 2.13
   4  0.500  0.000  0.450-  36 2.12  34 2.12  33 2.12  42 2.12  49 2.12  40 2.12
   5  0.250  0.000  0.550-  56 2.12  39 2.12  40 2.12  47 2.12  33 2.13  37 2.14
   6  0.500  0.250  0.550-  39 2.11  55 2.11  48 2.11  40 2.11  34 2.13  38 2.17
   7  0.248  0.250  0.649-  54 2.10  39 2.11  37 2.11  45 2.12  38 2.14
   8  0.500  0.998  0.649-  46 2.09  40 2.11  53 2.12  37 2.12  38 2.14
   9  0.250  0.500  0.351-  41 2.12  35 2.12  43 2.12  44 2.12  60 2.12
  10  0.500  0.750  0.351-  42 2.12  36 2.12  43 2.12  44 2.12  59 2.12
  11  0.250  0.750  0.450-  43 2.12  41 2.12  42 2.12  33 2.12  58 2.12  47 2.12
  12  0.500  0.500  0.450-  44 2.12  41 2.12  42 2.12  34 2.12  57 2.12  48 2.13
  13  0.250  0.500  0.550-  39 2.12  64 2.12  47 2.12  48 2.12  41 2.13  45 2.14
  14  0.500  0.750  0.550-  47 2.12  63 2.12  40 2.12  48 2.12  42 2.13  46 2.14
  15  0.249  0.750  0.649-  47 2.11  62 2.11  37 2.11  45 2.12  46 2.12
  16  0.500  0.503  0.649-  46 2.09  48 2.11  61 2.12  45 2.12  38 2.15
  17  0.750  0.000  0.351-  49 2.12  36 2.12  51 2.12  52 2.12  59 2.12
  18  0.000  0.250  0.351-  50 2.12  35 2.12  51 2.12  52 2.12  60 2.12
  19  0.750  0.250  0.450-  51 2.12  49 2.12  50 2.12  34 2.12  57 2.12  55 2.13
  20  0.000  0.000  0.450-  52 2.12  49 2.12  50 2.12  33 2.12  58 2.12  56 2.12
  21  0.750  0.000  0.550-  56 2.12  55 2.12  40 2.12  63 2.12  49 2.13  53 2.14
  22  0.000  0.250  0.550-  56 2.12  64 2.12  39 2.12  55 2.12  50 2.13  54 2.14
  23  0.752  0.250  0.649-  54 2.10  55 2.11  53 2.11  61 2.12  38 2.14
  24  0.000  1.000  0.649-  56 2.11  62 2.11  53 2.12  37 2.12  54 2.12
  25  0.750  0.500  0.351-  57 2.12  51 2.12  44 2.12  59 2.12  60 2.12
  26  0.000  0.750  0.351-  58 2.12  52 2.12  43 2.12  59 2.12  60 2.12
  27  0.750  0.750  0.450-  59 2.12  49 2.12  57 2.12  58 2.12  42 2.12  63 2.12
  28  0.000  0.500  0.450-  60 2.12  50 2.12  57 2.12  58 2.12  41 2.12  64 2.12
  29  0.750  0.500  0.550-  55 2.12  64 2.12  63 2.12  48 2.12  57 2.13  61 2.14
  30  0.000  0.750  0.550-  56 2.12  47 2.12  63 2.12  64 2.12  58 2.13  62 2.14
  31  0.751  0.750  0.649-  63 2.11  62 2.11  53 2.11  61 2.12  46 2.12
  32  1.000  0.500  0.649-  64 2.11  62 2.11  61 2.12  45 2.12  54 2.12
  33  0.250  0.000  0.450-   1 2.12   3 2.12   4 2.12  11 2.12  20 2.12   5 2.13
  34  0.500  0.250  0.450-   2 2.12   3 2.12   4 2.12  12 2.12  19 2.12   6 2.13
  35  0.250  0.250  0.351-   3 2.12   2 2.12   1 2.12   9 2.12  18 2.12
  36  0.500  0.000  0.351-   4 2.12   2 2.12   1 2.12  10 2.12  17 2.12
  37  0.250  0.000  0.650-   7 2.11  15 2.11   8 2.12  24 2.12   5 2.14
  38  0.500  0.250  0.652-   8 2.14  23 2.14   7 2.14  16 2.15   6 2.17
  39  0.250  0.250  0.550-   7 2.11   6 2.11  13 2.12   5 2.12  22 2.12   3 2.13
  40  0.500  0.001  0.550-   8 2.11   6 2.11   5 2.12  21 2.12  14 2.12   4 2.12
  41  0.250  0.500  0.450-   9 2.12   3 2.12  11 2.12  12 2.12  28 2.12  13 2.13
  42  0.500  0.750  0.450-  10 2.12   4 2.12  11 2.12  12 2.12  27 2.12  14 2.13
  43  0.250  0.750  0.351-  11 2.12   9 2.12  10 2.12   1 2.12  26 2.12
  44  0.500  0.500  0.351-  12 2.12   9 2.12  10 2.12   2 2.12  25 2.12
  45  0.250  0.500  0.651-  32 2.12  16 2.12   7 2.12  15 2.12  13 2.14
  46  0.500  0.750  0.650-  16 2.09   8 2.09  15 2.12  31 2.12  14 2.14
  47  0.250  0.750  0.550-  15 2.11  14 2.12  13 2.12  30 2.12   5 2.12  11 2.12
  48  0.500  0.500  0.550-  16 2.11   6 2.11  13 2.12  29 2.12  14 2.12  12 2.13
  49  0.750  0.000  0.450-  17 2.12   4 2.12  19 2.12  20 2.12  27 2.12  21 2.13
  50  0.000  0.250  0.450-  18 2.12   3 2.12  19 2.12  20 2.12  28 2.12  22 2.13
  51  0.750  0.250  0.351-  19 2.12  17 2.12  18 2.12   2 2.12  25 2.12
  52  0.000  0.000  0.351-  20 2.12  17 2.12  18 2.12   1 2.12  26 2.12
  53  0.750  0.000  0.650-  23 2.11  31 2.11   8 2.12  24 2.12  21 2.14
  54  0.000  0.250  0.650-   7 2.10  23 2.10  24 2.12  32 2.12  22 2.14
  55  0.750  0.250  0.550-  23 2.11   6 2.11  29 2.12  21 2.12  22 2.12  19 2.13
  56  0.000  0.000  0.550-  24 2.11  22 2.12   5 2.12  21 2.12  30 2.12  20 2.12
  57  0.750  0.500  0.450-  25 2.12  19 2.12  12 2.12  27 2.12  28 2.12  29 2.13
  58  0.000  0.750  0.450-  26 2.12  20 2.12  11 2.12  27 2.12  28 2.12  30 2.13
  59  0.750  0.750  0.351-  27 2.12  17 2.12  25 2.12  26 2.12  10 2.12
  60  0.000  0.500  0.351-  28 2.12  18 2.12  25 2.12  26 2.12   9 2.12
  61  0.750  0.500  0.651-  32 2.12  16 2.12  23 2.12  31 2.12  29 2.14
  62  0.000  0.750  0.651-  15 2.11  31 2.11  24 2.11  32 2.11  30 2.14
  63  0.750  0.750  0.550-  31 2.11  14 2.12  29 2.12  30 2.12  21 2.12  27 2.12
  64  0.000  0.500  0.550-  32 2.11  22 2.12  13 2.12  29 2.12  30 2.12  28 2.12

IMPORTANT INFORMATION: All symmetrisations will be switched off!
NOSYMM: (Re-)initialisation of all symmetry stuff for point group C_1.

                                     Primitive cell

  volume of cell :    1530.6606

  direct lattice vectors                    reciprocal lattice vectors
     8.467142631  0.000000000  0.000000000     0.118103597  0.000000000  0.000000000
     0.000000000  8.467142631  0.000000000     0.000000000  0.118103597  0.000000000
     0.000000000  0.000000000 21.350356973     0.000000000  0.000000000  0.046837624

  length of vectors
     8.467142631  8.467142631 21.350356973     0.118103597  0.118103597  0.046837624

  position of ions in fractional coordinates (direct lattice)
     0.250000000  0.000000000  0.351282183
     0.500000000  0.250000000  0.351282183
     0.250000000  0.250000000  0.450427394
     0.500000000  0.000000000  0.450427394
     0.249964764  0.000103943  0.550210473
     0.500000013  0.250138470  0.550111617
     0.247597848  0.249703690  0.648900299
     0.500000032  0.997643372  0.648608803
     0.250000000  0.500000000  0.351282183
     0.500000000  0.750000000  0.351282183
     0.250000000  0.750000000  0.450427394
     0.500000000  0.500000000  0.450427394
     0.249934161  0.499954919  0.550269800
     0.500000022  0.750149179  0.550016067
     0.249426732  0.750347777  0.648525466
     0.500000179  0.503438886  0.648721349
     0.750000000  0.000000000  0.351282183
     0.000000000  0.250000000  0.351282183
     0.750000000  0.250000000  0.450427394
     0.000000000  0.000000000  0.450427394
     0.750035290  0.000103918  0.550210466
     0.000000051  0.249990522  0.550104389
     0.752402216  0.249703736  0.648900218
     0.000000027  0.999614871  0.648653615
     0.750000000  0.500000000  0.351282183
     0.000000000  0.750000000  0.351282183
     0.750000000  0.750000000  0.450427394
     0.000000000  0.500000000  0.450427394
     0.750065903  0.499954940  0.550269797
     0.000000027  0.750034659  0.550079269
     0.750573312  0.750347718  0.648525471
     0.999999980  0.500399716  0.648586306
     0.250000000  0.000000000  0.450427394
     0.500000000  0.250000000  0.450427394
     0.250000000  0.250000000  0.351282183
     0.500000000  0.000000000  0.351282183
     0.250114915  0.000086456  0.650344163
     0.500000050  0.249944945  0.651875569
     0.250460693  0.250082886  0.550010585
     0.500000019  0.000559136  0.549917948
     0.250000000  0.500000000  0.450427394
     0.500000000  0.750000000  0.450427394
     0.250000000  0.750000000  0.351282183
     0.500000000  0.500000000  0.351282183
     0.249984110  0.499958207  0.650575978
     0.500000000  0.750361752  0.650316494
     0.250088141  0.749973154  0.549737378
     0.500000021  0.499680357  0.550031638
     0.750000000  0.000000000  0.450427394
     0.000000000  0.250000000  0.450427394
     0.750000000  0.250000000  0.351282183
     0.000000000  0.000000000  0.351282183
     0.749885143  0.000086445  0.650344146
     0.000000048  0.249977219  0.650423646
     0.749539362  0.250082885  0.550010571
     0.000000029  0.000099556  0.549739765
     0.750000000  0.500000000  0.450427394
     0.000000000  0.750000000  0.450427394
     0.750000000  0.750000000  0.351282183
     0.000000000  0.500000000  0.351282183
     0.750016029  0.499958202  0.650575913
     0.000000043  0.750029438  0.650509501
     0.749911909  0.749973147  0.549737375
     0.000000034  0.499904715  0.549757805

  ion indices of the primitive-cell ions
   primitive index   ion index
                 1           1
                 2           2
                 3           3
                 4           4
                 5           5
                 6           6
                 7           7
                 8           8
                 9           9
                10          10
                11          11
                12          12
                13          13
                14          14
                15          15
                16          16
                17          17
                18          18
                19          19
                20          20
                21          21
                22          22
                23          23
                24          24
                25          25
                26          26
                27          27
                28          28
                29          29
                30          30
                31          31
                32          32
                33          33
                34          34
                35          35
                36          36
                37          37
                38          38
                39          39
                40          40
                41          41
                42          42
                43          43
                44          44
[...]
   0.50000000  0.75000000  0.45042739
   0.25000000  0.75000000  0.35128218
   0.50000000  0.50000000  0.35128218
   0.24998411  0.49995821  0.65057598
   0.50000000  0.75036175  0.65031649
   0.25008814  0.74997315  0.54973738
   0.50000002  0.49968036  0.55003164
   0.75000000  0.00000000  0.45042739
   0.00000000  0.25000000  0.45042739
   0.75000000  0.25000000  0.35128218
   0.00000000  0.00000000  0.35128218
   0.74988514  0.00008644  0.65034415
   0.00000005  0.24997722  0.65042365
   0.74953936  0.25008289  0.55001057
   0.00000003  0.00009956  0.54973976
   0.75000000  0.50000000  0.45042739
   0.00000000  0.75000000  0.45042739
   0.75000000  0.75000000  0.35128218
   0.00000000  0.50000000  0.35128218
   0.75001603  0.49995820  0.65057591
   0.00000004  0.75002944  0.65050950
   0.74991191  0.74997315  0.54973738
   0.00000003  0.49990472  0.54975781

 position of ions in cartesian coordinates  (Angst):
   2.11678566  0.00000000  7.50000000
   4.23357132  2.11678566  7.50000000
   2.11678566  2.11678566  9.61678566
   4.23357132  0.00000000  9.61678566
   2.11648731  0.00088010 11.74719000
   4.23357143  2.11795810 11.74507941
   2.09644629  2.11427676 13.85425302
   4.23357159  8.44718873 13.84802947
   2.11678566  4.23357132  7.50000000
   4.23357132  6.35035697  7.50000000
   2.11678566  6.35035697  9.61678566
   4.23357132  4.23357132  9.61678566
   2.11622819  4.23318961 11.74845667
   4.23357150  6.35162009 11.74303937
   2.11193171  6.35330165 13.84625020
   4.23357283  4.26268885 13.85043238
   6.35035697  0.00000000  7.50000000
   0.00000000  2.11678566  7.50000000
   6.35035697  2.11678566  9.61678566
   0.00000000  0.00000000  9.61678566
   6.35065578  0.00087989 11.74718987
   0.00000043  2.11670541 11.74492508
   6.37069688  2.11427715 13.85425130
   0.00000023  8.46388169 13.84898623
   6.35035697  4.23357132  7.50000000
   0.00000000  6.35035697  7.50000000
   6.35035697  6.35035697  9.61678566
   0.00000000  4.23357132  9.61678566
   6.35091498  4.23318978 11.74845661
   0.00000023  6.35065043 11.74438875
   6.35521129  6.35330115 13.84625032
   8.46714246  4.23695576 13.84754916
   2.11678566  0.00000000  9.61678566
   4.23357132  2.11678566  9.61678566
   2.11678566  2.11678566  7.50000000
   4.23357132  0.00000000  7.50000000
   2.11775866  0.00073203 13.88508004
   4.23357174  2.11631950 13.91777610
   2.12068641  2.11748746 11.74292232
   4.23357148  0.00473429 11.74094449
   2.11678566  4.23357132  9.61678566
   4.23357132  6.35035697  9.61678566
   2.11678566  6.35035697  7.50000000
   4.23357132  4.23357132  7.50000000
   2.11665112  4.23321745 13.89002937
   4.23357132  6.35341997 13.88448930
   2.11753196  6.35012966 11.73708926
   4.23357149  4.23086485 11.74337181
   6.35035697  0.00000000  9.61678566
   0.00000000  2.11678566  9.61678566
   6.35035697  2.11678566  7.50000000
   0.00000000  0.00000000  7.50000000
   6.34938447  0.00073194 13.88507968
   0.00000040  2.11659276 13.88677702
   6.34645668  2.11748746 11.74292202
   0.00000025  0.00084295 11.73714022
   6.35035697  4.23357132  9.61678566
   0.00000000  6.35035697  9.61678566
   6.35035697  6.35035697  7.50000000
   0.00000000  4.23357132  7.50000000
   6.35049270  4.23321740 13.89002799
   0.00000036  6.35060623 13.88861005
   6.34961109  6.35012961 11.73708921
   0.00000028  4.23276453 11.73752539

--------------------------------------- Iteration      FINAL  ---------------------------------------

--------------------OUTCAR has been truncated-------------------------

[...]

--------------------OUTCAR has been truncated-------------------------

  DFT-D2 method for vdW energy calculation

  Parameters of vdW forcefield:
         C6(Jnm^6/mol)     R0(A)
   Mg       0.630          1.243
   O        0.700          1.342

  vdW correction parametrized for the method Sþ      

  IVDW =   1
  VDW_RADIUS =    50.000 A
  VDW_S6 =     1.050
  VDW_SR =     1.000
  VDW_D =    20.000
  LVDW_EWALD = F

  Number of pair interactions contributing to vdW energy:  719128
  Edisp (eV):   -5.01500

 VOLUME and BASIS-vectors are now :
  energy-cutoff  :      600.00
  volume of cell :     1530.66
      direct lattice vectors                 reciprocal lattice vectors
     8.467142631  0.000000000  0.000000000     0.118103597  0.000000000  0.000000000
     0.000000000  8.467142631  0.000000000     0.000000000  0.118103597  0.000000000
     0.000000000  0.000000000 21.350356973     0.000000000  0.000000000  0.046837624

  length of vectors
     8.467142631  8.467142631 21.350356973     0.118103597  0.118103597  0.046837624

 FORCES acting on ions:
    Electron-Ion                     Ewald-Force                    Non-Local-Force
   -.742E-01 -.109E+00 0.205E+04   0.752E-01 0.111E+00 -.205E+04   -.643E-03 -.152E-02 -.638E+01
   0.353E-05 -.478E-01 0.205E+04   -.431E-05 0.490E-01 -.205E+04   0.121E-05 -.795E-03 -.639E+01
   -.300E+00 -.171E+00 0.679E+03   0.333E+00 0.180E+00 -.679E+03   -.222E-01 -.553E-02 0.445E+00
   0.152E-04 -.442E+00 0.679E+03   -.145E-04 0.490E+00 -.680E+03   0.837E-06 -.304E-01 0.424E+00
   -.101E+01 -.124E+01 -.684E+03   0.110E+01 0.137E+01 0.684E+03   -.526E-01 -.852E-01 -.325E+00
   0.570E-04 -.739E+00 -.692E+03   -.666E-04 0.748E+00 0.692E+03   0.138E-04 -.491E-02 -.224E+00
   -.953E+01 -.138E+01 -.204E+04   0.992E+01 0.139E+01 0.204E+04   -.286E-01 0.275E-01 0.547E+01
   -.381E-04 -.952E+01 -.204E+04   0.407E-04 0.987E+01 0.203E+04   0.469E-05 0.231E-02 0.546E+01
   -.875E-01 0.109E+00 0.205E+04   0.886E-01 -.111E+00 -.205E+04   -.728E-03 0.146E-02 -.638E+01
   0.587E-05 0.495E-01 0.205E+04   -.462E-05 -.500E-01 -.205E+04   -.113E-05 0.330E-03 -.637E+01
   -.211E+00 0.181E+00 0.680E+03   0.204E+00 -.188E+00 -.681E+03   0.473E-02 0.462E-02 0.407E+00
   0.262E-04 0.450E+00 0.678E+03   -.253E-04 -.483E+00 -.679E+03   0.139E-05 0.224E-01 0.455E+00
   -.140E+01 0.131E+01 -.686E+03   0.149E+01 -.143E+01 0.686E+03   -.530E-01 0.839E-01 -.314E+00
   0.409E-04 0.511E+00 -.681E+03   -.452E-04 -.522E+00 0.681E+03   0.568E-06 0.441E-02 -.142E+00
   -.577E+00 0.112E+01 -.204E+04   0.357E+00 -.109E+01 0.203E+04   0.195E+00 -.434E-01 0.555E+01
   0.374E-03 0.115E+02 -.204E+04   -.384E-03 -.118E+02 0.203E+04   -.658E-05 -.137E+00 0.548E+01
   0.742E-01 -.109E+00 0.205E+04   -.752E-01 0.111E+00 -.205E+04   0.641E-03 -.152E-02 -.638E+01
   -.383E-05 -.353E-01 0.205E+04   0.418E-05 0.360E-01 -.205E+04   0.640E-06 -.435E-03 -.637E+01
   0.300E+00 -.171E+00 0.679E+03   -.333E+00 0.180E+00 -.679E+03   0.222E-01 -.553E-02 0.445E+00
   -.103E-04 -.350E+00 0.680E+03   0.127E-04 0.351E+00 -.681E+03   0.688E-06 -.634E-03 0.408E+00
   0.101E+01 -.124E+01 -.684E+03   -.110E+01 0.137E+01 0.684E+03   0.526E-01 -.852E-01 -.325E+00
   -.265E-04 -.286E+00 -.682E+03   0.379E-04 0.290E+00 0.682E+03   -.103E-04 -.107E-02 -.160E+00
   0.953E+01 -.138E+01 -.204E+04   -.992E+01 0.139E+01 0.204E+04   0.286E-01 0.275E-01 0.547E+01
   0.513E-04 -.315E+00 -.204E+04   -.553E-04 0.150E+00 0.203E+04   0.139E-05 0.143E+00 0.558E+01
   0.875E-01 0.109E+00 0.205E+04   -.886E-01 -.111E+00 -.205E+04   0.730E-03 0.146E-02 -.638E+01
   -.616E-05 0.355E-01 0.205E+04   0.464E-05 -.362E-01 -.205E+04   -.145E-05 0.429E-03 -.637E+01
   0.211E+00 0.181E+00 0.680E+03   -.204E+00 -.188E+00 -.681E+03   -.474E-02 0.462E-02 0.407E+00
   -.230E-04 0.346E+00 0.680E+03   0.246E-04 -.347E+00 -.680E+03   0.627E-06 0.638E-03 0.413E+00
   0.140E+01 0.131E+01 -.686E+03   -.149E+01 -.143E+01 0.686E+03   0.530E-01 0.838E-01 -.314E+00
   -.504E-04 0.334E+00 -.683E+03   0.489E-04 -.330E+00 0.683E+03   0.146E-05 -.565E-02 -.137E+00
   0.577E+00 0.112E+01 -.204E+04   -.357E+00 -.109E+01 0.203E+04   -.195E+00 -.434E-01 0.555E+01
   -.327E-03 0.361E+00 -.204E+04   0.325E-03 -.188E+00 0.203E+04   0.801E-05 -.148E+00 0.552E+01
   -.272E+00 -.382E+00 0.509E+03   0.276E+00 0.381E+00 -.509E+03   -.428E-02 0.121E-02 -.110E+00
   0.138E-04 -.174E+00 0.509E+03   -.159E-04 0.164E+00 -.508E+03   0.262E-05 0.128E-01 -.123E+00
   -.614E-01 -.310E-01 0.154E+04   0.652E-01 0.319E-01 -.155E+04   -.472E-02 -.116E-02 0.313E+01
   0.365E-05 -.840E-01 0.154E+04   -.288E-05 0.888E-01 -.155E+04   0.710E-06 -.589E-02 0.313E+01
   -.148E+01 -.154E+01 -.155E+04   0.174E+01 0.178E+01 0.155E+04   -.307E+00 -.281E+00 -.443E+01
   0.700E-04 -.180E+01 -.156E+04   -.777E-04 0.195E+01 0.156E+04   0.434E-05 -.138E+00 -.474E+01
   -.184E+01 -.381E+00 -.510E+03   0.199E+01 0.388E+00 0.510E+03   -.204E+00 -.105E-01 0.182E+00
   -.217E-06 -.208E+01 -.509E+03   0.330E-05 0.225E+01 0.508E+03   -.426E-06 -.222E+00 0.239E+00
   -.365E+00 0.385E+00 0.509E+03   0.366E+00 -.386E+00 -.509E+03   -.705E-03 0.941E-03 -.125E+00
   0.181E-04 0.205E+00 0.510E+03   -.183E-04 -.211E+00 -.510E+03   0.141E-05 0.685E-02 -.465E-01
   -.514E-01 0.312E-01 0.154E+04   0.507E-01 -.322E-01 -.155E+04   0.844E-03 0.118E-02 0.313E+01
   0.337E-05 0.829E-01 0.154E+04   -.377E-05 -.881E-01 -.155E+04   0.132E-05 0.653E-02 0.313E+01
   -.194E+01 0.183E+01 -.155E+04   0.218E+01 -.210E+01 0.155E+04   -.281E+00 0.328E+00 -.450E+01
   0.270E-04 -.865E-02 -.155E+04   -.354E-04 0.743E-01 0.155E+04   0.141E-04 -.621E-01 -.439E+01
   -.116E+00 0.348E+00 -.506E+03   0.134E+00 -.359E+00 0.506E+03   -.266E-01 0.150E-01 0.371E+00
   0.106E-03 0.221E+01 -.510E+03   -.109E-03 -.237E+01 0.510E+03   0.398E-05 0.207E+00 0.228E+00
   0.272E+00 -.382E+00 0.509E+03   -.276E+00 0.381E+00 -.509E+03   0.428E-02 0.121E-02 -.110E+00
   -.836E-05 -.102E+00 0.509E+03   0.534E-05 0.104E+00 -.509E+03   0.315E-05 -.198E-02 -.650E-01
   0.614E-01 -.310E-01 0.154E+04   -.652E-01 0.319E-01 -.155E+04   0.472E-02 -.116E-02 0.313E+01
   -.372E-05 -.734E-01 0.154E+04   0.290E-05 0.740E-01 -.155E+04   0.202E-06 -.680E-03 0.313E+01
   0.148E+01 -.154E+01 -.155E+04   -.174E+01 0.178E+01 0.155E+04   0.307E+00 -.281E+00 -.443E+01
   0.551E-05 -.438E+00 -.155E+04   -.911E-05 0.490E+00 0.155E+04   -.333E-05 -.574E-01 -.435E+01
   0.184E+01 -.381E+00 -.510E+03   -.199E+01 0.388E+00 0.510E+03   0.204E+00 -.105E-01 0.182E+00
   -.593E-05 -.250E+00 -.506E+03   0.818E-05 0.257E+00 0.506E+03   -.229E-05 -.134E-01 0.342E+00
   0.365E+00 0.385E+00 0.509E+03   -.366E+00 -.386E+00 -.509E+03   0.708E-03 0.942E-03 -.125E+00
   -.153E-04 0.108E+00 0.510E+03   0.127E-04 -.110E+00 -.510E+03   0.208E-05 0.212E-02 -.671E-01
   0.514E-01 0.312E-01 0.154E+04   -.507E-01 -.322E-01 -.155E+04   -.843E-03 0.118E-02 0.313E+01
   -.260E-05 0.733E-01 0.154E+04   0.383E-05 -.739E-01 -.155E+04   -.157E-05 0.675E-03 0.313E+01
   0.194E+01 0.183E+01 -.155E+04   -.218E+01 -.210E+01 0.155E+04   0.281E+00 0.328E+00 -.450E+01
   -.288E-05 0.412E+00 -.155E+04   0.485E-05 -.470E+00 0.155E+04   -.420E-05 0.659E-01 -.449E+01
   0.116E+00 0.348E+00 -.506E+03   -.134E+00 -.359E+00 0.506E+03   0.266E-01 0.150E-01 0.371E+00
   -.109E-03 0.221E+00 -.506E+03   0.111E-03 -.230E+00 0.506E+03   -.178E-05 0.174E-01 0.367E+00
   0.411E-05 0.291E+00 0.168E+02   -.486E-12 0.376E-12 0.364E-11   -.225E-05 -.267E+00 -.147E+02

 POSITION                                       TOTAL-FORCE (eV/Angst)
      2.11679      0.00000      7.50000         0.000282      0.000612      0.511247
      4.23357      2.11679      7.50000         0.000001      0.000290      0.514032
      2.11679      2.11679      9.61679         0.008573      0.002315      0.044028
      4.23357      0.00000      9.61679         0.000002      0.013038      0.040232
      2.11649      0.00088     11.74719         0.027504      0.028964     -0.029411
      4.23357      2.11796     11.74508         0.000007      0.002754      0.175815
      2.09645      2.11428     13.85425         0.330806      0.033997     -0.130510
      4.23357      8.44719     13.84803         0.000008      0.325305     -0.101754
      2.11679      4.23357      7.50000         0.000312     -0.000617      0.512109
      4.23357      6.35036      7.50000        -0.000000     -0.000151      0.507790
      2.11679      6.35036      9.61679        -0.001931     -0.002061      0.024774
      4.23357      4.23357      9.61679         0.000003     -0.008158      0.045035
      2.11623      4.23319     11.74846         0.032427     -0.028633     -0.019175
      4.23357      6.35162     11.74304        -0.000004     -0.005192     -0.053233
      2.11193      6.35330     13.84625        -0.006631     -0.021880     -0.138739
      4.23357      4.26269     13.85043        -0.000016     -0.384828     -0.102243
      6.35036      0.00000      7.50000        -0.000284      0.000610      0.511243
      0.00000      2.11679      7.50000         0.000001      0.000182      0.508885
      6.35036      2.11679      9.61679        -0.008577      0.002315      0.044028
      0.00000      0.00000      9.61679         0.000004      0.000317      0.023523
      6.35066      0.00088     11.74719        -0.027511      0.028969     -0.029405
      0.00000      2.11671     11.74493         0.000002      0.002257     -0.051686
      6.37070      2.11428     13.85425        -0.330800      0.033984     -0.130505
      0.00000      8.46388     13.84899        -0.000002     -0.008753     -0.164828
      6.35036      4.23357      7.50000        -0.000310     -0.000616      0.512115
      0.00000      6.35036      7.50000        -0.000003     -0.000190      0.509752
      6.35036      6.35036      9.61679         0.001928     -0.002062      0.024778
      0.00000      4.23357      9.61679         0.000003     -0.000355      0.025890
      6.35091      4.23319     11.74846        -0.032429     -0.028634     -0.019176
      0.00000      6.35065     11.74439        -0.000001     -0.001874     -0.044032
      6.35521      6.35330     13.84625         0.006630     -0.021864     -0.138764
      8.46714      4.23696     13.84755         0.000007      0.010329     -0.134099
      2.11679      0.00000      9.61679        -0.000779      0.000740      0.050380
      4.23357      2.11679      9.61679         0.000001      0.004192      0.036314
      2.11679      2.11679      7.50000        -0.001597     -0.000395     -0.393618
      4.23357      0.00000      7.50000         0.000002     -0.001977     -0.393084
      2.11776      0.00073     13.88508        -0.092652     -0.083250     -0.037592
      4.23357      2.11632     13.91778        -0.000003      0.000616     -0.228055
      2.12069      2.11749     11.74292        -0.083583     -0.004979     -0.026198
      4.23357      0.00473     11.74094         0.000003     -0.085864     -0.021185
      2.11679      4.23357      9.61679         0.000790     -0.000138      0.051496
      4.23357      6.35036      9.61679         0.000001      0.001484      0.053422
      2.11679      6.35036      7.50000         0.000282      0.000394     -0.392342
      4.23357      4.23357      7.50000         0.000001      0.002205     -0.393492
      2.11665      4.23322     13.89003        -0.074488      0.094216     -0.067362
      4.23357      6.35342     13.88449         0.000007     -0.004469     -0.032951
      2.11753      6.35013     11.73709        -0.011821      0.006269      0.041646
      4.23357      4.23086     11.74337         0.000002      0.082048     -0.031297
      6.35036      0.00000      9.61679         0.000777      0.000736      0.050380
      0.00000      2.11679      9.61679         0.000001     -0.000525      0.056061
      6.35036      2.11679      7.50000         0.001598     -0.000393     -0.393616
      0.00000      0.00000      7.50000        -0.000001     -0.000230     -0.392569
      6.34938      0.00073     13.88508         0.092650     -0.083252     -0.037591
      0.00000      2.11659     13.88678        -0.000007     -0.013128     -0.028928
      6.34646      2.11749     11.74292         0.083582     -0.004979     -0.026194
      0.00000      0.00084     11.73714        -0.000000     -0.008863      0.044009
      6.35036      4.23357      9.61679        -0.000792     -0.000135      0.051495
      0.00000      6.35036      9.61679        -0.000000      0.000463      0.051301
      6.35036      6.35036      7.50000        -0.000281      0.000393     -0.392344
      0.00000      4.23357      7.50000        -0.000001      0.000222     -0.392928
      6.35049      4.23322     13.89003         0.074487      0.094220     -0.067356
      0.00000      6.35061     13.88861        -0.000003      0.016219     -0.069284
      6.34961      6.35013     11.73709         0.011820      0.006271      0.041649
      0.00000      4.23276     11.73753         0.000000      0.011520      0.042120
    total drift:                                0.000002      0.000344      0.013161

  FREE ENERGIE OF THE ION-ELECTRON SYSTEM (eV)
  free  energy   TOTEN  =      -438.17227446 eV

  energy  without entropy=     -438.17227446  energy(sigma->0) =     -438.17227446