 vasp.6.3.0 20Jan22 (build Aug 21 2024 11:13:42) complex
 executed on        HPECrayEX_GCC date 2024.11.27  20:54:39

 INCAR:
   SYSTEM = MgO-rocksalt
   ISMEAR = 0
   SIGMA = 0.05
   EDIFF = 1E-4
   ALGO = ALL
   IBRION = -1
   NSW = 0
   ISYM = 0
   DIPOL = 0.5 0.5 0.5
   IDIPOL = 3
   LDIPOL = .TRUE.
   LHFCALC = .TRUE.
   GGA = PE
   IVDW = 13
   VDW_S8 = 1.2007
   VDW_A1 = 0.4009
   VDW_A2 = 5.0293
   ENCUT = 520
   PREC = Accurate
   LASPH = .TRUE.
   LREAL = Auto
   ISPIN = 1
   NELM = 200
   NELMIN = 8
   NCORE = 8
   KPAR = 1
   LWAVE = .FALSE.
   LCHARG = .FALSE.

 POTCAR:    PAW_PBE C 08Apr2002
 POTCAR:    PAW_PBE H 15Jun2001
 POTCAR:    PAW_PBE O 08Apr2002
 POTCAR:    PAW_PBE Mg_pv 13Apr2007
 POTCAR:    PAW_PBE O 08Apr2002
 POTCAR:    PAW_PBE C 08Apr2002
   VRHFIN =C: s2p2

   TITEL  = PAW_PBE C 08Apr2002
   POMASS =   12.011; ZVAL   =    4.000    mass and valenz
   ENMAX  =  400.000; ENMIN  =  300.000 eV

   TITEL  = PAW_PBE H 15Jun2001
   POMASS =    1.000; ZVAL   =    1.000    mass and valenz
   ENMAX  =  250.000; ENMIN  =  200.000 eV

[...]

   TITEL  = PAW_PBE Mg_pv 13Apr2007
   POMASS =   24.305; ZVAL   =    8.000    mass and valenz
   ENMAX  =  403.929; ENMIN  =  302.947 eV

   TITEL  = PAW_PBE O 08Apr2002
   POMASS =   16.000; ZVAL   =    6.000    mass and valenz
   ENMAX  =  400.000; ENMIN  =  300.000 eV

 Optimization of the real space projectors (new method)

 maximal supplied QI-value         = 25.13
 optimisation between [QCUT,QGAM] = [ 11.56, 23.12] = [ 37.43,149.72] Ry
 Optimized for a Real-space Cutoff    1.04 Angstroem

   l    n(q)    QCUT    max X(q) W(low)/X(q) W(high)/X(q)  e(spline)
   0      7    11.561   115.676    0.20E-03    0.60E-03    0.21E-06
   0      7    11.561    87.132    0.20E-03    0.59E-03    0.21E-06
   1      7    11.561     4.429    0.23E-03    0.35E-03    0.15E-06
   1      7    11.561     2.733    0.18E-03    0.25E-03    0.12E-06
 Optimization of the real space projectors (new method)

[...]

   l    n(q)    QCUT    max X(q) W(low)/X(q) W(high)/X(q)  e(spline)
   1      8    11.527     2.974    0.44E-04    0.56E-04    0.12E-06
   1      8    11.527     4.279    0.12E-03    0.12E-03    0.26E-06
   0      9    11.527    16.381    0.46E-04    0.64E-04    0.78E-07
   0      9    11.527     5.611    0.26E-04    0.43E-04    0.55E-07
   2      8    11.527     4.652    0.22E-03    0.72E-04    0.47E-07
 Optimization of the real space projectors (new method)

 maximal supplied QI-value         = 24.76
 optimisation between [QCUT,QGAM] = [ 11.64, 23.27] = [ 37.91,151.63] Ry
 Optimized for a Real-space Cutoff    1.14 Angstroem

   l    n(q)    QCUT    max X(q) W(low)/X(q) W(high)/X(q)  e(spline)
   0      8    11.635    20.381    0.10E-03    0.33E-03    0.24E-06
   0      8    11.635    15.268    0.11E-03    0.35E-03    0.26E-06
   1      7    11.635     5.964    0.24E-03    0.31E-03    0.30E-06
   1      7    11.635     5.382    0.22E-03    0.25E-03    0.26E-06
  PAW_PBE C 08Apr2002                   :
  PAW_PBE H 15Jun2001                   :
  PAW_PBE O 08Apr2002                   :
  PAW_PBE Mg_pv 13Apr2007               :
  PAW_PBE O 08Apr2002                   :

 POSCAR:  C  H  O Mg  O
  positions in direct lattice
  velocities in cartesian coordinates
|           W    W    AA    RRRRR   N    N  II  N    N   GGGG   !!!           |
|           W    W   A  A   R    R  NN   N  II  NN   N  G    G  !!!           |
|           W    W  A    A  R    R  N N  N  II  N N  N  G       !!!           |
|           W WW W  AAAAAA  RRRRR   N  N N  II  N  N N  G  GGG   !            |
|           WW  WW  A    A  R   R   N   NN  II  N   NN  G    G                |
|           W    W  A    A  R    R  N    N  II  N    N   GGGG   !!!           |
|     Specifying the vdW parameters                                           |
|     VDW_S8 = 1.201                                                          |
|     VDW_A1 = 0.401                                                          |
|     VDW_A2 = 5.029                                                          |
|     in the INCAR file will overwrite the defaults for pbe0. Please make     |
|     sure that is what you intended.                                         |

 ion  position               nearest neighbor table
   1  0.527  0.556  0.796-   8 1.09   7 1.10   5 1.10  21 1.44
   2  0.319  0.401  0.796-  12 1.10  11 1.10   9 1.10  22 1.44
   3  0.474  0.195  0.797-  16 1.10  15 1.10  13 1.10  23 1.44
   4  0.681  0.348  0.796-  20 1.10  19 1.10  17 1.10  24 1.44
   5  0.520  0.543  0.846-   1 1.10
   6  0.552  0.449  0.761-  21 1.00
   7  0.588  0.576  0.787-   1 1.10
   8  0.487  0.604  0.782-   1 1.09
   9  0.332  0.394  0.846-   2 1.10
  10  0.426  0.427  0.761-  22 1.00
  11  0.299  0.462  0.788-   2 1.10
  12  0.271  0.361  0.782-   2 1.10
  13  0.481  0.209  0.847-   3 1.10
  14  0.448  0.301  0.761-  23 1.00
  15  0.412  0.176  0.788-   3 1.10
  16  0.514  0.147  0.783-   3 1.10
  17  0.667  0.355  0.846-   4 1.10
  18  0.574  0.323  0.761-  24 1.00
  19  0.699  0.286  0.787-   4 1.10
  20  0.729  0.388  0.782-   4 1.10
  21  0.508  0.488  0.758-   6 1.00   1 1.44
  22  0.387  0.383  0.758-  10 1.00   2 1.44
  23  0.492  0.262  0.758-  14 1.00   3 1.44
  24  0.613  0.367  0.758-  18 1.00   4 1.44
  25  0.000  0.375  0.352- 153 2.11 156 2.11 163 2.11 187 2.11 236 2.11
  26  0.125  0.000  0.352- 154 2.11 155 2.11 164 2.11 171 2.11 188 2.11
  27  0.000  0.000  0.451- 155 2.11 154 2.11 161 2.11 185 2.11 234 2.11 159 2.12
  28  0.125  0.375  0.451- 156 2.11 153 2.11 162 2.11 169 2.11 186 2.11 160 2.12
  29  1.000  0.375  0.550- 160 2.11 240 2.11 191 2.11 167 2.11 153 2.12 157 2.16
  30  0.125  1.000  0.550- 168 2.11 175 2.11 192 2.11 159 2.11 154 2.12 158 2.15
  31  1.000  1.000  0.649- 159 2.11 238 2.11 158 2.11 189 2.11 165 2.11
  32  0.125  0.375  0.648- 173 2.09 160 2.10 157 2.11 190 2.11 166 2.11
  33  0.000  0.125  0.352- 161 2.11 155 2.11 163 2.11 164 2.11 244 2.11
  34  0.125  0.250  0.352- 162 2.11 156 2.11 163 2.11 164 2.11 179 2.11
  35  0.000  0.250  0.451- 163 2.11 161 2.11 162 2.11 153 2.11 242 2.11 167 2.12
  36  0.125  0.125  0.451- 164 2.11 161 2.11 162 2.11 154 2.11 177 2.11 168 2.12
  37  1.000  0.125  0.550- 168 2.11 248 2.11 167 2.11 159 2.11 161 2.12 165 2.15
  38  0.125  0.250  0.550- 183 2.10 167 2.11 160 2.11 168 2.11 162 2.12 166 2.16
  39  1.000  0.250  0.649- 167 2.11 246 2.11 166 2.11 165 2.11 157 2.11
  40  0.125  0.125  0.649- 181 2.11 168 2.11 165 2.11 166 2.11 158 2.11
  41  0.250  0.375  0.352- 169 2.11 156 2.11 172 2.11 179 2.11 203 2.11
  42  0.375  0.000  0.352- 170 2.11 171 2.11 180 2.11 204 2.11 219 2.11
  43  0.250  0.000  0.451- 171 2.11 170 2.11 154 2.11 177 2.11 201 2.11 175 2.12
  44  0.375  0.375  0.451- 172 2.11 169 2.11 178 2.11 202 2.11 217 2.11 176 2.13
  45  0.250  0.375  0.550- 176 2.10 183 2.11 207 2.11 160 2.12 169 2.13 173 2.15
  46  0.375  1.000  0.550- 184 2.10 223 2.11 208 2.11 175 2.11 170 2.12 174 2.16
  47  0.250  1.000  0.649- 181 2.10 175 2.11 205 2.11 174 2.11 158 2.11
  48  0.375  0.375  0.652- 221 2.12 173 2.12 182 2.13 206 2.14 176 2.17
  49  0.250  0.125  0.352- 177 2.11 171 2.11 164 2.11 179 2.11 180 2.11
  50  0.375  0.250  0.352- 178 2.11 172 2.11 179 2.11 180 2.11 227 2.11
  51  0.250  0.250  0.451- 179 2.11 169 2.11 177 2.11 178 2.11 162 2.11 183 2.12
  52  0.375  0.125  0.451- 180 2.11 177 2.11 178 2.11 170 2.11 225 2.11 184 2.12
  53  0.250  0.125  0.550- 183 2.11 184 2.11 168 2.11 175 2.11 177 2.12 181 2.16
  54  0.375  0.251  0.551- 231 2.10 176 2.10 183 2.13 184 2.13 182 2.13 178 2.14
  55  0.250  0.250  0.648- 182 2.09 183 2.10 166 2.11 173 2.11 181 2.12
  56  0.375  0.125  0.648- 182 2.09 184 2.09 174 2.11 229 2.11 181 2.11
  57  0.000  0.875  0.352- 185 2.11 155 2.11 188 2.11 195 2.11 268 2.11
  58  0.125  0.500  0.352- 186 2.11 156 2.11 187 2.11 196 2.11 203 2.11
  59  0.000  0.500  0.451- 187 2.11 186 2.11 153 2.11 193 2.11 266 2.11 191 2.12
  60  0.125  0.875  0.451- 188 2.11 185 2.11 154 2.11 194 2.11 201 2.11 192 2.12
[...]
 266  0.875  0.500  0.451- 138 2.11 108 2.11  59 2.11 139 2.11 148 2.11 142 2.12
 267  0.750  0.500  0.352- 139 2.11 122 2.11 138 2.11 105 2.11 145 2.11
 268  0.875  0.875  0.352- 140 2.11 106 2.11 137 2.11  57 2.11 146 2.11
 269  0.750  0.875  0.651- 151 2.11 111 2.11 144 2.11 128 2.11 141 2.15
 270  0.875  0.500  0.651-  63 2.11 152 2.11 143 2.11 112 2.11 142 2.16
 271  0.750  0.500  0.550- 143 2.10 142 2.10 149 2.11 109 2.11 139 2.12 126 2.13
 272  0.875  0.875  0.550- 144 2.11  61 2.11 150 2.11 110 2.11 141 2.11 140 2.12
 273  0.750  0.625  0.451- 145 2.11 139 2.11 132 2.11 147 2.11 148 2.11 149 2.12
 274  0.875  0.750  0.451- 146 2.11 140 2.11  67 2.11 147 2.11 148 2.11 150 2.12
 275  0.750  0.750  0.352- 147 2.11 137 2.11 145 2.11 146 2.11 130 2.11
 276  0.875  0.625  0.352- 148 2.11 138 2.11 145 2.11 146 2.11  65 2.11
 277  0.750  0.625  0.651- 151 2.10 152 2.11 136 2.11 143 2.12 149 2.16
 278  0.875  0.750  0.651- 144 2.11  71 2.11 152 2.11 151 2.11 150 2.15
 279  0.750  0.750  0.550- 151 2.11 141 2.11 150 2.11 134 2.11 149 2.11 147 2.12
 280  0.875  0.625  0.550- 152 2.11  69 2.11 150 2.11 149 2.11 142 2.11 148 2.12

IMPORTANT INFORMATION: All symmetrisations will be switched off!
NOSYMM: (Re-)initialisation of all symmetry stuff for point group C_1.

                                     Primitive cell

  volume of cell :    6079.2794

  direct lattice vectors                    reciprocal lattice vectors
    16.881969308  0.000000000  0.000000000     0.059234796  0.000000000  0.000000000
     0.000000000 16.881969308  0.000000000     0.000000000  0.059234796  0.000000000
     0.000000000  0.000000000 21.330738491     0.000000000  0.000000000  0.046880702

  length of vectors
    16.881969308 16.881969308 21.330738491     0.059234796  0.059234796  0.046880702

  position of ions in fractional coordinates (direct lattice)
     0.526860992  0.556493160  0.795805784
     0.318859418  0.401083519  0.796193016
     0.473607197  0.194687370  0.796659993
     0.680728403  0.347897400  0.796246437
     0.519733066  0.543252873  0.846065741
     0.552131873  0.449183684  0.760994677
     0.588124613  0.575539307  0.786690651
     0.486726659  0.604277547  0.781807647
     0.332450659  0.393557510  0.846357188
     0.425821804  0.427397416  0.761041772
     0.299285363  0.462282629  0.787533266
     0.271296177  0.360711621  0.782138612
     0.481485763  0.208710886  0.846721704
     0.447815713  0.301387298  0.760902781
     0.412192107  0.175578121  0.788311031
     0.513509438  0.146644775  0.782793470
     0.667158016  0.355440425  0.846414499
     0.573603342  0.323148849  0.760942310
     0.699283922  0.286407544  0.787456220
     0.728978710  0.387533364  0.782343647
     0.507806541  0.488104571  0.758100001
     0.387132996  0.382879485  0.758107612
     0.492167859  0.262454782  0.758123217
     0.612789884  0.367280887  0.758141760
     0.000000000  0.375000000  0.351605267
     0.125000000  0.000000000  0.351605267
     0.000000000  0.000000000  0.450535089
     0.125000000  0.375000000  0.450535089
     0.999995310  0.375003845  0.550033603
     0.124973830  0.999972573  0.550078808
[...]
   2.11024616  0.00000000  7.50000000
   0.00000000  0.00000000  9.61024616
   2.11024616  6.33073849  9.61024616
  16.88189012  6.33080341 11.73262294
   2.10980436 16.88150628 11.73358720
  16.88179342 16.88052944 13.83743755
   2.10884624  6.33101154 13.83190527
   0.00000000  2.11024616  7.50000000
   2.11024616  4.22049233  7.50000000
   0.00000000  4.22049233  9.61024616
   2.11024616  2.11024616  9.61024616
  16.88190167  2.10960442 11.73342522
   2.10984257  4.22081460 11.73181225
  16.88182243  4.21894370 13.83696629
   2.10886433  2.10783573 13.83671299
   4.22049233  6.33073849  7.50000000
   6.33073849  0.00000000  7.50000000
   4.22049233  0.00000000  9.61024616
   6.33073849  6.33073849  9.61024616
   4.22779622  6.33046777 11.73827652
   6.33116562 16.88172057 11.73166318
   4.21835257 16.88071989 13.83651954
   6.32489393  6.33071412 13.90694611
   4.22049233  2.11024616  7.50000000
   6.33073849  4.22049233  7.50000000
   4.22049233  4.22049233  9.61024616
   6.33073849  2.11024616  9.61024616
   4.22051090  2.11057078 11.73069057
   6.33864601  4.22964968 11.74697940
   4.21856954  4.21704023 13.82258203
   6.32727664  2.10876141 13.82125267
   0.00000000 14.77172314  7.50000000
   2.11024616  8.44098465  7.50000000
   0.00000000  8.44098465  9.61024616
   2.11024616 14.77172314  9.61024616
[...]
  14.77172314  8.44098465  9.61024616
  12.66147698  8.44098465  7.50000000
  14.77172314 14.77172314  7.50000000
  12.66390566 14.77176887 13.88792228
  14.77472992  8.44414069 13.88981122
  12.66806199  8.44391594 11.72578650
  14.77264000 14.77166871 11.72922177
  12.66147698 10.55123082  9.61024616
  14.77172314 12.66147698  9.61024616
  12.66147698 12.66147698  7.50000000
  14.77172314 10.55123082  7.50000000
  12.66851931 10.55886748 13.88887770
  14.77423899 12.66408807 13.88757522
  12.66310920 12.66330704 11.72916209
  14.77365844 10.55291949 11.72934123

--------------------------------------- Iteration      FINAL  ---------------------------------------

--------------------OUTCAR has been truncated-------------------------

[...]

--------------------OUTCAR has been truncated-------------------------

 VOLUME and BASIS-vectors are now :
  energy-cutoff  :      520.00
  volume of cell :     6079.28
      direct lattice vectors                 reciprocal lattice vectors
    16.881969308  0.000000000  0.000000000     0.059234796  0.000000000  0.000000000
     0.000000000 16.881969308  0.000000000     0.000000000  0.059234796  0.000000000
     0.000000000  0.000000000 21.330738491     0.000000000  0.000000000  0.046880702

  length of vectors
    16.881969308 16.881969308 21.330738491     0.059234796  0.059234796  0.046880702

 FORCES acting on ions:
    Electron-Ion                     Ewald-Force                    Non-Local-Force
   -.375E+02 -.194E+03 -.102E+04   0.386E+02 0.200E+03 0.102E+04   -.108E+01 -.548E+01 -.318E+01
   0.194E+03 -.364E+02 -.102E+04   -.200E+03 0.374E+02 0.102E+04   0.547E+01 -.103E+01 -.321E+01
   0.368E+02 0.194E+03 -.102E+04   -.379E+02 -.199E+03 0.102E+04   0.108E+01 0.543E+01 -.326E+01
   -.194E+03 0.379E+02 -.102E+04   0.200E+03 -.390E+02 0.102E+04   -.544E+01 0.111E+01 -.321E+01
   0.170E+01 -.182E+02 -.253E+03   -.230E+01 0.171E+02 0.258E+03   0.592E+00 0.104E+01 -.529E+01
   -.587E+02 0.213E+02 -.266E+03   0.640E+02 -.262E+02 0.266E+03   -.546E+01 0.495E+01 -.286E+00
   -.644E+02 -.488E+02 -.241E+03   0.695E+02 0.504E+02 0.240E+03   -.513E+01 -.165E+01 0.965E+00
   0.344E+02 -.743E+02 -.240E+03   -.378E+02 0.785E+02 0.238E+03   0.342E+01 -.418E+01 0.160E+01
   0.178E+02 0.216E+01 -.253E+03   -.168E+02 -.279E+01 0.258E+03   -.107E+01 0.625E+00 -.528E+01
   -.211E+02 -.592E+02 -.266E+03   0.259E+02 0.645E+02 0.266E+03   -.492E+01 -.549E+01 -.290E+00
   0.492E+02 -.642E+02 -.241E+03   -.509E+02 0.693E+02 0.240E+03   0.169E+01 -.512E+01 0.917E+00
   0.742E+02 0.347E+02 -.239E+03   -.783E+02 -.382E+02 0.238E+03   0.416E+01 0.344E+01 0.160E+01
   -.245E+01 0.174E+02 -.252E+03   0.311E+01 -.163E+02 0.258E+03   -.654E+00 -.111E+01 -.527E+01
   0.585E+02 -.212E+02 -.266E+03   -.639E+02 0.261E+02 0.266E+03   0.545E+01 -.493E+01 -.264E+00
   0.644E+02 0.489E+02 -.240E+03   -.696E+02 -.505E+02 0.239E+03   0.514E+01 0.165E+01 0.884E+00
   -.342E+02 0.745E+02 -.239E+03   0.376E+02 -.788E+02 0.238E+03   -.340E+01 0.420E+01 0.158E+01
   -.178E+02 -.206E+01 -.253E+03   0.168E+02 0.269E+01 0.258E+03   0.107E+01 -.626E+00 -.528E+01
   0.215E+02 0.580E+02 -.266E+03   -.264E+02 -.633E+02 0.266E+03   0.496E+01 0.542E+01 -.270E+00
   -.484E+02 0.647E+02 -.241E+03   0.500E+02 -.698E+02 0.240E+03   -.161E+01 0.515E+01 0.931E+00
   -.747E+02 -.338E+02 -.239E+03   0.789E+02 0.372E+02 0.238E+03   -.422E+01 -.338E+01 0.159E+01
   0.383E+02 -.106E+03 -.154E+04   -.684E+02 0.101E+03 0.152E+04   0.263E+02 0.371E+01 0.172E+02
   0.106E+03 0.361E+02 -.153E+04   -.101E+03 -.659E+02 0.151E+04   -.376E+01 0.261E+02 0.175E+02
   -.369E+02 0.107E+03 -.153E+04   0.667E+02 -.103E+03 0.151E+04   -.261E+02 -.351E+01 0.176E+02
   -.107E+03 -.389E+02 -.153E+04   0.103E+03 0.690E+02 0.151E+04   0.346E+01 -.263E+02 0.174E+02
   -.135E-02 0.133E-02 0.209E+04   0.987E-03 -.115E-02 -.208E+04   0.236E-03 -.755E-04 -.675E+01
   0.554E+01 0.554E+01 0.208E+04   -.553E+01 -.553E+01 -.207E+04   -.704E-02 -.707E-02 -.675E+01
   -.382E-01 0.773E+01 0.712E+03   0.385E-01 -.773E+01 -.713E+03   -.230E-03 -.349E-02 0.513E+00
   0.146E+02 0.623E-01 0.731E+03   -.145E+02 -.645E-01 -.731E+03   -.582E-01 0.898E-03 0.481E+00
   0.412E-02 0.614E-02 -.634E+03   -.299E-02 -.658E-02 0.634E+03   -.666E-03 -.141E-03 -.279E-01
   0.152E+02 0.151E+02 -.651E+03   -.151E+02 -.151E+02 0.651E+03   -.156E-01 -.163E-01 -.798E-01
   -.121E+00 0.184E+02 -.202E+04   0.118E+00 -.184E+02 0.202E+04   0.320E-02 0.102E-01 0.572E+01
   0.782E+02 0.183E+01 -.197E+04   -.778E+02 -.182E+01 0.196E+04   -.384E+00 -.805E-02 0.573E+01
   -.153E-01 0.733E+01 0.208E+04   0.153E-01 -.732E+01 -.208E+04   -.280E-04 -.759E-02 -.675E+01
   0.752E+01 0.564E+01 0.209E+04   -.749E+01 -.563E+01 -.208E+04   -.213E-01 -.887E-02 -.676E+01
   -.631E-01 0.821E+01 0.722E+03   0.657E-01 -.820E+01 -.723E+03   -.174E-02 -.363E-02 0.533E+00
   0.113E+02 0.128E+02 0.721E+03   -.113E+02 -.128E+02 -.722E+03   -.162E-01 -.123E-01 0.510E+00
   -.208E+00 0.187E+02 -.647E+03   0.210E+00 -.187E+02 0.647E+03   -.114E-02 -.594E-02 -.757E-01
   0.313E+02 0.180E+02 -.626E+03   -.311E+02 -.180E+02 0.626E+03   -.140E+00 -.361E-01 0.156E-01
   -.943E+00 0.227E+02 -.200E+04   0.944E+00 -.227E+02 0.200E+04   0.378E-04 0.216E-01 0.574E+01
   0.395E+02 0.380E+02 -.200E+04   -.394E+02 -.380E+02 0.200E+04   -.973E-01 -.159E-01 0.572E+01
   0.112E+02 0.148E-01 0.209E+04   -.112E+02 -.151E-01 -.208E+04   -.409E-01 0.459E-04 -.679E+01
   0.563E+01 0.752E+01 0.209E+04   -.562E+01 -.749E+01 -.208E+04   -.907E-02 -.212E-01 -.676E+01
   0.128E+02 0.113E+02 0.721E+03   -.128E+02 -.113E+02 -.722E+03   -.115E-01 -.170E-01 0.506E+00
   0.145E+02 0.559E-01 0.761E+03   -.143E+02 -.516E-01 -.761E+03   -.970E-01 -.295E-02 0.445E+00
   0.557E+02 0.507E+00 -.580E+03   -.552E+02 -.513E+00 0.580E+03   -.475E+00 0.626E-02 -.180E+00
   0.179E+02 0.315E+02 -.625E+03   -.178E+02 -.313E+02 0.625E+03   -.374E-01 -.125E+00 0.148E-02
   0.395E+02 0.401E+02 -.200E+04   -.395E+02 -.400E+02 0.200E+04   -.262E-01 -.108E+00 0.572E+01
   0.130E+03 0.608E+01 -.171E+04   -.130E+03 -.606E+01 0.171E+04   -.352E+00 -.888E-02 0.328E+01
   0.930E+01 0.930E+01 0.209E+04   -.926E+01 -.926E+01 -.208E+04   -.218E-01 -.218E-01 -.676E+01
   0.757E+01 0.758E+01 0.210E+04   -.753E+01 -.754E+01 -.209E+04   -.279E-01 -.281E-01 -.682E+01
   0.194E+02 0.117E+02 0.742E+03   -.192E+02 -.116E+02 -.742E+03   -.808E-01 -.413E-01 0.405E+00
   0.116E+02 0.193E+02 0.742E+03   -.116E+02 -.192E+02 -.742E+03   -.434E-01 -.850E-01 0.414E+00
   0.354E+02 0.350E+02 -.618E+03   -.353E+02 -.349E+02 0.618E+03   -.858E-01 -.958E-01 0.213E-01
   0.387E+02 0.385E+02 -.551E+03   -.382E+02 -.380E+02 0.551E+03   -.385E+00 -.393E+00 -.671E+00
   0.118E+03 0.678E+02 -.192E+04   -.118E+03 -.678E+02 0.191E+04   -.604E+00 -.424E-02 0.578E+01
   0.705E+02 0.119E+03 -.191E+04   -.705E+02 -.118E+03 0.190E+04   0.143E-01 -.485E+00 0.580E+01
   -.119E-01 0.390E-03 0.208E+04   0.120E-01 -.546E-03 -.207E+04   -.505E-04 0.129E-03 -.675E+01
   0.753E+01 -.563E+01 0.209E+04   -.750E+01 0.562E+01 -.208E+04   -.212E-01 0.886E-02 -.676E+01
   0.500E-01 -.821E+01 0.722E+03   -.530E-01 0.820E+01 -.723E+03   0.199E-02 0.304E-02 0.534E+00
   0.772E+01 0.715E-02 0.712E+03   -.771E+01 -.752E-02 -.713E+03   -.351E-02 -.211E-03 0.517E+00
[...]
   -.799E+01 -.495E+01 0.157E+04   0.796E+01 0.493E+01 -.157E+04   0.426E-01 0.237E-01 0.301E+01
   -.385E+01 -.277E-02 0.156E+04   0.385E+01 0.278E-02 -.157E+04   0.942E-02 0.330E-02 0.306E+01
   -.217E+02 -.481E+00 -.153E+04   0.217E+02 0.484E+00 0.154E+04   0.264E-01 0.184E-03 -.442E+01
   -.458E+02 -.254E+02 -.151E+04   0.457E+02 0.253E+02 0.152E+04   0.779E-01 0.627E-01 -.443E+01
   -.342E+02 -.199E+02 -.436E+03   0.339E+02 0.198E+02 0.435E+03   0.276E+00 0.723E-01 0.441E+00
   -.933E+01 -.322E-01 -.486E+03   0.932E+01 0.322E-01 0.485E+03   0.149E-01 -.776E-03 0.280E+00
   -.123E+02 -.123E+02 0.548E+03   0.123E+02 0.122E+02 -.548E+03   0.640E-01 0.630E-01 -.634E-01
   -.661E+01 -.656E+01 0.536E+03   0.659E+01 0.655E+01 -.536E+03   0.193E-01 0.149E-01 -.620E-01
   -.595E+01 -.491E+01 0.157E+04   0.593E+01 0.489E+01 -.157E+04   0.139E-01 0.155E-01 0.305E+01
   -.491E+01 -.593E+01 0.157E+04   0.490E+01 0.592E+01 -.157E+04   0.187E-01 0.112E-01 0.305E+01
   -.538E+02 -.510E+02 -.150E+04   0.537E+02 0.509E+02 0.151E+04   0.140E+00 0.153E+00 -.445E+01
   -.179E+02 -.177E+02 -.154E+04   0.179E+02 0.176E+02 0.154E+04   0.407E-01 0.390E-01 -.443E+01
   -.173E+02 -.163E+02 -.474E+03   0.172E+02 0.163E+02 0.474E+03   0.403E-01 0.520E-01 0.278E+00
   -.163E+02 -.170E+02 -.475E+03   0.163E+02 0.169E+02 0.474E+03   0.449E-01 0.434E-01 0.278E+00
   0.206E-01 -.950E-01 0.301E+02   -.400E-11 -.183E-11 -.637E-11   0.431E-02 0.777E-01 -.278E+02

 POSITION                                       TOTAL-FORCE (eV/Angst)
      8.89445      9.39470     16.97513        -0.084431     -0.266502     -0.210177
      5.38297      6.77108     16.98339         0.264112     -0.087380     -0.208895
      7.99542      3.28671     16.99335         0.100631      0.266435     -0.223361
     11.49204      5.87319     16.98452        -0.269004      0.082160     -0.218925
      8.77412      9.17118     18.04721         0.023477      0.039179     -0.294221
      9.32107      7.58311     16.23258        -0.366297      0.303605     -0.077213
      9.92870      9.71624     16.78069        -0.253194     -0.095131      0.042024
      8.21690     10.20140     16.67653         0.154826     -0.194750      0.073078
      5.61242      6.64403     18.05342        -0.039367      0.026195     -0.293533
      7.18871      7.21531     16.23358        -0.300921     -0.369459     -0.078245
      5.05253      7.80424     16.79867         0.097120     -0.253323      0.037611
      4.58001      6.08952     16.68359         0.193664      0.158328      0.073740
      8.12843      3.52345     18.06120        -0.027053     -0.044833     -0.295637
      7.56001      5.08801     16.23062         0.369138     -0.302265     -0.077325
      6.95861      2.96410     16.81526         0.254362      0.091724      0.034728
      8.66905      2.47565     16.69756        -0.153961      0.194505      0.070536
     11.26294      6.00053     18.05465         0.042397     -0.024523     -0.294068
      9.68355      5.45539     16.23146         0.306910      0.365633     -0.079318
     11.80529      4.83512     16.79702        -0.089647      0.254455      0.039669
     12.30660      6.54233     16.68797        -0.198651     -0.152740      0.071330
      8.57277      8.24017     16.17083         0.514894      0.173553      0.381008
      6.53557      6.46376     16.17100        -0.180440      0.513777      0.388011
      8.30876      4.43075     16.17133        -0.508156     -0.172437      0.384891
     10.34510      6.20042     16.17172         0.169731     -0.512886      0.388059
      0.00000      6.33074      7.50000        -0.000166      0.000053      0.573302
      2.11025      0.00000      7.50000         0.002224      0.002323      0.570424
      0.00000      0.00000      9.61025        -0.000003      0.001257      0.040168
      2.11025      6.33074      9.61025         0.026276     -0.000643      0.053187
     16.88189      6.33080     11.73262         0.000274     -0.000498      0.011218
      2.10980     16.88151     11.73359         0.000971      0.001293      0.010504
     16.88179     16.88053     13.83744         0.000432      0.001246     -0.192236
      2.10885      6.33101     13.83191         0.002754      0.000803     -0.197728
      0.00000      2.11025      7.50000        -0.000040      0.002532      0.570696
      2.11025      4.22049      7.50000         0.007008      0.003125      0.576366
      0.00000      4.22049      9.61025         0.000524      0.001154      0.038125
      2.11025      2.11025      9.61025         0.004841      0.004248      0.041610
     16.88190      2.10960     11.73343         0.000387     -0.000173      0.011316
      2.10984      4.22081     11.73181         0.002544     -0.001034      0.008881
     16.88182      4.21894     13.83697         0.000433     -0.000660     -0.192917
      2.10886      2.10784     13.83671         0.002318      0.000683     -0.196084
      4.22049      6.33074      7.50000         0.013387     -0.000219      0.590901
      6.33074      0.00000      7.50000         0.003118      0.006899      0.575635
      4.22049      0.00000      9.61025         0.003673      0.004978      0.040963
      6.33074      6.33074      9.61025         0.046799      0.001349      0.133726
      4.22780      6.33047     11.73828         0.011489      0.000759      0.011036
      6.33117     16.88172     11.73166        -0.002383      0.002377      0.009993
      4.21835     16.88072     13.83652        -0.000181      0.001951     -0.195965
      6.32489      6.33071     13.90695         0.019184      0.004116     -0.076021
      4.22049      2.11025      7.50000         0.007229      0.007482      0.577116
      6.33074      4.22049      7.50000         0.009211      0.009546      0.600229
      4.22049      4.22049      9.61025         0.037099      0.016914      0.069344
      6.33074      2.11025      9.61025         0.017715      0.039740      0.069904
      4.22051      2.11057     11.73069         0.001102      0.000470      0.008665
      6.33865      4.22965     11.74698         0.010576      0.006903      0.023554
      4.21857      4.21704     13.82258         0.011498     -0.003539     -0.200750
      6.32728      2.10876     13.82125        -0.003184      0.008233     -0.202478
      0.00000     14.77172      7.50000         0.000006     -0.000044      0.568841
      2.11025      8.44098      7.50000         0.006897     -0.003102      0.575338
      0.00000      8.44098      9.61025        -0.000829     -0.000786      0.038172
      2.11025     14.77172      9.61025         0.001438     -0.000162      0.040950
[...]
     14.77172      8.44098      9.61025         0.023531      0.008775      0.062340
     12.66148      8.44098      7.50000         0.014358      0.008012     -0.419606
     14.77172     14.77172      7.50000         0.005334      0.003340     -0.402362
     12.66391     14.77177     13.88792         0.000193      0.002574     -0.122540
     14.77473      8.44414     13.88981         0.001691      0.000107     -0.128747
     12.66806      8.44392     11.72579         0.007272      0.002917      0.023032
     14.77264     14.77167     11.72922        -0.001126     -0.000678      0.019183
     12.66148     10.55123      9.61025         0.022016      0.020460      0.059546
     14.77172     12.66148      9.61025         0.008046      0.005125      0.073473
     12.66148     12.66148      7.50000         0.004573      0.005147     -0.407554
     14.77172     10.55123      7.50000         0.008356      0.001570     -0.405536
     12.66852     10.55887     13.88888         0.003877      0.004411     -0.126585
     14.77424     12.66409     13.88758         0.002788      0.001391     -0.123938
     12.66311     12.66331     11.72916         0.000582      0.001249      0.015330
     14.77366     10.55292     11.72934        -0.001696      0.001345      0.016131
    total drift:                                0.018513     -0.007166     -0.013925

  FREE ENERGIE OF THE ION-ELECTRON SYSTEM (eV)
  free  energy   TOTEN  =     -2039.12167380 eV

  energy  without entropy=    -2039.12167380  energy(sigma->0) =    -2039.12167380