 vasp.6.3.0 20Jan22 (build Mar 11 2022 13:48:16) complex

 executed on             LinuxIFC date 2024.08.21  21:28:26

 INCAR:
   SYSTEM = MgO-rocksalt
   ISMEAR = 0
   SIGMA = 0.05
   EDIFF = 1E-7
   ALGO = Normal
   ISTART = 0
   IBRION = 2
   NSW = 1000
   ISYM = 2
   ISIF = 3
   EDIFFG = -0.005
   GGA = RE
   IVDW = 13
   VDW_S8 = 1.7468
   VDW_A1 = 0.5363
   VDW_A2 = 3.0726
   ENCUT = 600
   PREC = Accurate
   LASPH = .TRUE.
   LREAL = .FALSE.
   ISPIN = 1
   NELM = 200
   NELMIN = 8
   NCORE = 8
   KPAR = 1
   LWAVE = .FALSE.
   LCHARG = .FALSE.

 POTCAR:    PAW_PBE Ti_pv 07Sep2000
 POTCAR:    PAW_PBE O 08Apr2002
|           W    W    AA    RRRRR   N    N  II  N    N   GGGG   !!!           |
|           W    W   A  A   R    R  NN   N  II  NN   N  G    G  !!!           |
|           W    W  A    A  R    R  N N  N  II  N N  N  G       !!!           |
|           W WW W  AAAAAA  RRRRR   N  N N  II  N  N N  G  GGG   !            |
|           WW  WW  A    A  R   R   N   NN  II  N   NN  G    G                |
|           W    W  A    A  R    R  N    N  II  N    N   GGGG   !!!           |
|     For optimal performance we recommend to set                             |
|       NCORE = 2 up to number-of-cores-per-socket                            |
|     This setting can greatly improve the performance of VASP for DFT.       |
|     The default, NCORE=1 might be grossly inefficient on modern             |
|     multi-core architectures or massively parallel machines. Do your        |
|     Unfortunately you need to use the default for GW and RPA                |
|     calculations (for HF NCORE is supported but not extensively tested      |
|     yet).                                                                   |

   TITEL  = PAW_PBE Ti_pv 07Sep2000
   POMASS =   47.880; ZVAL   =   10.000    mass and valenz
   ENMAX  =  222.335; ENMIN  =  166.751 eV

   TITEL  = PAW_PBE O 08Apr2002
   POMASS =   16.000; ZVAL   =    6.000    mass and valenz
   ENMAX  =  400.000; ENMIN  =  300.000 eV

  PAW_PBE Ti_pv 07Sep2000               :
  PAW_PBE O 08Apr2002                   :

 POSCAR: Ti2 O4
  positions in direct lattice
  velocities in cartesian coordinates
|           W    W    AA    RRRRR   N    N  II  N    N   GGGG   !!!           |
|           W    W   A  A   R    R  NN   N  II  NN   N  G    G  !!!           |
|           W    W  A    A  R    R  N N  N  II  N N  N  G       !!!           |
|           W WW W  AAAAAA  RRRRR   N  N N  II  N  N N  G  GGG   !            |
|           WW  WW  A    A  R   R   N   NN  II  N   NN  G    G                |
|           W    W  A    A  R    R  N    N  II  N    N   GGGG   !!!           |
|     Specifying the vdW parameters                                           |
|     VDW_S8 = 1.747                                                          |
|     VDW_A1 = 0.536                                                          |
|     VDW_A2 = 3.073                                                          |
|     in the INCAR file will overwrite the defaults for revpbe. Please        |
|     make sure that is what you intended.                                    |

 ion  position               nearest neighbor table
   1  0.500  0.500  0.000-   6 1.95   3 1.95   3 1.95   6 1.95   5 1.98   4 1.98
   2  0.000  0.000  0.500-   4 1.95   5 1.95   4 1.95   5 1.95   3 1.98   6 1.98
   3  0.696  0.696  0.500-   1 1.95   1 1.95   2 1.98
   4  0.196  0.804  0.000-   2 1.95   2 1.95   1 1.98
   5  0.804  0.196  0.000-   2 1.95   2 1.95   1 1.98
   6  0.304  0.304  0.500-   1 1.95   1 1.95   2 1.98

  LATTYP: Found a simple tetragonal cell.
 ALAT       =     4.5975951884
 C/A-ratio  =     0.6432885968

  Lattice vectors:

 A1 = (   4.5975951884,   0.0000000000,   0.0000000000)
 A2 = (   0.0000000000,   4.5975951884,   0.0000000000)
 A3 = (   0.0000000000,   0.0000000000,   2.9575805574)

Analysis of symmetry for initial positions (statically):
 Subroutine PRICEL returns:
 Original cell was already a primitive cell.

 Routine SETGRP: Setting up the symmetry group for a
 simple tetragonal supercell.

 Subroutine GETGRP returns: Found 16 space group operations
 (whereof  8 operations were pure point group operations)
 out of a pool of 16 trial point group operations.

The static configuration has the point symmetry D_2h.
 The point group associated with its full space group is D_4h.

Analysis of symmetry for dynamics (positions and initial velocities):
 Subroutine PRICEL returns:
 Original cell was already a primitive cell.

 Routine SETGRP: Setting up the symmetry group for a
 simple tetragonal supercell.

 Subroutine GETGRP returns: Found 16 space group operations
 (whereof  8 operations were pure point group operations)
 out of a pool of 16 trial point group operations.

The dynamic configuration has the point symmetry D_2h.
 The point group associated with its full space group is D_4h.

 Subroutine INISYM returns: Found 16 space group operations
 (whereof  8 operations are pure point group operations),
 and found     1 'primitive' translations

                                     Primitive cell

  volume of cell :      62.5170

  direct lattice vectors                    reciprocal lattice vectors
     4.597595188  0.000000000  0.000000000     0.217505013 -0.000000000  0.000000000
     0.000000000  4.597595188  0.000000000     0.000000000  0.217505013  0.000000000
     0.000000000  0.000000000  2.957580557    -0.000000000 -0.000000000  0.338114205

  length of vectors
     4.597595188  4.597595188  2.957580557     0.217505013  0.217505013  0.338114205

  position of ions in fractional coordinates (direct lattice)
     0.500000000  0.500000000  0.000000000
     0.000000000  0.000000000  0.500000000
     0.695998995  0.695998995  0.500000000
     0.195998995  0.804001005  0.000000000
     0.804001005  0.195998995  0.000000000
     0.304001005  0.304001005  0.500000000

  ion indices of the primitive-cell ions
   primitive index   ion index
                 1           1
                 2           2
                 3           3
                 4           4
                 5           5
                 6           6

 KPOINTS: pymatgen v2020.8.13 with grid density =

Automatic generation of k-mesh.
 Grid dimensions read from file:
 generate k-points for:    5    5    8

 Generating k-lattice:

  Cartesian coordinates                     Fractional coordinates (reciprocal lattice)
     0.043501003 -0.000000000  0.000000000     0.200000000  0.000000000  0.000000000
     0.000000000  0.043501003  0.000000000     0.000000000  0.200000000  0.000000000
    -0.000000000 -0.000000000  0.042264276     0.000000000  0.000000000  0.125000000

  Length of vectors
     0.043501003  0.043501003  0.042264276

  Shift w.r.t. Gamma in fractional coordinates (k-lattice)
     0.000000000  0.000000000  0.000000000

 Subroutine IBZKPT returns following result:

 Found     30 irreducible k-points:

 Following reciprocal coordinates:
            Coordinates               Weight
  0.000000  0.000000  0.000000      1.000000
  0.200000  0.000000  0.000000      4.000000
  0.400000  0.000000  0.000000      4.000000
  0.200000  0.200000  0.000000      4.000000
  0.400000  0.200000  0.000000      8.000000
  0.400000  0.400000  0.000000      4.000000
  0.000000  0.000000  0.125000      2.000000
  0.200000  0.000000  0.125000      8.000000
  0.400000  0.000000  0.125000      8.000000
  0.200000  0.200000  0.125000      8.000000
  0.400000  0.200000  0.125000     16.000000
  0.400000  0.400000  0.125000      8.000000
  0.000000  0.000000  0.250000      2.000000
  0.200000  0.000000  0.250000      8.000000
  0.400000  0.000000  0.250000      8.000000
  0.200000  0.200000  0.250000      8.000000
  0.400000  0.200000  0.250000     16.000000
  0.400000  0.400000  0.250000      8.000000
  0.000000  0.000000  0.375000      2.000000
  0.200000 -0.000000  0.375000      8.000000
  0.400000  0.000000  0.375000      8.000000
  0.200000  0.200000  0.375000      8.000000
  0.400000  0.200000  0.375000     16.000000
  0.400000  0.400000  0.375000      8.000000
  0.000000  0.000000  0.500000      1.000000
  0.200000  0.000000  0.500000      4.000000
  0.400000  0.000000  0.500000      4.000000
  0.200000  0.200000  0.500000      4.000000
  0.400000  0.200000  0.500000      8.000000
  0.400000  0.400000  0.500000      4.000000

 Following cartesian coordinates:
            Coordinates               Weight
  0.000000  0.000000  0.000000      1.000000
  0.043501 -0.000000  0.000000      4.000000
  0.087002 -0.000000  0.000000      4.000000
  0.043501  0.043501  0.000000      4.000000
  0.087002  0.043501  0.000000      8.000000
  0.087002  0.087002  0.000000      4.000000
 -0.000000 -0.000000  0.042264      2.000000
  0.043501 -0.000000  0.042264      8.000000
  0.087002 -0.000000  0.042264      8.000000
  0.043501  0.043501  0.042264      8.000000
  0.087002  0.043501  0.042264     16.000000
  0.087002  0.087002  0.042264      8.000000
 -0.000000 -0.000000  0.084529      2.000000
  0.043501 -0.000000  0.084529      8.000000
  0.087002 -0.000000  0.084529      8.000000
  0.043501  0.043501  0.084529      8.000000
  0.087002  0.043501  0.084529     16.000000
  0.087002  0.087002  0.084529      8.000000
 -0.000000 -0.000000  0.126793      2.000000
  0.043501 -0.000000  0.126793      8.000000
  0.087002 -0.000000  0.126793      8.000000
  0.043501  0.043501  0.126793      8.000000
  0.087002  0.043501  0.126793     16.000000
  0.087002  0.087002  0.126793      8.000000
 -0.000000 -0.000000  0.169057      1.000000
  0.043501 -0.000000  0.169057      4.000000
  0.087002 -0.000000  0.169057      4.000000
  0.043501  0.043501  0.169057      4.000000
  0.087002  0.043501  0.169057      8.000000
  0.087002  0.087002  0.169057      4.000000

 SYSTEM =  MgO-rocksalt
 POSCAR =  Ti2 O4

  energy-cutoff  :      600.00
  volume of cell :       62.52
      direct lattice vectors                 reciprocal lattice vectors
     4.597595188  0.000000000  0.000000000     0.217505013 -0.000000000  0.000000000
     0.000000000  4.597595188  0.000000000     0.000000000  0.217505013  0.000000000
     0.000000000  0.000000000  2.957580557    -0.000000000 -0.000000000  0.338114205

[...]

 k-points in units of 2pi/SCALE and weight: pymatgen v2020.8.13 with grid density =
   0.00000000  0.00000000  0.00000000       0.005
   0.04350100 -0.00000000  0.00000000       0.020
   0.08700201 -0.00000000  0.00000000       0.020
   0.04350100  0.04350100  0.00000000       0.020
   0.08700201  0.04350100  0.00000000       0.040
   0.08700201  0.08700201  0.00000000       0.020
  -0.00000000 -0.00000000  0.04226428       0.010
   0.04350100 -0.00000000  0.04226428       0.040
   0.08700201 -0.00000000  0.04226428       0.040
   0.04350100  0.04350100  0.04226428       0.040
   0.08700201  0.04350100  0.04226428       0.080
   0.08700201  0.08700201  0.04226428       0.040
  -0.00000000 -0.00000000  0.08452855       0.010
   0.04350100 -0.00000000  0.08452855       0.040
   0.08700201 -0.00000000  0.08452855       0.040
   0.04350100  0.04350100  0.08452855       0.040
   0.08700201  0.04350100  0.08452855       0.080
   0.08700201  0.08700201  0.08452855       0.040
  -0.00000000 -0.00000000  0.12679283       0.010
   0.04350100 -0.00000000  0.12679283       0.040
   0.08700201 -0.00000000  0.12679283       0.040
   0.04350100  0.04350100  0.12679283       0.040
   0.08700201  0.04350100  0.12679283       0.080
   0.08700201  0.08700201  0.12679283       0.040
  -0.00000000 -0.00000000  0.16905710       0.005
   0.04350100 -0.00000000  0.16905710       0.020
   0.08700201 -0.00000000  0.16905710       0.020
   0.04350100  0.04350100  0.16905710       0.020
   0.08700201  0.04350100  0.16905710       0.040
   0.08700201  0.08700201  0.16905710       0.020

 k-points in reciprocal lattice and weights: pymatgen v2020.8.13 with grid density =
   0.00000000  0.00000000  0.00000000       0.005
   0.20000000  0.00000000  0.00000000       0.020
   0.40000000  0.00000000  0.00000000       0.020
   0.20000000  0.20000000  0.00000000       0.020
   0.40000000  0.20000000  0.00000000       0.040
   0.40000000  0.40000000  0.00000000       0.020
   0.00000000  0.00000000  0.12500000       0.010
   0.20000000  0.00000000  0.12500000       0.040
   0.40000000  0.00000000  0.12500000       0.040
   0.20000000  0.20000000  0.12500000       0.040
   0.40000000  0.20000000  0.12500000       0.080
   0.40000000  0.40000000  0.12500000       0.040
   0.00000000  0.00000000  0.25000000       0.010
   0.20000000  0.00000000  0.25000000       0.040
   0.40000000  0.00000000  0.25000000       0.040
   0.20000000  0.20000000  0.25000000       0.040
   0.40000000  0.20000000  0.25000000       0.080
   0.40000000  0.40000000  0.25000000       0.040
   0.00000000  0.00000000  0.37500000       0.010
   0.20000000 -0.00000000  0.37500000       0.040
   0.40000000  0.00000000  0.37500000       0.040
   0.20000000  0.20000000  0.37500000       0.040
   0.40000000  0.20000000  0.37500000       0.080
   0.40000000  0.40000000  0.37500000       0.040
   0.00000000  0.00000000  0.50000000       0.005
   0.20000000  0.00000000  0.50000000       0.020
   0.40000000  0.00000000  0.50000000       0.020
   0.20000000  0.20000000  0.50000000       0.020
   0.40000000  0.20000000  0.50000000       0.040
   0.40000000  0.40000000  0.50000000       0.020

 position of ions in fractional coordinates (direct lattice)
   0.50000000  0.50000000  0.00000000
   0.00000000  0.00000000  0.50000000
   0.69599899  0.69599899  0.50000000
   0.19599899  0.80400101  0.00000000
   0.80400101  0.19599899  0.00000000
   0.30400101  0.30400101  0.50000000

 position of ions in cartesian coordinates  (Angst):
   2.29879759  2.29879759  0.00000000
   0.00000000  0.00000000  1.47879028
   3.19992163  3.19992163  1.47879028
   0.90112403  3.69647115  0.00000000
   3.69647115  0.90112403  0.00000000
   1.39767356  1.39767356  1.47879028

--------------------------------------- Iteration      FINAL  ---------------------------------------

--------------------OUTCAR has been truncated-------------------------

[...]

--------------------OUTCAR has been truncated-------------------------

  FORCE on cell =-STRESS in cart. coord.  units (eV):
  Direction    XX          YY          ZZ          XY          YZ          ZX
  Alpha Z   218.70189   218.70189   218.70189
  Ewald   -1119.21127 -1119.21127  -696.86622    -0.00000     0.00000    -0.00000
  Hartree   216.39054   216.39054   437.41188    -0.00000    -0.00000    -0.00000
  E(xc)    -215.71982  -215.71982  -215.06343     0.00000    -0.00000     0.00000
  Local     188.28933   188.28933  -444.47465     0.00000     0.00000     0.00000
  n-local  -132.74200  -133.79787  -131.27426     0.06330     0.13036    -0.01035
  augment   130.93178   130.93178   129.97912    -0.00000    -0.00000    -0.00000
  Kinetic   717.98771   717.07749   705.21960    -1.15664    -0.72197    -1.46961
  Fock        0.00000     0.00000     0.00000     0.00000     0.00000     0.00000
  vdW        -3.64331    -3.64331    -3.62498    -0.00000     0.00000     0.00000
  Total       0.00179     0.00179     0.00894     0.00000     0.00000     0.00000
  in kB       0.04592     0.04592     0.22913     0.00000     0.00000     0.00000

 VOLUME and BASIS-vectors are now :
  energy-cutoff  :      600.00
  volume of cell :       62.52
      direct lattice vectors                 reciprocal lattice vectors
     4.597595188  0.000000000  0.000000000     0.217505013 -0.000000000  0.000000000
     0.000000000  4.597595188  0.000000000     0.000000000  0.217505013  0.000000000
     0.000000000  0.000000000  2.957580557    -0.000000000 -0.000000000  0.338114205

  length of vectors
     4.597595188  4.597595188  2.957580557     0.217505013  0.217505013  0.338114205

 FORCES acting on ions
    electron-ion (+dipol)            ewald-force                    non-local-force                 convergence-correction
   -.829E-12 -.108E-11 -.214E-11   -.853E-13 -.114E-12 0.109E-13   0.444E-26 -.101E-25 -.256E-26   -.494E-13 -.597E-13 0.157E-13
   0.758E-14 0.661E-14 0.443E-12   -.995E-13 -.711E-13 0.204E-14   -.363E-25 0.113E-25 0.593E-27   -.514E-13 -.225E-13 0.440E-13
   -.364E+02 -.364E+02 0.328E-06   0.394E+02 0.394E+02 -.211E-13   -.305E+01 -.305E+01 -.400E-15   0.400E-04 0.400E-04 0.447E-13
   -.364E+02 0.364E+02 0.217E-11   0.394E+02 -.394E+02 0.926E-14   -.305E+01 0.305E+01 -.160E-17   0.400E-04 -.400E-04 0.188E-13
   0.364E+02 -.364E+02 0.689E-11   -.394E+02 0.394E+02 -.136E-13   0.305E+01 -.305E+01 -.932E-18   -.400E-04 0.400E-04 0.310E-13
   0.364E+02 0.364E+02 -.328E-06   -.394E+02 -.394E+02 0.658E-14   0.305E+01 0.305E+01 0.404E-15   -.400E-04 -.400E-04 0.880E-14
   0.773E-12 0.214E-11 -.126E-13   -.142E-13 0.284E-13 -.594E-14   0.444E-15 0.000E+00 0.127E-17   -.151E-12 -.127E-12 0.163E-12

 POSITION                                       TOTAL-FORCE (eV/Angst)
      2.29880      2.29880      0.00000         0.000000      0.000000      0.000000
      0.00000      0.00000      1.47879         0.000000      0.000000      0.000000
      3.19992      3.19992      1.47879         0.000372      0.000372      0.000000
      0.90112      3.69647      0.00000         0.000372     -0.000372     -0.000000
      3.69647      0.90112      0.00000        -0.000372      0.000372     -0.000000
      1.39767      1.39767      1.47879        -0.000372     -0.000372     -0.000000
    total drift:                                0.000000      0.000000      0.000000

  FREE ENERGIE OF THE ION-ELECTRON SYSTEM (eV)
  free  energy   TOTEN  =       -53.77312777 eV

  energy  without entropy=      -53.77312777  energy(sigma->0) =      -53.77312777

 reached required accuracy - stopping structural energy minimisation