 vasp.6.3.0 20Jan22 (build Apr  1 2022 16:44:48) complex
 executed on        HPECrayEX_GCC date 2023.03.11  19:33:09

 INCAR:
   SYSTEM = MgO-rocksalt
   ISMEAR = 0
   SIGMA = 0.05
   EDIFF = 1E-6
   ALGO = ALL
   ISTART = 0
   IBRION = -1
   NSW = 0
   ISYM = 0
   DIPOL = 0.5 0.5 0.5
   IDIPOL = 3
   LDIPOL = .TRUE.
   GGA = RE
   AGGAC = 0.0
   LUSE_VDW = .TRUE.
   LASPH = .TRUE.
   ENCUT = 600
   PREC = Accurate
   LASPH = .TRUE.
   LREAL = .FALSE.
   ISPIN = 1
   NELM = 200
   NELMIN = 8
   NCORE = 8
   KPAR = 1
   LWAVE = .FALSE.
   LCHARG = .FALSE.

 POTCAR:    PAW_PBE Mg_pv 13Apr2007
 POTCAR:    PAW_PBE O 08Apr2002
|               ----> ADVICE to this user running VASP <----                  |
|     You have switched on vdW-DFT.                                           |
|     This routine was written and supplied by Jiri Klimes. We recommend      |
|     that you carefully read and cite the following publications:            |
|       J. Klimes, D.R. Bowler, A. Michelides                                 |
|          J. Phys.: Cond Matt. 22 022201 (2010)                              |
|       J. Klimes, D.R. Bowler, A. Michelides                                 |
|          Phys. Rev. B. 83, 195131 (2011)                                    |
|     and references therein.                                                 |

   TITEL  = PAW_PBE Mg_pv 13Apr2007
   POMASS =   24.305; ZVAL   =    8.000    mass and valenz
   ENMAX  =  403.929; ENMIN  =  302.947 eV

   TITEL  = PAW_PBE O 08Apr2002
   POMASS =   16.000; ZVAL   =    6.000    mass and valenz
   ENMAX  =  400.000; ENMIN  =  300.000 eV

  PAW_PBE Mg_pv 13Apr2007               :
  PAW_PBE O 08Apr2002                   :

 POSCAR: Mg  O
  positions in direct lattice
 exchange correlation table for  LEXCH =       40
   RHO(1)=    0.500       N(1)  =     2000
   RHO(2)=  100.500       N(2)  =     4000

 ion  position               nearest neighbor table
   1  0.250  0.000  0.353-  35 2.09  36 2.09  43 2.09  52 2.09  33 2.09
   2  0.500  0.250  0.353-  35 2.09  36 2.09  44 2.09  51 2.09  34 2.09
   3  0.250  0.250  0.451-  33 2.09  34 2.09  41 2.09  50 2.09  35 2.09  39 2.09
   4  0.500  0.000  0.451-  33 2.09  34 2.09  42 2.09  49 2.09  36 2.09  40 2.09
   5  0.250  1.000  0.550-  56 2.09  40 2.09  47 2.09  39 2.09  33 2.10  37 2.13
   6  0.500  0.250  0.550-  40 2.09  55 2.09  39 2.09  48 2.09  34 2.10  38 2.12
   7  0.250  0.250  0.647-  39 2.08  54 2.09  37 2.09  45 2.09  38 2.09
   8  0.500  0.000  0.647-  40 2.08  38 2.09  53 2.09  37 2.09  46 2.09
   9  0.250  0.500  0.353-  35 2.09  43 2.09  44 2.09  60 2.09  41 2.09
  10  0.500  0.750  0.353-  36 2.09  43 2.09  44 2.09  59 2.09  42 2.09
  11  0.250  0.750  0.451-  33 2.09  41 2.09  42 2.09  58 2.09  43 2.09  47 2.09
  12  0.500  0.500  0.451-  34 2.09  41 2.09  42 2.09  57 2.09  44 2.09  48 2.09
  13  0.250  0.500  0.550-  64 2.09  47 2.09  39 2.09  48 2.09  41 2.10  45 2.12
  14  0.500  0.750  0.550-  63 2.08  40 2.09  48 2.09  47 2.09  42 2.10  46 2.13
  15  0.250  0.750  0.647-  62 2.08  47 2.08  46 2.09  45 2.09  37 2.09
  16  0.499  0.499  0.647-  48 2.07  45 2.08  38 2.08  61 2.09  46 2.09
  17  0.750  0.000  0.353-  36 2.09  51 2.09  52 2.09  59 2.09  49 2.09
  18  0.000  0.250  0.353-  35 2.09  51 2.09  52 2.09  60 2.09  50 2.09
  19  0.750  0.250  0.451-  34 2.09  49 2.09  50 2.09  57 2.09  51 2.09  55 2.09
  20  0.000  0.000  0.451-  33 2.09  49 2.09  50 2.09  58 2.09  52 2.09  56 2.09
  21  0.750  1.000  0.550-  63 2.09  56 2.09  40 2.09  55 2.09  49 2.10  53 2.11
  22  1.000  0.250  0.550-  56 2.09  64 2.09  55 2.09  39 2.09  50 2.10  54 2.13
  23  0.750  0.250  0.647-  53 2.08  55 2.08  61 2.09  38 2.09  54 2.09
  24  0.000  0.000  0.647-  56 2.08  53 2.09  62 2.09  54 2.09  37 2.09
  25  0.750  0.500  0.353-  44 2.09  51 2.09  59 2.09  60 2.09  57 2.09
  26  0.000  0.750  0.353-  43 2.09  52 2.09  59 2.09  60 2.09  58 2.09
  27  0.750  0.750  0.451-  42 2.09  49 2.09  57 2.09  58 2.09  59 2.09  63 2.10
  28  0.000  0.500  0.451-  41 2.09  50 2.09  57 2.09  58 2.09  60 2.09  64 2.10
  29  0.750  0.500  0.550-  63 2.08  64 2.09  48 2.09  55 2.09  57 2.10  61 2.13
  30  1.000  0.750  0.550-  63 2.09  56 2.09  64 2.09  47 2.09  58 2.10  62 2.12
  31  0.751  0.751  0.649-  62 2.08  53 2.08  61 2.10  46 2.10  63 2.10
  32  1.000  0.500  0.647-  64 2.08  45 2.09  62 2.09  54 2.09  61 2.09
  33  0.250  0.000  0.451-   3 2.09   4 2.09  11 2.09  20 2.09   1 2.09   5 2.10
  34  0.500  0.250  0.451-   3 2.09   4 2.09  12 2.09  19 2.09   2 2.09   6 2.10
  35  0.250  0.250  0.353-   1 2.09   2 2.09   9 2.09  18 2.09   3 2.09
  36  0.500  0.000  0.353-   1 2.09   2 2.09  10 2.09  17 2.09   4 2.09
  37  0.250  1.000  0.650-   7 2.09   8 2.09  24 2.09  15 2.09   5 2.13
  38  0.500  0.250  0.649-  16 2.08   8 2.09   7 2.09  23 2.09   6 2.12
  39  0.250  0.250  0.549-   7 2.08   5 2.09  22 2.09   6 2.09  13 2.09   3 2.09
  40  0.500  1.000  0.549-   8 2.08  14 2.09   6 2.09   5 2.09  21 2.09   4 2.09
  41  0.250  0.500  0.451-   3 2.09  11 2.09  12 2.09  28 2.09   9 2.09  13 2.10
  42  0.500  0.750  0.451-   4 2.09  11 2.09  12 2.09  27 2.09  10 2.09  14 2.10
  43  0.250  0.750  0.353-   1 2.09   9 2.09  10 2.09  26 2.09  11 2.09
  44  0.500  0.500  0.353-   2 2.09   9 2.09  10 2.09  25 2.09  12 2.09
  45  0.250  0.500  0.649-  16 2.08  32 2.09   7 2.09  15 2.09  13 2.12
  46  0.499  0.750  0.650-  15 2.09   8 2.09  16 2.09  31 2.10  14 2.13
  47  0.250  0.750  0.549-  15 2.08   5 2.09  13 2.09  14 2.09  30 2.09  11 2.09
  48  0.500  0.500  0.549-  16 2.07  29 2.09  14 2.09   6 2.09  13 2.09  12 2.09
  49  0.750  0.000  0.451-   4 2.09  19 2.09  20 2.09  27 2.09  17 2.09  21 2.10
  50  0.000  0.250  0.451-   3 2.09  19 2.09  20 2.09  28 2.09  18 2.09  22 2.10
  51  0.750  0.250  0.353-   2 2.09  17 2.09  18 2.09  25 2.09  19 2.09
  52  0.000  0.000  0.353-   1 2.09  17 2.09  18 2.09  26 2.09  20 2.09
  53  0.750  0.001  0.649-  23 2.08  31 2.08   8 2.09  24 2.09  21 2.11
  54  1.000  0.250  0.650-   7 2.09  32 2.09  24 2.09  23 2.09  22 2.13
  55  0.750  0.250  0.549-  23 2.08  22 2.09   6 2.09  29 2.09  21 2.09  19 2.09
  56  0.000  0.000  0.549-  24 2.08   5 2.09  22 2.09  21 2.09  30 2.09  20 2.09
  57  0.750  0.500  0.451-  12 2.09  19 2.09  27 2.09  28 2.09  25 2.09  29 2.10
  58  0.000  0.750  0.451-  11 2.09  20 2.09  27 2.09  28 2.09  26 2.09  30 2.10
  59  0.750  0.750  0.353-  10 2.09  17 2.09  25 2.09  26 2.09  27 2.09
  60  0.000  0.500  0.353-   9 2.09  18 2.09  25 2.09  26 2.09  28 2.09
  61  0.749  0.500  0.650-  23 2.09  32 2.09  16 2.09  31 2.10  29 2.13
  62  0.001  0.750  0.649-  15 2.08  31 2.08  32 2.09  24 2.09  30 2.12
  63  0.750  0.750  0.550-  29 2.08  14 2.08  30 2.09  21 2.09  27 2.10  31 2.10
  64  1.000  0.500  0.549-  32 2.08  29 2.09  22 2.09  13 2.09  30 2.09  28 2.10

IMPORTANT INFORMATION: All symmetrisations will be switched off!
NOSYMM: (Re-)initialisation of all symmetry stuff for point group C_1.

                                     Primitive cell

  volume of cell :    1482.1129

  direct lattice vectors                    reciprocal lattice vectors
     8.349111827  0.000000000  0.000000000     0.119773219  0.000000000  0.000000000
     0.000000000  8.349111827  0.000000000     0.000000000  0.119773219  0.000000000
     0.000000000  0.000000000 21.261833870     0.000000000  0.000000000  0.047032632

  length of vectors
     8.349111827  8.349111827 21.261833870     0.119773219  0.119773219  0.047032632

  position of ions in fractional coordinates (direct lattice)
     0.250000000  0.000000000  0.352744737
     0.500000000  0.250000000  0.352744737
     0.250000000  0.250000000  0.450914912
     0.500000000  0.000000000  0.450914912
     0.249956618  0.999917683  0.549719934
     0.499906087  0.249737929  0.549648628
     0.249750995  0.249869825  0.647449302
     0.500057524  0.000084119  0.647268726
     0.250000000  0.500000000  0.352744737
     0.500000000  0.750000000  0.352744737
     0.250000000  0.750000000  0.450914912
     0.500000000  0.500000000  0.450914912
     0.249657779  0.499960743  0.549654158
     0.500293006  0.749966248  0.549891251
     0.249667345  0.749875063  0.647264433
     0.498717503  0.498823802  0.646785371
     0.750000000  0.000000000  0.352744737
     0.000000000  0.250000000  0.352744737
     0.750000000  0.250000000  0.450914912
     0.000000000  0.000000000  0.450914912
     0.750044377  0.999834442  0.549822684
     0.999857657  0.250025246  0.549726751
     0.749792815  0.249808845  0.647282851
     0.000014752  0.000120968  0.647347047
     0.750000000  0.500000000  0.352744737
     0.000000000  0.750000000  0.352744737
     0.750000000  0.750000000  0.450914912
     0.000000000  0.500000000  0.450914912
     0.749895413  0.500359104  0.549896405
     0.999762014  0.750081117  0.549825689
     0.751041761  0.751134064  0.648702733
     0.999929029  0.500144026  0.647329554
     0.250000000  0.000000000  0.450914912
     0.500000000  0.250000000  0.450914912
     0.250000000  0.250000000  0.352744737
     0.500000000  0.000000000  0.352744737
     0.250063111  0.999977639  0.649696453
     0.499695620  0.249769248  0.649388340
     0.249873835  0.249922002  0.549425717
     0.499908622  0.999790121  0.549444574
     0.250000000  0.500000000  0.450914912
     0.500000000  0.750000000  0.450914912
     0.250000000  0.750000000  0.352744737
     0.500000000  0.500000000  0.352744737
     0.249663079  0.499801460  0.649352356
     0.499474078  0.749541395  0.650096874
     0.250156310  0.749962764  0.549410349
     0.499899378  0.499957645  0.549403274
     0.750000000  0.000000000  0.450914912
     0.000000000  0.250000000  0.450914912
     0.750000000  0.250000000  0.352744737
     0.000000000  0.000000000  0.352744737
     0.749977627  0.000738255  0.649268103
     0.999881210  0.250156175  0.649692711
     0.749898152  0.250243389  0.549415897
     0.000086346  0.000130487  0.549416183
     0.750000000  0.500000000  0.450914912
     0.000000000  0.750000000  0.450914912
     0.750000000  0.750000000  0.352744737
     0.000000000  0.500000000  0.352744737
     0.749311190  0.499644086  0.650154291
     0.000593472  0.750073265  0.649312854
     0.749863384  0.749916238  0.549745486
     0.999698067  0.499968468  0.549461933

  ion indices of the primitive-cell ions
   primitive index   ion index
                 1           1
                 2           2
                 3           3
                 4           4
                 5           5
                 6           6
                 7           7
                 8           8
                 9           9
                10          10
                11          11
                12          12
                13          13
                14          14
                15          15
                16          16
                17          17
                18          18
                19          19
                20          20
                21          21
                22          22
                23          23
                24          24
                25          25
                26          26
[...]
   0.75000000  0.50000000  0.45091491
   0.00000000  0.75000000  0.45091491
   0.75000000  0.75000000  0.35274474
   0.00000000  0.50000000  0.35274474
   0.74931119  0.49964409  0.65015429
   0.00059347  0.75007327  0.64931285
   0.74986338  0.74991624  0.54974549
   0.99969807  0.49996847  0.54946193

 position of ions in cartesian coordinates  (Angst):
   2.08727796  0.00000000  7.50000000
   4.17455591  2.08727796  7.50000000
   2.08727796  2.08727796  9.58727796
   4.17455591  0.00000000  9.58727796
   2.08691576  8.34842455 11.68805391
   4.17377182  2.08508990 11.68653782
   2.08519898  2.08619111 13.76595951
   4.17503619  0.00070232 13.76212012
   2.08727796  4.17455591  7.50000000
   4.17455591  6.26183387  7.50000000
   2.08727796  6.26183387  9.58727796
   4.17455591  4.17455591  9.58727796
   2.08442071  4.17422815 11.68665539
   4.17700226  6.26155207 11.69169642
   2.08450058  6.26079075 13.76202885
   4.16384821  4.16473570 13.75184311
   6.26183387  0.00000000  7.50000000
   0.00000000  2.08727796  7.50000000
   6.26183387  2.08727796  9.58727796
   0.00000000  0.00000000  9.58727796
   6.26220438  8.34772956 11.69023856
   8.34792339  2.08748873 11.68819886
   6.26010406  2.08568198 13.76242044
   0.00012317  0.00100997 13.76378536
   6.26183387  4.17455591  7.50000000
   0.00000000  6.26183387  7.50000000
   6.26183387  6.26183387  9.58727796
   0.00000000  4.17455591  9.58727796
   6.26096066  4.17755411 11.69180602
   8.34712485  6.26251112 11.69030246
   6.27053165  6.27130230 13.79260973
   8.34851928  4.17575840 13.76341345
   2.08727796  0.00000000  9.58727796
   4.17455591  2.08727796  9.58727796
   2.08727796  2.08727796  7.50000000
   4.17455591  0.00000000  7.50000000
   2.08780487  8.34892514 13.81373805
   4.17201461  2.08535138 13.80718701
   2.08622459  2.08662675 11.68179831
   4.17379299  8.34735952 11.68219926
   2.08727796  4.17455591  9.58727796
   4.17455591  6.26183387  9.58727796
   2.08727796  6.26183387  7.50000000
   4.17455591  4.17455591  7.50000000
   2.08446497  4.17289828 13.80642191
   4.17016493  6.25800492 13.82225174
   2.08858300  6.26152298 11.68147156
   4.17371581  4.17420229 11.68132113
   6.26183387  0.00000000  9.58727796
   0.00000000  2.08727796  9.58727796
   6.26183387  2.08727796  7.50000000
   0.00000000  0.00000000  7.50000000
   6.26164707  0.00616378 13.80463054
   8.34812004  2.08858188 13.81365849
   6.26098353  2.08931004 11.68158952
   0.00072091  0.00108945 11.68159560
   6.26183387  4.17455591  9.58727796
   0.00000000  6.26183387  9.58727796
   6.26183387  6.26183387  7.50000000
   0.00000000  4.17455591  7.50000000
   6.25608292  4.17158434 13.82347253
   0.00495497  6.26244557 13.80558204
   6.26069325  6.26113454 11.68859719
   8.34659095  4.17429265 11.68256833

--------------------------------------- Iteration      FINAL  ---------------------------------------

--------------------OUTCAR has been truncated-------------------------

[...]

--------------------OUTCAR has been truncated-------------------------

  FORCE on cell =-STRESS in cart. coord.  units (eV):
  Direction    XX          YY          ZZ          XY          YZ          ZX
  Alpha Z   897.52708   897.52708   897.52708
  Ewald  166052.91175166052.90691************    -0.08771    -0.20278    -0.58846
  Hartree176021.11817176021.11599************    -0.05834    -0.10798    -0.32379
  E(xc)   -2526.60137 -2526.60138 -2529.38913    -0.00015    -0.00038    -0.00138
  Local  ************************352634.05029     0.14709     0.30708     0.91004
  n-local -2811.17722 -2811.17732 -2831.26470    -0.00083    -0.00403    -0.01730
  augment  1076.88159  1076.88138  1067.80093    -0.00075    -0.00048    -0.00304
  Kinetic  7348.46310  7348.46333  7379.58454    -0.00006     0.02158     0.10461
  Fock        0.00000     0.00000     0.00000     0.00000     0.00000     0.00000
  Total      11.73492    11.73454    28.45782    -0.00075     0.01301     0.08067
  in kB      12.68555    12.68515    30.76316    -0.00081     0.01407     0.08720

 VOLUME and BASIS-vectors are now :
  energy-cutoff  :      600.00
  volume of cell :     1482.11
      direct lattice vectors                 reciprocal lattice vectors
     8.349111827  0.000000000  0.000000000     0.119773219  0.000000000  0.000000000
     0.000000000  8.349111827  0.000000000     0.000000000  0.119773219  0.000000000
     0.000000000  0.000000000 21.261833870     0.000000000  0.000000000  0.047032632

  length of vectors
     8.349111827  8.349111827 21.261833870     0.119773219  0.119773219  0.047032632

 FORCES acting on ions:
    Electron-Ion                     Ewald-Force                    Non-Local-Force
   -.682E-02 0.801E-01 0.212E+04   0.740E-02 -.813E-01 -.212E+04   -.414E-03 0.855E-03 -.652E+01
   -.821E-01 -.109E-01 0.212E+04   0.829E-01 0.106E-01 -.212E+04   -.550E-03 0.133E-03 -.651E+01
   0.440E-01 0.107E-01 0.703E+03   -.609E-01 -.259E-01 -.703E+03   0.119E-01 0.109E-01 0.443E+00
   -.382E+00 0.483E+00 0.702E+03   0.378E+00 -.521E+00 -.703E+03   0.324E-02 0.265E-01 0.462E+00
   -.220E+00 0.373E+00 -.709E+03   0.220E+00 -.367E+00 0.709E+03   0.379E-02 -.221E-02 -.167E+00
   -.416E+00 -.625E-01 -.707E+03   0.414E+00 0.409E-01 0.707E+03   -.152E-03 0.273E-01 -.218E+00
   0.311E+00 0.349E+00 -.211E+04   -.350E+00 -.396E+00 0.210E+04   0.305E-01 0.352E-01 0.546E+01
   -.265E-01 0.220E+01 -.211E+04   -.147E+00 -.218E+01 0.210E+04   0.125E+00 -.501E-01 0.544E+01
   -.434E-02 -.805E-01 0.212E+04   0.394E-02 0.814E-01 -.212E+04   0.282E-03 -.649E-03 -.651E+01
   -.105E+00 0.871E-02 0.212E+04   0.107E+00 -.934E-02 -.212E+04   -.186E-02 0.429E-03 -.653E+01
   -.766E-01 -.189E-01 0.703E+03   0.100E+00 0.288E-01 -.703E+03   -.170E-01 -.748E-02 0.433E+00
   -.486E+00 -.486E+00 0.702E+03   0.506E+00 0.508E+00 -.703E+03   -.158E-01 -.169E-01 0.448E+00
   -.371E-03 -.407E+00 -.707E+03   -.211E-01 0.405E+00 0.707E+03   0.275E-01 -.179E-04 -.232E+00
   -.128E+01 0.238E+00 -.713E+03   0.137E+01 -.217E+00 0.713E+03   -.858E-01 -.248E-01 -.184E+00
   -.172E+01 -.253E+00 -.211E+04   0.187E+01 0.295E+00 0.210E+04   -.739E-01 -.298E-01 0.539E+01
   -.320E+01 -.339E+01 -.210E+04   0.325E+01 0.343E+01 0.210E+04   0.527E-01 0.686E-01 0.532E+01
   0.707E-02 0.105E+00 0.212E+04   -.760E-02 -.107E+00 -.212E+04   0.385E-03 0.160E-02 -.651E+01
   0.814E-01 -.134E-01 0.212E+04   -.827E-01 0.142E-01 -.212E+04   0.918E-03 -.516E-03 -.652E+01
   -.630E-01 -.868E-01 0.703E+03   0.701E-01 0.115E+00 -.703E+03   -.554E-02 -.203E-01 0.436E+00
   0.375E+00 0.365E+00 0.703E+03   -.370E+00 -.359E+00 -.703E+03   -.388E-02 -.439E-02 0.455E+00
   0.264E+00 0.106E+01 -.708E+03   -.271E+00 -.115E+01 0.708E+03   0.596E-03 0.837E-01 -.289E+00
   0.382E+00 -.257E+00 -.709E+03   -.377E+00 0.261E+00 0.709E+03   -.147E-02 -.997E-03 -.169E+00
   -.236E+00 -.175E+01 -.211E+04   0.269E+00 0.187E+01 0.210E+04   -.248E-01 -.593E-01 0.539E+01
   -.187E+00 -.144E+00 -.211E+04   0.351E+00 0.305E+00 0.210E+04   -.120E+00 -.119E+00 0.550E+01
   0.164E-02 -.103E+00 0.212E+04   -.243E-02 0.106E+00 -.212E+04   0.530E-03 -.200E-02 -.653E+01
   0.106E+00 0.140E-01 0.212E+04   -.108E+00 -.144E-01 -.212E+04   0.170E-02 0.337E-03 -.651E+01
   0.632E-01 0.862E-01 0.701E+03   -.819E-01 -.104E+00 -.701E+03   0.140E-01 0.135E-01 0.532E+00
   0.471E+00 -.361E+00 0.702E+03   -.513E+00 0.361E+00 -.703E+03   0.297E-01 0.108E-02 0.468E+00
   0.163E+00 -.126E+01 -.713E+03   -.140E+00 0.135E+01 0.713E+03   -.258E-01 -.853E-01 -.164E+00
   0.106E+01 0.296E+00 -.708E+03   -.115E+01 -.307E+00 0.709E+03   0.839E-01 0.414E-02 -.274E+00
   0.347E+01 0.328E+01 -.212E+04   -.361E+01 -.342E+01 0.211E+04   -.162E-01 -.462E-02 0.562E+01
   0.220E+01 -.290E-01 -.211E+04   -.217E+01 -.140E+00 0.210E+04   -.599E-01 0.122E+00 0.545E+01
   -.411E-01 0.209E+00 0.527E+03   0.421E-01 -.209E+00 -.526E+03   -.111E-02 0.102E-02 -.777E-01
   -.230E+00 -.621E-01 0.527E+03   0.240E+00 0.775E-01 -.527E+03   -.129E-01 -.202E-01 -.483E-01
   0.336E-02 -.263E-02 0.159E+04   -.429E-02 0.152E-02 -.160E+04   0.129E-02 0.155E-02 0.353E+01
   -.657E-01 0.769E-01 0.159E+04   0.656E-01 -.800E-01 -.160E+04   0.174E-03 0.443E-02 0.352E+01
   -.326E+00 0.409E+00 -.160E+04   0.399E+00 -.461E+00 0.161E+04   -.101E+00 0.567E-01 -.523E+01
   -.457E+00 0.453E+00 -.160E+04   0.504E+00 -.502E+00 0.161E+04   -.512E-01 0.315E-01 -.520E+01
   0.203E+00 0.172E+00 -.525E+03   -.202E+00 -.171E+00 0.525E+03   -.144E-02 0.791E-03 0.232E+00
   -.326E+00 0.978E+00 -.525E+03   0.322E+00 -.998E+00 0.525E+03   0.133E-01 0.299E-01 0.331E+00
   -.458E-01 -.220E+00 0.527E+03   0.660E-01 0.227E+00 -.527E+03   -.268E-01 -.971E-02 -.480E-01
   -.352E+00 0.278E-01 0.526E+03   0.334E+00 -.248E-01 -.525E+03   0.247E-01 -.439E-02 -.117E+00
   -.967E-02 0.286E-02 0.159E+04   0.119E-01 -.157E-02 -.160E+04   -.310E-02 -.183E-02 0.352E+01
   -.753E-01 -.753E-01 0.159E+04   0.794E-01 0.791E-01 -.160E+04   -.572E-02 -.540E-02 0.352E+01
   0.466E+00 -.482E+00 -.160E+04   -.518E+00 0.532E+00 0.161E+04   0.334E-01 -.538E-01 -.519E+01
   -.239E+01 0.885E+00 -.161E+04   0.250E+01 -.108E+01 0.161E+04   -.562E-01 0.248E+00 -.529E+01
   -.478E+00 -.139E+00 -.525E+03   0.509E+00 0.132E+00 0.524E+03   -.512E-01 0.654E-02 0.334E+00
   -.103E+01 -.105E+01 -.524E+03   0.103E+01 0.106E+01 0.523E+03   -.862E-02 -.150E-01 0.448E+00
   0.439E-01 0.364E+00 0.526E+03   -.462E-01 -.355E+00 -.526E+03   0.283E-02 -.119E-01 -.737E-01
   0.209E+00 -.574E-01 0.527E+03   -.206E+00 0.549E-01 -.526E+03   -.329E-02 0.374E-02 -.771E-01
   -.293E-02 -.140E-01 0.159E+04   0.421E-02 0.163E-01 -.160E+04   -.182E-02 -.314E-02 0.352E+01
   0.655E-01 0.636E-01 0.159E+04   -.655E-01 -.637E-01 -.160E+04   -.862E-04 0.207E-03 0.353E+01
   0.452E+00 0.760E+00 -.160E+04   -.503E+00 -.637E+00 0.160E+04   0.700E-01 -.193E+00 -.491E+01
   0.401E+00 -.321E+00 -.160E+04   -.449E+00 0.385E+00 0.161E+04   0.515E-01 -.883E-01 -.522E+01
   -.171E+00 -.505E+00 -.525E+03   0.163E+00 0.532E+00 0.524E+03   0.894E-02 -.462E-01 0.333E+00
   0.274E+00 0.271E+00 -.525E+03   -.262E+00 -.259E+00 0.524E+03   -.246E-01 -.231E-01 0.332E+00
   -.182E-02 -.342E+00 0.526E+03   0.803E-02 0.320E+00 -.525E+03   -.856E-02 0.290E-01 -.119E+00
   0.363E+00 0.690E-01 0.526E+03   -.350E+00 -.728E-01 -.526E+03   -.173E-01 0.469E-02 -.752E-01
   0.872E-02 0.128E-01 0.159E+04   -.112E-01 -.155E-01 -.160E+04   0.348E-02 0.384E-02 0.352E+01
   0.773E-01 -.639E-01 0.159E+04   -.804E-01 0.639E-01 -.160E+04   0.439E-02 0.850E-04 0.352E+01
   0.757E+00 -.232E+01 -.161E+04   -.957E+00 0.243E+01 0.161E+04   0.261E+00 -.635E-01 -.530E+01
   0.680E+00 0.416E+00 -.160E+04   -.554E+00 -.460E+00 0.161E+04   -.192E+00 0.610E-01 -.491E+01
   0.598E+00 0.607E+00 -.531E+03   -.620E+00 -.622E+00 0.531E+03   0.399E-01 0.330E-01 0.323E-02
   0.979E+00 -.316E+00 -.525E+03   -.996E+00 0.312E+00 0.525E+03   0.272E-01 0.135E-01 0.322E+00
   0.896E-01 0.412E-01 0.179E+02   -.228E-12 0.179E-12 -.250E-11   -.902E-01 -.415E-01 -.180E+02

 POSITION                                       TOTAL-FORCE (eV/Angst)
      2.08728      0.00000      7.50000         0.000177     -0.000350     -0.015820
      4.17456      2.08728      7.50000         0.000245     -0.000073     -0.017807
      2.08728      2.08728      9.58728        -0.004841     -0.004204      0.043817
      4.17456      0.00000      9.58728        -0.000319     -0.011302      0.044944
      2.08692      8.34842     11.68805         0.004047      0.003485      0.032318
      4.17377      2.08509     11.68654        -0.001623      0.005706      0.021114
      2.08520      2.08619     13.76596        -0.007952     -0.011832      0.386613
      4.17504      0.00070     13.76212        -0.047826     -0.034170      0.419242
      2.08728      4.17456      7.50000        -0.000115      0.000286     -0.017877
      4.17456      6.26183      7.50000         0.000641     -0.000191     -0.014028
      2.08728      6.26183      9.58728         0.006641      0.002397      0.050525
      4.17456      4.17456      9.58728         0.004726      0.005533      0.047298
      2.08442      4.17423     11.68666         0.006052     -0.001416      0.019401
      4.17700      6.26155     11.69170         0.000648     -0.003940      0.047423
      2.08450      6.26079     13.76203         0.069872      0.011879      0.431950
      4.16385      4.16474     13.75184         0.106415      0.108945      0.518836
      6.26183      0.00000      7.50000        -0.000129     -0.000498     -0.017228
      0.00000      2.08728      7.50000        -0.000391      0.000207     -0.015939
      6.26183      2.08728      9.58728         0.001561      0.008029      0.050578
      0.00000      0.00000      9.58728         0.000892      0.001297      0.043029
      6.26220      8.34773     11.69024        -0.006948     -0.002581     -0.009215
      8.34792      2.08749     11.68820         0.003677      0.003768      0.030840
      6.26010      2.08568     13.76242         0.007671      0.066411      0.430102
      0.00012      0.00101     13.76379         0.043152      0.041301      0.386368
      6.26183      4.17456      7.50000        -0.000239      0.000689     -0.013959
      0.00000      6.26183      7.50000        -0.000534     -0.000109     -0.017122
      6.26183      6.26183      9.58728        -0.004556     -0.004016      0.065194
      0.00000      4.17456      9.58728        -0.012676      0.000576      0.045563
      6.26096      4.17755     11.69181        -0.003724      0.000792      0.047183
      8.34712      6.26251     11.69030        -0.002166     -0.006250     -0.008543
      6.27053      6.27130     13.79261        -0.146323     -0.141182      0.213661
      8.34852      4.17576     13.76341        -0.031368     -0.045826      0.411145
      2.08728      0.00000      9.58728        -0.000059      0.000378      0.077366
      4.17456      2.08728      9.58728        -0.003348     -0.004865      0.078481
      2.08728      2.08728      7.50000         0.000372      0.000450     -0.719877
      4.17456      0.00000      7.50000         0.000065      0.001280     -0.720668
      2.08780      8.34893     13.81374        -0.027191      0.004606      0.164525
      4.17201      2.08535     13.80719        -0.003771     -0.017570      0.190198
      2.08622      2.08663     11.68180         0.000371      0.001535     -0.010942
      4.17379      8.34736     11.68220         0.009501      0.009904     -0.010376
      2.08728      4.17456      9.58728        -0.006573     -0.002576      0.079290
      4.17456      6.26183      9.58728         0.006560     -0.001345      0.085713
      2.08728      6.26183      7.50000        -0.000882     -0.000533     -0.720521
      4.17456      4.17456      7.50000        -0.001675     -0.001587     -0.720856
      2.08446      4.17290     13.80642        -0.018626     -0.004683      0.196744
      4.17016      6.25800     13.82225         0.057881      0.050254      0.131922
      2.08858      6.26152     11.68147        -0.019867      0.000119     -0.004263
      4.17372      4.17420     11.68132        -0.007196     -0.007519     -0.026661
      6.26183      0.00000      9.58728         0.000525     -0.003288      0.091682
      0.00000      2.08728      9.58728        -0.000727      0.001194      0.078393
      6.26183      2.08728      7.50000        -0.000523     -0.000896     -0.720503
      0.00000      0.00000      7.50000        -0.000006      0.000075     -0.720314
      6.26165      0.00616     13.80463         0.019339     -0.069107      0.272307
      8.34812      2.08858     13.81366         0.003091     -0.023962      0.167923
      6.26098      2.08931     11.68159         0.001230     -0.019702     -0.003428
      0.00072      0.00109     11.68160        -0.012080     -0.011147      0.003823
      6.26183      4.17456      9.58728        -0.002329      0.007628      0.085732
      0.00000      6.26183      9.58728        -0.004682      0.000976      0.091567
      6.26183      6.26183      7.50000         0.001013      0.001128     -0.721620
      0.00000      4.17456      7.50000         0.001262      0.000028     -0.720659
      6.25608      4.17158     13.82347         0.061369      0.051789      0.126787
      0.00495      6.26245     13.80558        -0.066199      0.017419      0.267624
      6.26069      6.26113     11.68860         0.018139      0.017622     -0.000017
      8.34659      4.17429     11.68257         0.010328      0.009035     -0.008977
    total drift:                               -0.000670     -0.000327     -0.007794

  FREE ENERGIE OF THE ION-ELECTRON SYSTEM (eV)
  free  energy   TOTEN  =      -227.05879889 eV

  energy  without entropy=     -227.05879889  energy(sigma->0) =     -227.05879889