 vasp.6.3.0 20Jan22 (build Apr  1 2022 16:44:48) complex
 executed on        HPECrayEX_GCC date 2023.02.21  22:34:48

 INCAR:
   SYSTEM = MgO-rocksalt
   ISMEAR = 0
   SIGMA = 0.05
   EDIFF = 1E-7
   ALGO = ALL
   ISTART = 0
   IBRION = 2
   NSW = 1000
   ISYM = 0
   ISIF = 2
   EDIFFG = -0.02
   DIPOL = 0.5 0.5 0.5
   IDIPOL = 3
   LDIPOL = .TRUE.
   LHFCALC = .TRUE.
   GGA = B5
   AEXX = 0.2
   AGGAX = 0.72
   AGGAC = 0.81
   ALDAC = 0.19
   IVDW = 1
   VDW_S6 = 1.05
   VDW_C6 = 1.23 0.14 0.63 0.70
   VDW_R0 = 1.397 1.001 1.243 1.342
   ENCUT = 600
   PREC = Accurate
   LASPH = .TRUE.
   LREAL = .FALSE.
   ISPIN = 1
   NELM = 200
   NELMIN = 8
   NCORE = 8
   KPAR = 1
   LWAVE = .FALSE.
   LCHARG = .FALSE.

 POTCAR:    PAW_PBE N 08Apr2002
 POTCAR:    PAW_PBE H 15Jun2001
 POTCAR:    PAW_PBE Mg_pv 13Apr2007
 POTCAR:    PAW_PBE O 08Apr2002
 POTCAR:    PAW_PBE N 08Apr2002
   VRHFIN =N: s2p3

   TITEL  = PAW_PBE N 08Apr2002
   POMASS =   14.001; ZVAL   =    5.000    mass and valenz
   ENMAX  =  400.000; ENMIN  =  300.000 eV

   TITEL  = PAW_PBE H 15Jun2001
   POMASS =    1.000; ZVAL   =    1.000    mass and valenz
   ENMAX  =  250.000; ENMIN  =  200.000 eV

   TITEL  = PAW_PBE Mg_pv 13Apr2007
   POMASS =   24.305; ZVAL   =    8.000    mass and valenz
   ENMAX  =  403.929; ENMIN  =  302.947 eV

   TITEL  = PAW_PBE O 08Apr2002
   POMASS =   16.000; ZVAL   =    6.000    mass and valenz
   ENMAX  =  400.000; ENMIN  =  300.000 eV

  PAW_PBE N 08Apr2002                   :
  PAW_PBE H 15Jun2001                   :
  PAW_PBE Mg_pv 13Apr2007               :
  PAW_PBE O 08Apr2002                   :

 POSCAR:  N  H Mg  O
  positions in direct lattice
  velocities in cartesian coordinates
 exchange correlation table for  LEXCH =       12
   RHO(1)=    0.500       N(1)  =     2000
   RHO(2)=  100.500       N(2)  =     4000

 ion  position               nearest neighbor table
   1  0.500  0.502  0.760-   4 1.01   3 1.01   2 1.01
   2  0.500  0.617  0.774-   1 1.01
   3  0.402  0.448  0.778-   1 1.01
   4  0.598  0.448  0.778-   1 1.01
   5  0.250  0.000  0.352-  39 2.10  40 2.10  47 2.10  56 2.10  37 2.10
   6  0.500  0.250  0.352-  39 2.10  40 2.10  48 2.10  55 2.10  38 2.10
   7  0.250  0.250  0.451-  37 2.10  38 2.10  45 2.10  54 2.10  39 2.10  43 2.10
   8  0.500  0.000  0.451-  44 2.10  38 2.10  37 2.10  46 2.10  53 2.10  40 2.10
   9  0.250  1.000  0.549-  44 2.10  51 2.10  43 2.10  37 2.10  60 2.10  41 2.14
  10  0.500  0.251  0.550-  52 2.09  43 2.10  59 2.10  44 2.11  38 2.12  42 2.12
  11  0.250  0.249  0.647-  43 2.07  41 2.10  58 2.10  42 2.11  49 2.11
  12  0.500  1.000  0.647-  42 2.08  50 2.08  44 2.08  41 2.11  57 2.11
  13  0.250  0.500  0.352-  39 2.10  47 2.10  48 2.10  64 2.10  45 2.10
  14  0.500  0.750  0.352-  40 2.10  47 2.10  48 2.10  63 2.10  46 2.10
  15  0.250  0.750  0.451-  37 2.10  45 2.10  46 2.10  62 2.10  47 2.10  51 2.10
  16  0.500  0.500  0.451-  38 2.10  45 2.10  46 2.10  61 2.10  48 2.10  52 2.12
  17  0.251  0.500  0.550-  52 2.09  51 2.10  43 2.10  68 2.11  45 2.12  49 2.13
  18  0.500  0.748  0.550-  52 2.09  51 2.10  67 2.10  44 2.11  46 2.12  50 2.13
  19  0.250  0.750  0.647-  51 2.07  66 2.10  41 2.10  49 2.11  50 2.11
  20  0.500  0.499  0.655-  42 2.12  49 2.13  65 2.13  50 2.13  52 2.22
  21  0.750  0.000  0.352-  40 2.10  55 2.10  56 2.10  63 2.10  53 2.10
  22  0.000  0.250  0.352-  39 2.10  55 2.10  56 2.10  64 2.10  54 2.10
  23  0.750  0.250  0.451-  38 2.10  53 2.10  54 2.10  61 2.10  55 2.10  59 2.10
  24  0.000  0.000  0.451-  60 2.10  53 2.10  54 2.10  37 2.10  62 2.10  56 2.10
  25  0.750  1.000  0.549-  44 2.10  67 2.10  59 2.10  53 2.10  60 2.10  57 2.14
  26  0.000  0.250  0.549-  68 2.10  43 2.10  59 2.10  54 2.10  60 2.10  58 2.14
  27  0.750  0.249  0.647-  59 2.07  57 2.10  58 2.10  42 2.11  65 2.11
  28  0.000  1.000  0.647-  60 2.08  41 2.10  57 2.10  58 2.10  66 2.10
  29  0.750  0.500  0.352-  48 2.10  55 2.10  63 2.10  64 2.10  61 2.10
  30  0.000  0.750  0.352-  47 2.10  56 2.10  63 2.10  64 2.10  62 2.10
  31  0.750  0.750  0.451-  46 2.10  53 2.10  61 2.10  62 2.10  63 2.10  67 2.10
  32  0.000  0.500  0.451-  68 2.10  54 2.10  61 2.10  62 2.10  45 2.10  64 2.10
  33  0.749  0.500  0.550-  52 2.09  67 2.10  59 2.10  68 2.11  61 2.12  65 2.13
  34  0.000  0.750  0.549-  68 2.10  51 2.10  67 2.10  60 2.10  62 2.10  66 2.14
  35  0.750  0.750  0.647-  67 2.07  66 2.10  57 2.10  65 2.11  50 2.11
  36  1.000  0.500  0.647-  65 2.08  49 2.08  68 2.08  58 2.11  66 2.11
  37  0.250  0.000  0.451-   7 2.10   8 2.10  15 2.10  24 2.10   5 2.10   9 2.10
  38  0.500  0.250  0.451-   7 2.10   8 2.10  16 2.10  23 2.10   6 2.10  10 2.12
  39  0.250  0.250  0.352-   5 2.10   6 2.10  13 2.10  22 2.10   7 2.10
  40  0.500  0.000  0.352-   5 2.10   6 2.10  14 2.10  21 2.10   8 2.10
  41  0.249  1.000  0.650-  28 2.10  11 2.10  19 2.10  12 2.11   9 2.14
  42  0.500  0.247  0.650-  12 2.08  11 2.11  27 2.11  20 2.12  10 2.12
  43  0.250  0.250  0.549-  11 2.07  26 2.10   9 2.10  17 2.10  10 2.10   7 2.10
  44  0.500  1.000  0.549-  12 2.08   9 2.10  25 2.10   8 2.10  18 2.11  10 2.11
  45  0.250  0.500  0.451-   7 2.10  15 2.10  16 2.10  32 2.10  13 2.10  17 2.12
  46  0.500  0.750  0.451-   8 2.10  15 2.10  16 2.10  31 2.10  14 2.10  18 2.12
  47  0.250  0.750  0.352-   5 2.10  13 2.10  14 2.10  30 2.10  15 2.10
  48  0.500  0.500  0.352-   6 2.10  13 2.10  14 2.10  29 2.10  16 2.10
  49  0.247  0.500  0.650-  36 2.08  11 2.11  19 2.11  20 2.13  17 2.13
  50  0.500  0.753  0.650-  12 2.08  19 2.11  35 2.11  20 2.13  18 2.13
  51  0.250  0.750  0.549-  19 2.07   9 2.10  34 2.10  18 2.10  17 2.10  15 2.10
  52  0.500  0.500  0.550-  18 2.09  33 2.09  17 2.09  10 2.09  16 2.12  20 2.22
  53  0.750  0.000  0.451-   8 2.10  23 2.10  24 2.10  31 2.10  21 2.10  25 2.10
  54  0.000  0.250  0.451-   7 2.10  23 2.10  24 2.10  32 2.10  22 2.10  26 2.10
  55  0.750  0.250  0.352-   6 2.10  21 2.10  22 2.10  29 2.10  23 2.10
  56  0.000  0.000  0.352-   5 2.10  21 2.10  22 2.10  30 2.10  24 2.10
  57  0.751  1.000  0.650-  28 2.10  27 2.10  35 2.10  12 2.11  25 2.14
  58  0.000  0.249  0.650-  28 2.10  11 2.10  27 2.10  36 2.11  26 2.14
  59  0.750  0.250  0.549-  27 2.07  26 2.10  25 2.10  33 2.10  10 2.10  23 2.10
  60  0.000  1.000  0.549-  28 2.08  24 2.10  34 2.10   9 2.10  25 2.10  26 2.10
  61  0.750  0.500  0.451-  16 2.10  23 2.10  31 2.10  32 2.10  29 2.10  33 2.12
  62  0.000  0.750  0.451-  15 2.10  24 2.10  31 2.10  32 2.10  30 2.10  34 2.10
  63  0.750  0.750  0.352-  14 2.10  21 2.10  29 2.10  30 2.10  31 2.10
  64  0.000  0.500  0.352-  13 2.10  22 2.10  29 2.10  30 2.10  32 2.10
  65  0.753  0.500  0.650-  36 2.08  27 2.11  35 2.11  20 2.13  33 2.13
  66  0.000  0.751  0.650-  28 2.10  19 2.10  35 2.10  36 2.11  34 2.14
  67  0.750  0.750  0.549-  35 2.07  25 2.10  34 2.10  18 2.10  33 2.10  31 2.10
  68  1.000  0.500  0.549-  36 2.08  34 2.10  26 2.10  32 2.10  33 2.11  17 2.11

IMPORTANT INFORMATION: All symmetrisations will be switched off!
NOSYMM: (Re-)initialisation of all symmetry stuff for point group C_1.

                                     Primitive cell

  volume of cell :    1504.9259

  direct lattice vectors                    reciprocal lattice vectors
     8.404861995  0.000000000  0.000000000     0.118978753  0.000000000  0.000000000
     0.000000000  8.404861995  0.000000000     0.000000000  0.118978753  0.000000000
     0.000000000  0.000000000 21.303646496     0.000000000  0.000000000  0.046940321

  length of vectors
     8.404861995  8.404861995 21.303646496     0.118978753  0.118978753  0.046940321

  position of ions in fractional coordinates (direct lattice)
     0.500000121  0.501930711  0.760439389
     0.500000135  0.617087400  0.774360579
     0.402033943  0.447931799  0.777991402
     0.597966266  0.447931854  0.777991292
     0.250000000  0.000000000  0.352052406
     0.500000000  0.250000000  0.352052406
     0.250000000  0.250000000  0.450684135
     0.500000000  0.000000000  0.450684135
     0.250322451  0.999838104  0.549433567
     0.499999971  0.251312364  0.550140646
     0.249667891  0.249353396  0.646718028
     0.499999988  0.999932434  0.647033219
     0.250000000  0.500000000  0.352052406
     0.500000000  0.750000000  0.352052406
     0.250000000  0.750000000  0.450684135
     0.500000000  0.500000000  0.450684135
     0.251445584  0.499890553  0.550180980
     0.499999951  0.748427118  0.550219344
     0.249602738  0.750065006  0.646870181
     0.499999975  0.499187020  0.654708848
     0.750000000  0.000000000  0.352052406
     0.000000000  0.250000000  0.352052406
     0.750000000  0.250000000  0.450684135
     0.000000000  0.000000000  0.450684135
     0.749677567  0.999838134  0.549433571
     0.000000030  0.250208056  0.549414030
     0.750332173  0.249353367  0.646718009
     0.000000051  0.999794441  0.646980861
     0.750000000  0.500000000  0.352052406
     0.000000000  0.750000000  0.352052406
     0.750000000  0.750000000  0.450684135
     0.000000000  0.500000000  0.450684135
     0.748554406  0.499890523  0.550180979
     0.000000062  0.749560006  0.549451448
     0.750397272  0.750064979  0.646870120
     0.999999981  0.499770842  0.647033407
     0.250000000  0.000000000  0.450684135
     0.500000000  0.250000000  0.450684135
     0.250000000  0.250000000  0.352052406
     0.500000000  0.000000000  0.352052406
     0.249270202  0.999809556  0.649693946
     0.499999956  0.246968217  0.649851256
     0.249839846  0.249746465  0.549415056
     0.499999992  0.999795625  0.549308216
     0.250000000  0.500000000  0.450684135
     0.500000000  0.750000000  0.450684135
     0.250000000  0.750000000  0.352052406
     0.500000000  0.500000000  0.352052406
     0.247186908  0.499668072  0.650058821
     0.499999960  0.752657750  0.650315220
     0.249927450  0.749990571  0.549491054
     0.500000033  0.499943204  0.550329908
     0.750000000  0.000000000  0.450684135
     0.000000000  0.250000000  0.450684135
     0.750000000  0.250000000  0.352052406
     0.000000000  0.000000000  0.352052406
     0.750729811  0.999809620  0.649693915
     0.000000056  0.249067128  0.649705480
     0.750160165  0.249746504  0.549415070
     0.000000013  0.999876674  0.549220762
     0.750000000  0.500000000  0.450684135
     0.000000000  0.750000000  0.450684135
     0.750000000  0.750000000  0.352052406
     0.000000000  0.500000000  0.352052406
     0.752813113  0.499668062  0.650058902
     0.000000067  0.750507151  0.649687478
     0.750072576  0.749990549  0.549491047
     0.999999971  0.499895669  0.549306578

  ion indices of the primitive-cell ions
   primitive index   ion index
                 1           1
                 2           2
                 3           3
                 4           4
                 5           5
                 6           6
                 7           7
                 8           8
                 9           9
                10          10
                11          11
                12          12
                13          13
                14          14
                15          15
                16          16
                17          17
[...]
   6.30093649  8.40350153 11.70493857
   0.00000025  2.10296418 11.70452227
   6.30643837  2.09578064 13.77745184
   0.00000043  8.40313430 13.78305156
   6.30364650  4.20243100  7.50000000
   0.00000000  6.30364650  7.50000000
   6.30364650  6.30364650  9.60121550
   0.00000000  4.20243100  9.60121550
   6.29149647  4.20151086 11.72086109
   0.00000052  6.29994841 11.70531941
   6.30698551  6.30419264 13.78069237
   8.40486183  4.20050495 13.78417098
   2.10121550  0.00000000  9.60121550
   4.20243100  2.10121550  9.60121550
   2.10121550  2.10121550  7.50000000
   4.20243100  0.00000000  7.50000000
   2.09508165  8.40326134 13.84085015
   4.20243063  2.07573378 13.84420143
   2.09986943  2.09908457 11.70454413
   4.20243093  8.40314425 11.70226805
   2.10121550  4.20243100  9.60121550
   4.20243100  6.30364650  9.60121550
   2.10121550  6.30364650  7.50000000
   4.20243100  4.20243100  7.50000000
   2.07757185  4.19964119 13.84862333
   4.20243066  6.32598451 13.85408555
   2.10060573  6.30356725 11.70616318
   4.20243128  4.20195363 11.72403381
   6.30364650  0.00000000  9.60121550
   0.00000000  2.10121550  9.60121550
   6.30364650  2.10121550  7.50000000
   0.00000000  0.00000000  7.50000000
   6.30978046  8.40326188 13.84084950
   0.00000047  2.09337484 13.84109588
   6.30499266  2.09908490 11.70454443
   0.00000011  8.40382546 11.70040497
   6.30364650  4.20243100  9.60121550
   0.00000000  6.30364650  9.60121550
   6.30364650  6.30364650  7.50000000
   0.00000000  4.20243100  7.50000000
   6.32729032  4.19964110 13.84862505
   0.00000057  6.30790903 13.84071236
   6.30425649  6.30356706 11.70616302
   8.40486175  4.20155411 11.70223316

--------------------------------------- Iteration      FINAL  ---------------------------------------

--------------------OUTCAR has been truncated-------------------------

[...]

--------------------OUTCAR has been truncated-------------------------

  Number of pair interactions contributing to vdW energy:  823420
  Edisp (eV):   -5.32896

  FORCE on cell =-STRESS in cart. coord.  units (eV):
  Direction    XX          YY          ZZ          XY          YZ          ZX
  Alpha Z   908.44988   908.44988   908.44988
  Ewald  161842.56035161842.07126************     0.00008    -4.34863    -0.00015
  Hartree172193.79899172193.83279************     0.00004    -1.10968    -0.00003
  E(xc)   -2027.38129 -2027.38355 -2030.87896     0.00000    -0.02297    -0.00000
  Local  ************************343999.08712    -0.00010     4.38115     0.00013
  n-local -1190.84335 -1190.85527 -1213.60214    -0.00000    -0.10130    -0.00000
  augment   897.82125   897.82826   888.35940     0.00000     0.01819     0.00000
  Kinetic  7463.36682  7463.61566  7520.38633     0.00000     1.40476     0.00006
  Fock    -2004.91510 -2004.91305 -2001.59293    -0.00000     0.00954     0.00000
  vdW        -7.69452    -7.69561    -6.59516    -0.00000     0.00062    -0.00000
  Total     -29.88040   -29.87705    -2.47627     0.00001     0.23168     0.00000
  in kB     -31.81133   -31.80777    -2.63629     0.00001     0.24665     0.00000

 VOLUME and BASIS-vectors are now :
  energy-cutoff  :      600.00
  volume of cell :     1504.93
      direct lattice vectors                 reciprocal lattice vectors
     8.404861995  0.000000000  0.000000000     0.118978753  0.000000000  0.000000000
     0.000000000  8.404861995  0.000000000     0.000000000  0.118978753  0.000000000
     0.000000000  0.000000000 21.303646496     0.000000000  0.000000000  0.046940321

  length of vectors
     8.404861995  8.404861995 21.303646496     0.118978753  0.118978753  0.046940321

 FORCES acting on ions:
    Electron-Ion                     Ewald-Force                    Non-Local-Force
   0.642E-04 0.251E+01 -.135E+04   -.964E-04 -.391E+01 0.132E+04   0.529E-04 0.131E+01 0.230E+02
   -.465E-04 -.690E+02 -.279E+03   0.500E-04 0.764E+02 0.281E+03   -.546E-05 -.709E+01 -.188E+01
   0.589E+02 0.326E+02 -.280E+03   -.652E+02 -.360E+02 0.283E+03   0.605E+01 0.332E+01 -.250E+01
   -.589E+02 0.326E+02 -.280E+03   0.652E+02 -.360E+02 0.283E+03   -.605E+01 0.332E+01 -.250E+01
   -.673E-01 0.318E-01 0.210E+04   0.786E-01 -.326E-01 -.210E+04   -.728E-02 0.568E-03 -.639E+01
   0.587E-06 -.576E-01 0.210E+04   -.988E-07 0.726E-01 -.210E+04   -.219E-06 -.992E-02 -.643E+01
   -.394E+00 -.408E+00 0.723E+03   0.471E+00 0.485E+00 -.723E+03   -.485E-01 -.491E-01 0.431E+00
   0.426E-04 0.116E+00 0.722E+03   -.409E-04 -.135E+00 -.723E+03   -.909E-06 0.117E-01 0.307E+00
   0.279E+01 0.198E+00 -.651E+03   -.269E+01 -.206E+00 0.651E+03   -.957E-01 0.765E-02 0.294E-01
   0.962E-04 0.295E+01 -.651E+03   -.951E-04 -.250E+01 0.651E+03   -.213E-05 -.422E+00 -.424E+00
   0.195E+02 0.195E+02 -.201E+04   -.196E+02 -.196E+02 0.200E+04   0.841E-01 0.101E+00 0.563E+01
   0.191E-03 -.409E-01 -.202E+04   -.184E-03 0.884E-01 0.201E+04   -.586E-05 -.434E-01 0.545E+01
   -.575E-01 -.329E-01 0.210E+04   0.727E-01 0.332E-01 -.210E+04   -.101E-01 -.143E-03 -.643E+01
   0.182E-05 0.573E-01 0.210E+04   -.927E-06 -.728E-01 -.210E+04   -.804E-06 0.103E-01 -.644E+01
   -.397E+00 0.388E+00 0.722E+03   0.488E+00 -.477E+00 -.723E+03   -.573E-01 0.565E-01 0.456E+00
   -.536E-04 -.153E+00 0.721E+03   0.587E-04 0.160E+00 -.721E+03   -.292E-05 -.477E-02 0.461E+00
   0.292E+01 -.221E+00 -.652E+03   -.246E+01 0.228E+00 0.652E+03   -.425E+00 -.659E-02 -.368E+00
   0.168E-03 -.285E+01 -.653E+03   -.161E-03 0.239E+01 0.653E+03   -.901E-05 0.424E+00 -.290E+00
   0.195E+02 -.195E+02 -.201E+04   -.197E+02 0.196E+02 0.200E+04   0.117E+00 -.925E-01 0.561E+01
   0.484E-04 0.224E+00 -.195E+04   -.496E-04 -.395E+00 0.195E+04   0.101E-05 0.154E+00 0.739E+00
   0.673E-01 0.318E-01 0.210E+04   -.786E-01 -.326E-01 -.210E+04   0.728E-02 0.568E-03 -.639E+01
   0.637E-06 -.676E-01 0.210E+04   0.429E-06 0.786E-01 -.210E+04   -.109E-06 -.711E-02 -.639E+01
   0.394E+00 -.408E+00 0.723E+03   -.471E+00 0.485E+00 -.723E+03   0.485E-01 -.491E-01 0.431E+00
   -.447E-04 0.113E+00 0.722E+03   0.441E-04 -.119E+00 -.723E+03   0.688E-06 0.314E-02 0.383E+00
   -.279E+01 0.198E+00 -.651E+03   0.269E+01 -.206E+00 0.651E+03   0.957E-01 0.765E-02 0.294E-01
   -.157E-03 0.279E+01 -.651E+03   0.153E-03 -.269E+01 0.651E+03   0.487E-05 -.962E-01 0.464E-01
   -.195E+02 0.195E+02 -.201E+04   0.196E+02 -.196E+02 0.200E+04   -.842E-01 0.101E+00 0.563E+01
   -.281E-03 -.660E-01 -.204E+04   0.275E-03 0.699E-01 0.203E+04   0.699E-05 -.305E-02 0.549E+01
   0.575E-01 -.329E-01 0.210E+04   -.727E-01 0.332E-01 -.210E+04   0.101E-01 -.143E-03 -.643E+01
   -.127E-05 0.670E-01 0.210E+04   0.115E-05 -.785E-01 -.210E+04   0.316E-06 0.747E-02 -.639E+01
   0.397E+00 0.388E+00 0.722E+03   -.488E+00 -.477E+00 -.723E+03   0.573E-01 0.565E-01 0.456E+00
   0.388E-04 -.137E+00 0.722E+03   -.427E-04 0.132E+00 -.723E+03   0.250E-05 0.310E-02 0.306E+00
   -.292E+01 -.221E+00 -.652E+03   0.246E+01 0.228E+00 0.652E+03   0.425E+00 -.659E-02 -.368E+00
   -.181E-03 -.280E+01 -.652E+03   0.175E-03 0.269E+01 0.652E+03   0.772E-05 0.966E-01 0.154E-01
   -.195E+02 -.195E+02 -.201E+04   0.197E+02 0.196E+02 0.200E+04   -.117E+00 -.925E-01 0.561E+01
   0.747E-04 0.677E-02 -.202E+04   -.637E-04 -.135E-01 0.201E+04   -.143E-04 0.584E-02 0.545E+01
   -.562E-01 0.915E-01 0.542E+03   0.820E-01 -.812E-01 -.542E+03   -.327E-01 -.125E-01 0.548E-02
   0.964E-05 0.990E-01 0.540E+03   -.101E-04 -.135E+00 -.540E+03   0.391E-06 0.382E-01 -.174E+00
   -.530E-01 -.533E-01 0.158E+04   0.657E-01 0.668E-01 -.158E+04   -.158E-01 -.168E-01 0.312E+01
   0.396E-05 0.249E-01 0.158E+04   -.381E-05 -.259E-01 -.158E+04   -.163E-06 0.132E-02 0.312E+01
   0.743E+01 0.381E-01 -.155E+04   -.726E+01 -.636E-01 0.155E+04   -.147E+00 0.227E-01 -.455E+01
   0.793E-04 0.252E+02 -.151E+04   -.729E-04 -.245E+02 0.152E+04   -.836E-05 -.592E+00 -.445E+01
   0.192E+01 0.187E+01 -.479E+03   -.190E+01 -.185E+01 0.479E+03   -.189E-01 -.131E-01 0.568E+00
   0.110E-03 0.209E+00 -.479E+03   -.111E-03 -.197E+00 0.479E+03   0.152E-06 -.107E-01 0.452E+00
   0.106E+00 -.118E+00 0.540E+03   -.150E+00 0.123E+00 -.540E+03   0.466E-01 -.470E-02 -.186E+00
   0.198E-04 -.112E+00 0.540E+03   -.205E-04 0.162E+00 -.540E+03   0.961E-06 -.543E-01 -.196E+00
   -.543E-01 0.540E-01 0.158E+04   0.683E-01 -.671E-01 -.158E+04   -.174E-01 0.163E-01 0.312E+01
   -.290E-05 -.247E-01 0.158E+04   0.426E-05 0.261E-01 -.158E+04   -.976E-06 -.179E-02 0.309E+01
   0.251E+02 -.626E-01 -.151E+04   -.245E+02 0.768E-01 0.152E+04   -.627E+00 -.127E-01 -.441E+01
   0.999E-04 -.251E+02 -.151E+04   -.103E-03 0.243E+02 0.152E+04   0.432E-05 0.671E+00 -.436E+01
   0.180E+01 -.185E+01 -.480E+03   -.180E+01 0.184E+01 0.480E+03   -.565E-02 0.136E-01 0.560E+00
   -.371E-04 -.299E+00 -.496E+03   0.424E-04 0.287E+00 0.497E+03   -.220E-05 0.103E-01 -.119E+01
   0.562E-01 0.915E-01 0.542E+03   -.820E-01 -.812E-01 -.542E+03   0.327E-01 -.125E-01 0.548E-02
   -.127E-04 -.662E-01 0.542E+03   0.112E-04 0.982E-01 -.542E+03   0.207E-05 -.401E-01 0.585E-02
   0.530E-01 -.533E-01 0.158E+04   -.657E-01 0.668E-01 -.158E+04   0.158E-01 -.168E-01 0.312E+01
   -.440E-05 0.236E-01 0.158E+04   0.396E-05 -.234E-01 -.158E+04   0.626E-07 -.234E-03 0.314E+01
   -.743E+01 0.380E-01 -.155E+04   0.726E+01 -.635E-01 0.155E+04   0.147E+00 0.227E-01 -.455E+01
   -.211E-03 0.744E+01 -.155E+04   0.220E-03 -.728E+01 0.155E+04   -.691E-05 -.144E+00 -.455E+01
   -.192E+01 0.187E+01 -.479E+03   0.190E+01 -.185E+01 0.479E+03   0.189E-01 -.131E-01 0.568E+00
   -.144E-03 0.691E-01 -.486E+03   0.148E-03 -.653E-01 0.486E+03   -.354E-05 -.313E-02 0.304E+00
   -.106E+00 -.118E+00 0.540E+03   0.150E+00 0.123E+00 -.540E+03   -.466E-01 -.470E-02 -.186E+00
   -.198E-04 0.448E-01 0.542E+03   0.210E-04 -.645E-01 -.542E+03   -.112E-05 0.256E-01 0.613E-02
   0.543E-01 0.540E-01 0.158E+04   -.683E-01 -.671E-01 -.158E+04   0.174E-01 0.163E-01 0.312E+01
   0.404E-05 -.233E-01 0.158E+04   -.383E-05 0.234E-01 -.158E+04   0.912E-06 -.164E-03 0.312E+01
   -.251E+02 -.626E-01 -.151E+04   0.245E+02 0.769E-01 0.152E+04   0.627E+00 -.127E-01 -.441E+01
   -.255E-03 -.739E+01 -.155E+04   0.262E-03 0.723E+01 0.155E+04   -.153E-05 0.145E+00 -.455E+01
   -.180E+01 -.185E+01 -.480E+03   0.180E+01 0.184E+01 0.480E+03   0.564E-02 0.136E-01 0.560E+00
   -.393E-04 -.690E-01 -.479E+03   0.416E-04 0.641E-01 0.479E+03   -.275E-05 0.410E-02 0.451E+00
   0.297E-04 -.118E+01 0.383E+01   0.327E-12 0.199E-12 -.637E-11   -.279E-04 0.106E+01 -.296E+01

 POSITION                                       TOTAL-FORCE (eV/Angst)
      4.20243      4.22050     16.19648         0.000025      0.014342     -0.009421
      4.20243      5.19053     16.48876        -0.000002      0.005331     -0.017673
      3.37823      3.76762     16.57084        -0.004016      0.006657     -0.002110
      5.02663      3.76762     16.57084         0.003998      0.006666     -0.002116
      2.10122      0.00000      7.50000         0.003082     -0.000090      0.400366
      4.20243      2.10122      7.50000         0.000000      0.003913      0.410420
      2.10122      2.10122      9.60122         0.021849      0.021679      0.021992
      4.20243      0.00000      9.60122         0.000001     -0.004873      0.051642
      2.10428      8.40345     11.70587        -0.003630      0.000117      0.006333
      4.20243      2.11374     11.72181        -0.000001     -0.004858     -0.007889
      2.09950      2.09679     13.77896        -0.005197     -0.005100      0.002917
      4.20243      8.40431     13.78334         0.000000      0.000022      0.010382
      2.10122      4.20243      7.50000         0.003867      0.000163      0.411144
      4.20243      6.30365      7.50000        -0.000000     -0.003823      0.411792
      2.10122      6.30365      9.60122         0.025217     -0.025327      0.024226
      4.20243      4.20243      9.60122         0.000002      0.001551      0.064591
      2.11489      4.20151     11.72270        -0.004886     -0.000110     -0.008059
      4.20243      6.28890     11.72355        -0.000003      0.004909     -0.008113
      2.09874      6.30323     13.78210        -0.004858      0.004950      0.003001
      4.20243      4.19564     13.95172        -0.000000     -0.001537     -0.011318
      6.30365      0.00000      7.50000        -0.003082     -0.000091      0.400367
      0.00000      2.10122      7.50000         0.000001      0.003131      0.400604
      6.30365      2.10122      9.60122        -0.021848      0.021680      0.021993
      0.00000      0.00000      9.60122         0.000000     -0.001558      0.010185
      6.30058      8.40345     11.70587         0.003628      0.000119      0.006334
     -0.00000      2.10327     11.70540         0.000001     -0.003591      0.006791
      6.30536      2.09679     13.77896         0.005190     -0.005095      0.002906
     -0.00000      8.40308     13.78810         0.000002      0.000528     -0.002155
      6.30365      4.20243      7.50000        -0.003870      0.000163      0.411144
      0.00000      6.30365      7.50000         0.000000     -0.003035      0.400094
      6.30365      6.30365      9.60122        -0.025217     -0.025328      0.024226
      0.00000      4.20243      9.60122        -0.000001     -0.001394      0.051695
      6.28997      4.20151     11.72270         0.004886     -0.000113     -0.008062
     -0.00000      6.29953     11.70630         0.000003      0.003714      0.005813
      6.30612      6.30323     13.78210         0.004855      0.004948      0.002991
      0.00000      4.20050     13.78332        -0.000004     -0.000201      0.010433
      2.10122      0.00000      9.60122        -0.011880     -0.003814      0.042833
      4.20243      2.10122      9.60122        -0.000000      0.007344      0.062171
      2.10122      2.10122      7.50000        -0.005262     -0.005534     -0.493651
      4.20243      0.00000      7.50000         0.000000      0.000532     -0.494619
      2.09591      8.40323     13.84386        -0.000566      0.000052      0.001412
      4.20243      2.07661     13.84463        -0.000003      0.001370      0.003604
      2.10034      2.09950     11.70572        -0.003086     -0.003099      0.001536
      4.20243      8.40306     11.70340        -0.000001      0.000291     -0.000615
      2.10122      4.20243      9.60122         0.009781     -0.001070      0.062371
      4.20243      6.30365      9.60122         0.000000     -0.012052      0.062660
      2.10122      6.30365      7.50000        -0.005803      0.005529     -0.493805
      4.20243      4.20243      7.50000         0.000000     -0.000524     -0.502872
      2.07847      4.19974     13.84895         0.001175     -0.000300      0.004268
      4.20243      6.32506     13.85431         0.000002     -0.000869      0.005320
      2.10102      6.30311     11.70731        -0.003025      0.003036      0.001872
      4.20243      4.20196     11.72158         0.000003     -0.000157      0.012819
      6.30365      0.00000      9.60122         0.011880     -0.003815      0.042832
      0.00000      2.10122      9.60122         0.000001     -0.013975      0.040271
      6.30365      2.10122      7.50000         0.005262     -0.005534     -0.493653
      0.00000      0.00000      7.50000        -0.000000      0.000009     -0.487726
      6.30896      8.40323     13.84386         0.000565      0.000057      0.001415
     -0.00000      2.09421     13.84386         0.000001     -0.000617      0.001945
      6.30452      2.09950     11.70572         0.003085     -0.003098      0.001538
     -0.00000      8.40367     11.70371         0.000001      0.000467     -0.005273
      6.30365      4.20243      9.60122        -0.009781     -0.001070      0.062374
      0.00000      6.30365      9.60122        -0.000000      0.009897      0.045514
      6.30365      6.30365      7.50000         0.005803      0.005530     -0.493803
      0.00000      4.20243      7.50000         0.000001      0.000026     -0.494635
      6.32639      4.19974     13.84895        -0.001172     -0.000295      0.004283
     -0.00000      6.30711     13.84391         0.000006      0.000443      0.000883
      6.30384      6.30311     11.70731         0.003025      0.003035      0.001872
      0.00000      4.20161     11.70335        -0.000001     -0.000251     -0.000606
    total drift:                               -0.000001     -0.006343     -0.006179

  FREE ENERGIE OF THE ION-ELECTRON SYSTEM (eV)
  free  energy   TOTEN  =      -462.19640960 eV

  energy  without entropy=     -462.19640960  energy(sigma->0) =     -462.19640960

 d Force = 0.8786243E-04[ 0.729E-04, 0.103E-03]  d Energy = 0.8064170E-04 0.722E-05
 d Force = 0.8251420E+01[ 0.825E+01, 0.825E+01]  d Ewald  = 0.8251418E+01 0.164E-05

 reached required accuracy - stopping structural energy minimisation